!    02/04/2026   15:40:41 
! Ref Plane: 0.000 mm
# MHZ S MA R  50
!
0.5000        0.97516       1.87          1.134E-4      -120.33       2.071E-4      -72.19        1.00283       -1.48          
4.2494        0.99415       -0.57         7.595E-5      -26.41        3.904E-5      172.14        1.00833       -0.82          
7.9988        0.9952        -1.10         4.723E-6      82.45         2.487E-5      -158.57       1.00909       -0.87          
11.7481       0.99586       -1.49         1.088E-4      165.76        3.327E-5      -44.05        1.00937       -0.95          
15.4975       0.9959        -1.84         1.579E-4      144.79        9.024E-5      -157.88       1.00923       -1.01          
19.2469       0.99571       -2.15         1.444E-4      87.85         7.463E-5      -1.54         1.00893       -1.05          
22.9963       0.99533       -2.45         1.138E-4      131.37        1.619E-4      59.38         1.00869       -1.09          
26.7457       0.99477       -2.74         2.798E-4      87.34         6.079E-5      50.27         1.00838       -1.12          
30.4950       0.99405       -3.03         1.959E-4      97.58         2.575E-4      99.36         1.00803       -1.14          
34.2444       0.99282       -3.36         4.623E-4      102.55        5.374E-4      85.27         1.00765       -1.18          
37.9938       0.99161       -3.66         1.405E-3      87.78         1.366E-3      84.66         1.00735       -1.23          
41.7432       0.97786       -4.11         6.481E-3      22.53         6.427E-3      21.20         1.00445       -1.33          
45.4926       0.99065       -3.79         2.099E-3      -79.03        1.924E-3      -84.35        1.00652       -1.29          
49.2419       0.99113       -4.22         1.137E-3      -95.76        1.195E-3      -93.30        1.00661       -1.33          
52.9913       0.98921       -4.54         1.037E-3      -107.47       8.428E-4      -101.65       1.00608       -1.56          
56.7407       0.98945       -4.95         8.975E-4      -117.40       8.619E-4      -117.06       1.00591       -1.72          
60.4901       0.99029       -5.28         7.523E-4      -118.31       7.922E-4      -131.64       1.00588       -1.92          
64.2395       0.99056       -5.69         9.606E-4      -116.67       9.761E-4      -110.27       1.00574       -2.11          
67.9888       0.98874       -6.15         1.733E-3      -129.55       1.791E-3      -129.92       1.00553       -2.31          
71.7382       0.98525       -6.33         2.42E-3       -171.64       2.434E-3      -176.98       1.00514       -2.50          
75.4876       0.98712       -6.56         1.968E-3      164.68        1.955E-3      158.58        1.00537       -2.65          
79.2370       0.98447       -6.50         4.048E-3      123.55        4.189E-3      122.51        1.00528       -2.74          
82.9864       0.99027       -6.90         2.573E-3      94.36         2.621E-3      92.49         1.00591       -2.89          
86.7357       0.99084       -7.31         2.396E-3      84.76         2.421E-3      88.07         1.00611       -2.99          
90.4851       0.98992       -7.66         2.703E-3      75.48         2.643E-3      70.46         1.00625       -3.07          
94.2345       0.9881        -7.96         3.05E-3       62.72         2.991E-3      62.22         1.00632       -3.13          
97.9839       0.98616       -8.30         3.997E-3      44.98         3.864E-3      44.56         1.00519       -3.20          
101.7333      0.98208       -8.52         4.143E-3      18.91         4.267E-3      19.87         1.00456       -3.18          
105.4826      0.98078       -8.66         3.742E-3      -3.43         3.776E-3      -6.33         1.00463       -3.17          
109.2320      0.97897       -9.02         3.417E-3      -5.27         3.358E-3      -8.04         1.00479       -3.21          
112.9814      0.97242       -9.27         4.187E-3      -14.93        4.279E-3      -16.59        1.00476       -3.26          
116.7308      0.96908       -8.92         5.433E-3      -40.90        5.201E-3      -41.32        1.00474       -3.31          
120.4802      0.97801       -9.00         4.293E-3      -69.40        4.234E-3      -69.12        1.00527       -3.42          
124.2295      0.98282       -9.42         3.553E-3      -80.46        3.398E-3      -84.50        1.00526       -3.55          
127.9789      0.98473       -9.91         2.972E-3      -91.51        2.90E-3       -92.67        1.00522       -3.69          
131.7283      0.98558       -10.33        2.462E-3      -99.88        2.369E-3      -98.97        1.00525       -3.83          
135.4777      0.98631       -10.76        2.194E-3      -96.95        2.23E-3       -98.34        1.00528       -3.97          
139.2271      0.98638       -11.15        2.211E-3      -106.38       2.13E-3       -104.57       1.00521       -4.11          
142.9764      0.9863        -11.51        2.142E-3      -107.03       2.163E-3      -106.87       1.00506       -4.23          
146.7258      0.98581       -11.85        2.389E-3      -111.14       2.224E-3      -111.30       1.00496       -4.32          
150.4752      0.98459       -12.20        2.481E-3      -118.81       2.559E-3      -123.30       1.00479       -4.39          
154.2246      0.98249       -12.50        2.614E-3      -130.82       2.66E-3       -130.99       1.00483       -4.45          
157.9740      0.9806        -12.75        2.705E-3      -147.99       2.622E-3      -148.62       1.00484       -4.50          
161.7233      0.97894       -13.03        2.658E-3      -165.92       2.442E-3      -162.80       1.00448       -4.54          
165.4727      0.97729       -13.39        2.535E-3      -178.98       2.429E-3      -179.61       1.0041        -4.57          
169.2221      0.97279       -13.83        2.485E-3      160.54        2.47E-3       158.52        1.00394       -4.59          
172.9715      0.96566       -14.14        2.489E-3      134.48        2.438E-3      135.01        1.00372       -4.64          
176.7209      0.95746       -14.26        2.268E-3      104.78        2.316E-3      102.11        1.00357       -4.71          
180.4702      0.95233       -14.07        1.804E-3      74.37         1.917E-3      70.12         1.00346       -4.82          
184.2196      0.95237       -14.00        1.525E-3      50.74         1.694E-3      50.58         1.00349       -4.95          
187.9690      0.95495       -14.02        1.32E-3       18.14         1.243E-3      22.00         1.00363       -5.12          
191.7184      0.95778       -14.23        1.141E-3      18.75         1.18E-3       20.43         1.00344       -5.33          
195.4678      0.95994       -14.49        1.588E-3      10.29         1.499E-3      15.32         1.00301       -5.53          
199.2171      0.9622        -14.77        2.042E-3      -8.77         1.969E-3      -8.46         1.00259       -5.74          
202.9665      0.96496       -15.11        2.431E-3      -27.01        2.363E-3      -29.61        1.00209       -5.97          
206.7159      0.96523       -15.42        2.958E-3      -38.25        2.792E-3      -38.06        1.00106       -6.17          
210.4653      0.96699       -15.63        3.569E-3      -60.27        3.511E-3      -60.95        1.00006       -6.32          
214.2147      0.97046       -15.93        3.657E-3      -83.90        3.435E-3      -82.32        0.99924       -6.41          
217.9640      0.97271       -16.32        3.48E-3       -98.01        3.387E-3      -97.88        0.99915       -6.44          
221.7134      0.97404       -16.69        3.572E-3      -111.70       3.549E-3      -111.39       0.99963       -6.49          
225.4628      0.9746        -17.05        3.404E-3      -126.58       3.358E-3      -128.53       1.00025       -6.54          
229.2122      0.97392       -17.41        3.367E-3      -141.24       3.347E-3      -141.23       1.00042       -6.61          
232.9616      0.97234       -17.71        3.129E-3      -158.43       2.913E-3      -158.62       1.0002        -6.64          
236.7109      0.97092       -17.95        2.618E-3      -168.39       2.479E-3      -165.73       0.99992       -6.66          
240.4603      0.97003       -18.16        2.30E-3       -178.16       2.458E-3      177.70        0.99969       -6.65          
244.2097      0.96986       -18.40        2.10E-3       166.67        2.116E-3      162.78        0.99966       -6.64          
247.9591      0.96963       -18.72        1.621E-3      152.52        1.528E-3      145.65        1.00038       -6.64          
251.7085      0.96905       -19.02        1.358E-3      139.57        1.41E-3       141.29        1.00139       -6.67          
255.4578      0.96874       -19.36        1.132E-3      124.20        1.123E-3      119.32        1.00255       -6.76          
259.2072      0.96831       -19.71        8.234E-4      105.86        9.391E-4      88.60         1.00348       -6.90          
262.9566      0.96795       -20.05        6.949E-4      78.91         6.876E-4      80.90         1.00382       -7.08          
266.7060      0.96762       -20.43        9.141E-4      39.50         8.826E-4      39.26         1.00365       -7.29          
270.4554      0.96679       -20.89        1.074E-3      9.65          1.056E-3      9.96          1.00263       -7.47          
274.2047      0.96557       -21.32        1.342E-3      -19.55        1.335E-3      -19.66        1.00188       -7.59          
277.9541      0.96476       -21.79        1.552E-3      -29.24        1.573E-3      -28.29        1.00166       -7.74          
281.7035      0.96248       -22.28        2.004E-3      -39.57        2.014E-3      -39.29        1.0008        -7.91          
285.4529      0.95898       -22.75        2.526E-3      -49.79        2.49E-3       -47.25        0.99966       -8.06          
289.2023      0.95425       -23.14        3.179E-3      -58.95        3.142E-3      -58.37        0.99854       -8.18          
292.9516      0.94898       -23.38        4.228E-3      -70.87        4.144E-3      -71.53        0.99739       -8.28          
296.7010      0.94545       -23.53        5.319E-3      -86.47        5.117E-3      -89.66        0.9962        -8.37          
300.4504      0.94283       -23.70        6.167E-3      -102.58       5.999E-3      -104.41       0.99501       -8.43          
304.1998      0.93975       -23.78        6.956E-3      -120.08       6.697E-3      -123.04       0.9936        -8.47          
307.9492      0.93777       -23.77        7.518E-3      -139.71       7.524E-3      -140.34       0.99309       -8.47          
311.6985      0.93925       -23.74        7.375E-3      -159.33       7.383E-3      -160.92       0.99295       -8.51          
315.4479      0.942         -23.89        6.781E-3      -174.93       6.703E-3      -175.87       0.99269       -8.55          
319.1973      0.94358       -24.08        6.266E-3      171.13        6.208E-3      168.94        0.99249       -8.59          
322.9467      0.94472       -24.33        5.726E-3      155.97        5.731E-3      154.35        0.9926        -8.61          
326.6961      0.94516       -24.60        4.713E-3      145.71        4.672E-3      144.17        0.99377       -8.64          
330.4454      0.94478       -24.88        4.24E-3       139.89        4.194E-3      139.47        0.99519       -8.72          
334.1948      0.94488       -25.17        3.649E-3      135.11        3.549E-3      132.64        0.99594       -8.86          
337.9442      0.94485       -25.46        3.911E-3      133.21        3.742E-3      132.57        0.99563       -8.96          
341.6936      0.94507       -25.72        4.544E-3      118.93        4.406E-3      117.02        0.9953        -9.02          
345.4430      0.94631       -26.11        4.246E-3      95.02         4.329E-3      93.23         0.99593       -9.08          
349.1923      0.94597       -26.60        3.49E-3       80.58         3.492E-3      78.96         0.99652       -9.19          
352.9417      0.94385       -27.09        3.413E-3      69.77         3.435E-3      69.10         0.9961        -9.30          
356.6911      0.94062       -27.54        3.543E-3      53.49         3.575E-3      50.45         0.99535       -9.37          
360.4405      0.93681       -27.90        3.57E-3       32.41         3.563E-3      29.07         0.9946        -9.41          
364.1899      0.93334       -28.24        3.995E-3      9.78          3.919E-3      10.84         0.99377       -9.45          
367.9392      0.93029       -28.55        4.689E-3      -16.59        4.455E-3      -17.35        0.99315       -9.46          
371.6886      0.92713       -28.87        5.111E-3      -43.51        4.994E-3      -43.81        0.9927        -9.48          
375.4380      0.92288       -29.22        5.259E-3      -65.70        5.001E-3      -66.73        0.99243       -9.49          
379.1874      0.91903       -29.44        5.532E-3      -80.86        5.491E-3      -81.30        0.9931        -9.51          
382.9368      0.91551       -29.75        6.338E-3      -99.41        6.187E-3      -101.60       0.99413       -9.59          
386.6861      0.91018       -30.04        6.611E-3      -119.29       6.707E-3      -118.80       0.99433       -9.71          
390.4355      0.90313       -30.29        7.036E-3      -133.88       6.982E-3      -135.49       0.99383       -9.84          
394.1849      0.89521       -30.32        7.563E-3      -150.27       7.422E-3      -150.45       0.99342       -9.93          
397.9343      0.88992       -30.09        7.93E-3       -166.41       7.86E-3       -167.31       0.99331       -10.02         
401.6837      0.88942       -29.81        7.772E-3      174.33        7.517E-3      173.65        0.99347       -10.14         
405.4330      0.89035       -29.73        7.029E-3      161.24        6.972E-3      159.87        0.99381       -10.27         
409.1824      0.89257       -29.63        6.618E-3      149.43        6.563E-3      148.34        0.9941        -10.43         
412.9318      0.89619       -29.75        6.266E-3      138.13        6.102E-3      137.16        0.99408       -10.58         
416.6812      0.89788       -29.92        6.165E-3      129.01        6.17E-3       127.51        0.99408       -10.73         
420.4306      0.90082       -30.07        6.038E-3      114.79        5.947E-3      113.77        0.99397       -10.85         
424.1799      0.90292       -30.34        5.865E-3      100.48        5.772E-3      100.76        0.99403       -10.97         
427.9293      0.90372       -30.61        5.361E-3      85.58         5.352E-3      85.69         0.99453       -11.10         
431.6787      0.9044        -30.85        4.744E-3      72.17         4.733E-3      71.61         0.99518       -11.25         
435.4281      0.90476       -31.13        4.393E-3      59.80         4.324E-3      59.06         0.99573       -11.40         
439.1775      0.9039        -31.44        4.166E-3      45.56         3.998E-3      42.04         0.996         -11.55         
442.9268      0.90282       -31.67        3.988E-3      28.05         3.932E-3      28.44         0.99603       -11.71         
446.6762      0.90225       -31.93        3.876E-3      12.35         3.963E-3      10.08         0.99554       -11.83         
450.4256      0.90045       -32.20        4.13E-3       -7.73         3.929E-3      -7.79         0.99506       -11.96         
454.1750      0.8988        -32.40        4.213E-3      -29.86        4.127E-3      -29.97        0.99429       -12.07         
457.9244      0.89786       -32.57        4.545E-3      -48.62        4.414E-3      -49.98        0.99349       -12.17         
461.6737      0.8971        -32.74        4.965E-3      -67.73        5.092E-3      -68.54        0.99262       -12.28         
465.4231      0.89613       -32.85        5.619E-3      -89.35        5.473E-3      -89.34        0.99149       -12.39         
469.1725      0.89758       -32.92        5.913E-3      -111.20       5.741E-3      -110.44       0.99049       -12.49         
472.9219      0.90052       -33.07        5.869E-3      -128.96       5.839E-3      -130.13       0.98935       -12.59         
476.6713      0.90458       -33.27        5.897E-3      -144.13       5.672E-3      -145.89       0.98779       -12.68         
480.4206      0.90945       -33.54        5.875E-3      -156.29       5.877E-3      -156.97       0.98605       -12.72         
484.1700      0.91372       -33.91        5.99E-3       -166.62       5.713E-3      -168.47       0.98461       -12.73         
487.9194      0.91697       -34.34        6.129E-3      -177.98       6.084E-3      -179.54       0.98422       -12.74         
491.6688      0.91869       -34.77        6.346E-3      170.21        6.227E-3      169.32        0.98449       -12.78         
495.4182      0.9193        -35.17        6.423E-3      158.12        6.432E-3      156.99        0.98524       -12.81         
499.1675      0.91942       -35.54        6.575E-3      144.81        6.461E-3      142.99        0.98587       -12.87         
502.9169      0.91983       -35.89        6.104E-3      130.74        6.064E-3      129.38        0.98668       -12.93         
506.6663      0.92027       -36.25        5.69E-3       120.48        5.525E-3      120.78        0.98713       -12.97         
510.4157      0.92031       -36.66        5.173E-3      110.68        5.189E-3      110.54        0.98797       -13.04         
514.1651      0.91968       -37.09        4.906E-3      100.89        4.826E-3      101.24        0.98849       -13.13         
517.9144      0.91901       -37.53        4.561E-3      91.11         4.474E-3      92.17         0.98895       -13.20         
521.6638      0.9176        -37.99        4.159E-3      80.45         4.082E-3      81.20         0.98966       -13.28         
525.4132      0.91563       -38.45        3.726E-3      71.24         3.789E-3      70.49         0.99063       -13.40         
529.1626      0.91411       -38.90        3.285E-3      63.84         3.363E-3      59.47         0.99108       -13.56         
532.9120      0.9143        -39.41        3.01E-3       54.63         2.922E-3      52.83         0.99106       -13.71         
536.6613      0.91408       -40.00        2.689E-3      44.74         2.564E-3      43.92         0.99091       -13.88         
540.4107      0.91322       -40.55        2.51E-3       34.11         2.553E-3      34.26         0.99048       -14.05         
544.1601      0.91172       -41.09        2.264E-3      17.61         2.215E-3      17.30         0.99016       -14.23         
547.9095      0.90943       -41.61        1.962E-3      4.20          1.853E-3      4.46          0.99022       -14.44         
551.6589      0.90711       -42.12        1.727E-3      -7.90         1.629E-3      -14.38        0.99005       -14.67         
555.4082      0.90424       -42.61        1.832E-3      -24.26        1.85E-3       -26.77        0.98957       -14.87         
559.1576      0.90082       -43.05        1.985E-3      -48.06        1.897E-3      -50.29        0.98872       -15.07         
562.9070      0.89744       -43.46        1.975E-3      -69.20        1.882E-3      -69.97        0.98755       -15.22         
566.6564      0.89332       -43.84        2.111E-3      -86.44        1.902E-3      -89.26        0.98681       -15.32         
570.4058      0.88876       -44.17        2.423E-3      -97.89        2.478E-3      -100.74       0.98632       -15.42         
574.1551      0.88428       -44.47        2.944E-3      -110.15       2.952E-3      -112.33       0.9861        -15.51         
577.9045      0.87925       -44.75        3.651E-3      -125.07       3.546E-3      -127.70       0.98612       -15.57         
581.6539      0.87379       -45.01        4.488E-3      -141.52       4.418E-3      -141.66       0.9867        -15.63         
585.4033      0.86819       -45.25        5.217E-3      -159.30       4.955E-3      -159.78       0.98718       -15.72         
589.1527      0.86279       -45.44        5.472E-3      -177.71       5.523E-3      -178.14       0.9875        -15.81         
592.9020      0.85884       -45.55        5.489E-3      165.46        5.407E-3      166.25        0.9876        -15.92         
596.6514      0.85652       -45.64        5.211E-3      150.09        5.019E-3      150.93        0.98755       -16.04         
600.4008      0.85589       -45.71        4.899E-3      140.78        4.94E-3       138.81        0.9874        -16.16         
604.1502      0.85574       -45.98        4.731E-3      135.19        4.766E-3      132.64        0.98705       -16.29         
607.8996      0.85344       -46.33        4.91E-3       128.03        4.874E-3      125.54        0.98668       -16.46         
611.6489      0.85022       -46.59        5.154E-3      117.45        5.117E-3      116.22        0.98647       -16.61         
615.3983      0.84774       -46.76        5.248E-3      104.36        5.27E-3       102.02        0.98625       -16.75         
619.1477      0.84646       -46.96        5.018E-3      91.42         4.974E-3      88.84         0.98598       -16.91         
622.8971      0.84464       -47.22        4.831E-3      81.19         4.71E-3       79.73         0.98548       -17.07         
626.6465      0.84224       -47.46        4.664E-3      67.37         4.715E-3      66.42         0.98448       -17.23         
630.3958      0.83887       -47.68        4.36E-3       53.35         4.264E-3      51.93         0.98348       -17.37         
634.1452      0.83517       -47.84        4.046E-3      37.72         3.981E-3      38.38         0.98244       -17.53         
637.8946      0.8316        -47.98        3.893E-3      20.80         3.824E-3      19.73         0.98098       -17.64         
641.6440      0.8283        -48.11        3.467E-3      -4.13         3.447E-3      -5.06         0.97945       -17.74         
645.3934      0.82552       -48.21        3.07E-3       -29.10        3.209E-3      -27.83        0.9779        -17.82         
649.1427      0.82338       -48.34        2.882E-3      -55.68        2.905E-3      -56.89        0.97652       -17.90         
652.8921      0.8213        -48.42        2.601E-3      -83.30        2.663E-3      -83.80        0.97499       -18.00         
656.6415      0.82048       -48.45        2.663E-3      -103.23       2.563E-3      -103.63       0.97317       -18.10         
660.3909      0.82078       -48.48        3.069E-3      -122.37       2.839E-3      -121.95       0.97125       -18.17         
664.1403      0.82203       -48.54        3.53E-3       -144.54       3.621E-3      -145.01       0.96969       -18.22         
667.8896      0.82413       -48.67        3.736E-3      -164.74       3.593E-3      -166.68       0.96869       -18.28         
671.6390      0.82703       -48.87        3.836E-3      -177.49       3.768E-3      -179.09       0.96834       -18.34         
675.3884      0.82948       -49.13        4.193E-3      170.76        4.20E-3       168.86        0.96821       -18.39         
679.1378      0.8311        -49.39        4.624E-3      158.66        4.679E-3      156.99        0.96855       -18.44         
682.8872      0.83218       -49.62        4.908E-3      143.61        4.836E-3      141.11        0.96934       -18.49         
686.6365      0.83331       -49.76        4.732E-3      128.11        4.841E-3      127.97        0.9704        -18.58         
690.3859      0.83565       -49.92        4.259E-3      120.24        4.254E-3      118.46        0.97153       -18.68         
694.1353      0.83891       -50.17        4.231E-3      115.81        4.155E-3      115.97        0.97253       -18.78         
697.8847      0.84162       -50.58        4.221E-3      108.80        4.22E-3       109.30        0.97319       -18.85         
701.6341      0.84267       -51.07        4.362E-3      103.97        4.378E-3      103.38        0.97412       -18.91         
705.3834      0.84257       -51.54        4.522E-3      94.62         4.381E-3      92.59         0.97488       -19.01         
709.1328      0.842         -51.98        4.332E-3      83.92         4.463E-3      82.53         0.97537       -19.11         
712.8822      0.84212       -52.45        4.176E-3      74.43         4.237E-3      73.34         0.97566       -19.25         
716.6316      0.84204       -52.95        4.029E-3      65.06         4.051E-3      65.25         0.97548       -19.42         
720.3810      0.84137       -53.52        3.904E-3      56.16         3.829E-3      54.89         0.97482       -19.60         
724.1303      0.83936       -54.08        3.675E-3      46.58         3.641E-3      44.17         0.97356       -19.78         
727.8797      0.83632       -54.58        3.314E-3      32.07         3.287E-3      31.89         0.97231       -19.97         
731.6291      0.83381       -54.93        2.907E-3      23.38         2.919E-3      21.41         0.97097       -20.17         
735.3785      0.83304       -55.21        2.482E-3      10.44         2.584E-3      11.72         0.96933       -20.33         
739.1279      0.8332        -55.51        2.22E-3       -3.18         2.208E-3      -0.27         0.96808       -20.47         
742.8772      0.83296       -55.85        1.85E-3       -23.78        1.728E-3      -25.10        0.96728       -20.62         
746.6266      0.83186       -56.17        1.364E-3      -46.88        1.307E-3      -46.78        0.96657       -20.75         
750.3760      0.83051       -56.40        1.083E-3      -74.33        1.023E-3      -75.44        0.96608       -20.86         
754.1254      0.83071       -56.64        8.341E-4      -104.82       8.003E-4      -107.78       0.96608       -20.92         
757.8748      0.83143       -56.99        7.596E-4      -130.81       7.763E-4      -136.49       0.96651       -20.97         
761.6241      0.83098       -57.41        9.283E-4      -145.69       9.844E-4      -144.13       0.96669       -21.04         
765.3735      0.82982       -57.83        1.337E-3      -157.39       1.309E-3      -159.01       0.96639       -21.10         
769.1229      0.82833       -58.25        1.704E-3      179.65        1.569E-3      177.40        0.96594       -21.13         
772.8723      0.82647       -58.74        1.799E-3      164.78        1.863E-3      164.33        0.96582       -21.18         
776.6217      0.82429       -59.23        1.902E-3      159.38        1.891E-3      158.50        0.96584       -21.24         
780.3710      0.82246       -59.72        2.118E-3      157.31        2.038E-3      157.33        0.96563       -21.33         
784.1204      0.82125       -60.25        2.647E-3      151.88        2.672E-3      150.76        0.9651        -21.42         
787.8698      0.81991       -60.86        3.194E-3      139.60        3.041E-3      138.52        0.96461       -21.55         
791.6192      0.81761       -61.47        3.419E-3      125.85        3.342E-3      124.00        0.96382       -21.73         
795.3686      0.81548       -61.98        3.375E-3      112.92        3.331E-3      112.84        0.96298       -21.91         
799.1179      0.81375       -62.49        3.125E-3      105.52        3.221E-3      103.51        0.96202       -22.13         
802.8673      0.81169       -62.99        3.118E-3      101.49        3.113E-3      101.28        0.96094       -22.34         
806.6167      0.8097        -63.48        3.196E-3      98.38         3.103E-3      98.48         0.96005       -22.51         
810.3661      0.8074        -63.99        3.30E-3       90.78         3.277E-3      91.63         0.95953       -22.66         
814.1155      0.80445       -64.45        3.176E-3      85.94         3.229E-3      86.04         0.95936       -22.80         
817.8648      0.80204       -64.87        3.198E-3      82.64         3.307E-3      82.23         0.95908       -22.93         
821.6142      0.79868       -65.32        3.593E-3      77.78         3.626E-3      77.43         0.95844       -23.03         
825.3636      0.79409       -65.72        3.789E-3      66.65         3.769E-3      65.52         0.95777       -23.07         
829.1130      0.78875       -66.08        3.656E-3      55.08         3.649E-3      55.32         0.95745       -23.09         
832.8624      0.78356       -66.39        3.472E-3      47.22         3.395E-3      45.45         0.95767       -23.12         
836.6117      0.77863       -66.73        3.251E-3      36.70         3.206E-3      35.27         0.95751       -23.17         
840.3611      0.77389       -67.12        3.06E-3       26.55         3.187E-3      23.30         0.95698       -23.20         
844.1105      0.76854       -67.51        2.809E-3      16.85         2.749E-3      14.12         0.95631       -23.19         
847.8599      0.76269       -67.83        2.595E-3      6.29          2.679E-3      7.03          0.95617       -23.20         
851.6093      0.7573        -68.05        2.455E-3      -9.78         2.536E-3      -12.33        0.95658       -23.30         
855.3586      0.753         -68.22        2.125E-3      -35.01        2.139E-3      -38.38        0.95674       -23.47         
859.1080      0.74994       -68.41        1.661E-3      -69.77        1.611E-3      -69.51        0.95713       -23.66         
862.8574      0.74741       -68.63        9.844E-4      -108.43       1.036E-3      -111.49       0.95751       -23.87         
866.6068      0.74577       -68.87        9.627E-4      -148.99       8.637E-4      -147.15       0.95797       -24.09         
870.3562      0.74557       -69.10        1.081E-3      177.82        1.106E-3      176.14        0.95844       -24.31         
874.1055      0.74597       -69.38        1.429E-3      158.03        1.424E-3      160.09        0.95932       -24.56         
877.8549      0.74632       -69.71        1.732E-3      145.04        1.716E-3      139.54        0.95993       -24.81         
881.6043      0.74623       -70.06        2.146E-3      134.42        2.181E-3      130.96        0.96035       -25.03         
885.3537      0.7455        -70.39        2.693E-3      116.32        2.647E-3      119.90        0.96033       -25.23         
889.1031      0.74458       -70.73        3.029E-3      103.70        2.886E-3      102.44        0.9604        -25.39         
892.8524      0.74354       -71.06        3.368E-3      92.95         3.208E-3      89.85         0.96081       -25.53         
896.6018      0.74323       -71.43        3.462E-3      77.65         3.267E-3      76.04         0.96122       -25.66         
900.3512      0.74278       -71.83        3.107E-3      69.04         3.127E-3      67.70         0.96145       -25.79         
904.1006      0.74249       -72.21        3.011E-3      68.66         2.949E-3      64.33         0.96139       -25.91         
907.8500      0.74218       -72.62        3.301E-3      64.48         3.445E-3      67.10         0.9605        -26.06         
911.5993      0.74128       -73.05        3.897E-3      58.76         3.945E-3      58.78         0.95928       -26.24         
915.3487      0.73998       -73.54        4.299E-3      46.89         4.333E-3      46.11         0.95838       -26.44         
919.0981      0.73775       -74.06        4.451E-3      36.51         4.423E-3      37.23         0.95713       -26.66         
922.8475      0.73525       -74.59        4.552E-3      27.43         4.562E-3      28.25         0.95564       -26.86         
926.5969      0.732         -75.09        4.926E-3      20.89         4.993E-3      21.92         0.9541        -27.05         
930.3462      0.72836       -75.49        5.412E-3      11.39         5.588E-3      10.90         0.95242       -27.25         
934.0956      0.72534       -75.81        5.789E-3      -4.42         5.774E-3      -5.64         0.95124       -27.44         
937.8450      0.72232       -76.13        5.65E-3       -18.90        5.543E-3      -20.63        0.95024       -27.61         
941.5944      0.71887       -76.38        5.337E-3      -30.76        5.18E-3       -30.34        0.94965       -27.74         
945.3438      0.71601       -76.54        5.157E-3      -39.36        5.157E-3      -40.91        0.94933       -27.85         
949.0931      0.71426       -76.71        5.363E-3      -49.93        5.257E-3      -51.10        0.94962       -27.95         
952.8425      0.71372       -76.95        5.155E-3      -64.54        5.071E-3      -65.62        0.9506        -28.03         
956.5919      0.71406       -77.25        4.702E-3      -75.75        4.796E-3      -77.13        0.95192       -28.11         
960.3413      0.71501       -77.65        4.308E-3      -85.08        4.242E-3      -85.98        0.95282       -28.19         
964.0907      0.71576       -78.10        4.052E-3      -91.22        4.089E-3      -91.08        0.95342       -28.25         
967.8400      0.71533       -78.62        3.674E-3      -101.89       3.555E-3      -99.26        0.95419       -28.30         
971.5894      0.71409       -79.18        3.024E-3      -103.89       3.021E-3      -104.57       0.95543       -28.43         
975.3388      0.71224       -79.81        2.73E-3       -103.30       2.751E-3      -106.17       0.95597       -28.63         
979.0882      0.71018       -80.39        2.534E-3      -99.04        2.418E-3      -98.55        0.9561        -28.83         
982.8376      0.70844       -80.99        2.516E-3      -90.53        2.523E-3      -88.53        0.95569       -29.03         
986.5869      0.707         -81.60        2.968E-3      -87.74        2.954E-3      -83.12        0.95507       -29.24         
990.3363      0.70504       -82.23        3.575E-3      -86.13        3.468E-3      -87.70        0.9543        -29.47         
994.0857      0.70287       -82.83        4.328E-3      -90.40        4.239E-3      -92.15        0.95355       -29.75         
997.8351      0.70049       -83.40        5.194E-3      -100.56       5.145E-3      -99.90        0.95307       -30.03         
1001.5845     0.69798       -83.98        5.462E-3      -112.13       5.447E-3      -112.20       0.95266       -30.35         
1005.3338     0.6946        -84.56        5.60E-3       -117.47       5.498E-3      -118.74       0.95143       -30.69         
1009.0832     0.69124       -85.10        5.92E-3       -121.41       5.859E-3      -122.51       0.95034       -30.99         
1012.8326     0.68816       -85.61        6.411E-3      -126.27       6.323E-3      -127.70       0.94955       -31.28         
1016.5820     0.68547       -86.09        7.061E-3      -134.41       6.996E-3      -135.39       0.94882       -31.55         
1020.3314     0.6832        -86.58        7.193E-3      -144.45       7.089E-3      -145.40       0.94826       -31.82         
1024.0807     0.68063       -87.09        6.978E-3      -152.01       6.945E-3      -153.20       0.9475        -32.05         
1027.8301     0.67719       -87.61        6.717E-3      -156.12       6.583E-3      -155.47       0.94726       -32.28         
1031.5795     0.67362       -88.11        6.716E-3      -158.27       6.656E-3      -158.89       0.94716       -32.55         
1035.3289     0.67022       -88.63        6.888E-3      -160.26       6.632E-3      -162.17       0.9468        -32.84         
1039.0783     0.66721       -89.15        6.996E-3      -164.87       6.89E-3       -164.20       0.9461        -33.14         
1042.8276     0.66386       -89.67        7.202E-3      -170.24       7.20E-3       -172.83       0.94497       -33.42         
1046.5770     0.66104       -90.15        7.022E-3      -174.87       7.178E-3      -175.27       0.94384       -33.68         
1050.3264     0.65879       -90.65        6.816E-3      -174.69       6.61E-3       -176.22       0.9424        -33.94         
1054.0758     0.65658       -91.18        7.089E-3      -176.24       6.974E-3      -178.70       0.94114       -34.19         
1057.8252     0.65418       -91.71        7.169E-3      -178.54       7.052E-3      179.81        0.9402        -34.46         
1061.5745     0.65167       -92.24        7.22E-3       178.89        7.254E-3      178.32        0.93925       -34.71         
1065.3239     0.64965       -92.79        7.291E-3      177.60        7.066E-3      175.96        0.93806       -34.94         
1069.0733     0.64763       -93.42        7.267E-3      176.16        7.301E-3      175.44        0.93671       -35.15         
1072.8227     0.6451        -94.05        7.38E-3       177.64        7.416E-3      176.58        0.93593       -35.34         
1076.5721     0.64218       -94.67        7.918E-3      178.92        7.855E-3      177.89        0.93487       -35.54         
1080.3214     0.63873       -95.27        8.51E-3       178.96        8.205E-3      177.95        0.93309       -35.72         
1084.0708     0.6348        -95.82        9.404E-3      177.08        9.296E-3      176.97        0.93071       -35.83         
1087.8202     0.6306        -96.35        1.04E-2       173.36        1.023E-2      172.18        0.92878       -35.84         
1091.5696     0.62684       -96.88        1.10E-2       167.77        1.075E-2      167.58        0.92806       -35.87         
1095.3190     0.62293       -97.46        1.121E-2      162.17        1.127E-2      161.71        0.9273        -35.95         
1099.0683     0.61841       -98.09        1.139E-2      159.25        1.121E-2      158.41        0.92604       -36.06         
1102.8177     0.6132        -98.67        1.175E-2      156.62        1.162E-2      156.33        0.92448       -36.15         
1106.5671     0.60812       -99.20        1.213E-2      152.92        1.192E-2      151.76        0.92312       -36.24         
1110.3165     0.60314       -99.74        1.241E-2      149.28        1.203E-2      147.91        0.92197       -36.36         
1114.0659     0.59837       -100.31       1.274E-2      145.57        1.271E-2      144.67        0.92106       -36.54         
1117.8152     0.59374       -100.91       1.282E-2      141.66        1.287E-2      140.82        0.92041       -36.78         
1121.5646     0.5892        -101.58       1.304E-2      138.75        1.263E-2      136.73        0.9198        -37.06         
1125.3140     0.58444       -102.25       1.269E-2      135.44        1.268E-2      134.65        0.91885       -37.35         
1129.0634     0.58013       -102.92       1.291E-2      133.95        1.265E-2      132.50        0.91795       -37.68         
1132.8128     0.57606       -103.61       1.327E-2      132.44        1.303E-2      130.43        0.91704       -38.03         
1136.5621     0.5719        -104.30       1.361E-2      128.65        1.339E-2      127.45        0.9166        -38.40         
1140.3115     0.56778       -104.97       1.36E-2       124.89        1.347E-2      124.26        0.91587       -38.81         
1144.0609     0.56385       -105.57       1.362E-2      122.07        1.353E-2      120.78        0.91475       -39.20         
1147.8103     0.56041       -106.14       1.358E-2      117.61        1.336E-2      116.46        0.91376       -39.54         
1151.5597     0.55745       -106.68       1.302E-2      114.46        1.267E-2      114.71        0.91319       -39.86         
1155.3090     0.55458       -107.23       1.21E-2       114.68        1.19E-2       113.25        0.91287       -40.25         
1159.0584     0.55162       -107.75       1.193E-2      115.50        1.173E-2      114.89        0.9119        -40.66         
1162.8078     0.54821       -108.22       1.217E-2      117.32        1.188E-2      116.41        0.90993       -41.03         
1166.5572     0.54446       -108.64       1.266E-2      117.84        1.255E-2      116.69        0.90797       -41.32         
1170.3066     0.54116       -109.01       1.313E-2      115.61        1.289E-2      114.74        0.9063        -41.60         
1174.0559     0.53798       -109.44       1.297E-2      114.01        1.283E-2      112.86        0.90482       -41.92         
1177.8053     0.53451       -109.95       1.285E-2      114.52        1.265E-2      113.55        0.90289       -42.26         
1181.5547     0.53051       -110.50       1.305E-2      115.29        1.286E-2      114.80        0.9007        -42.57         
1185.3041     0.52604       -111.08       1.372E-2      115.72        1.352E-2      114.71        0.89879       -42.85         
1189.0535     0.52142       -111.63       1.415E-2      115.05        1.396E-2      113.99        0.89659       -43.13         
1192.8028     0.51731       -112.19       1.438E-2      114.83        1.422E-2      113.93        0.89486       -43.39         
1196.5522     0.51364       -112.86       1.493E-2      115.92        1.469E-2      114.89        0.89413       -43.66         
1200.3016     0.50945       -113.66       1.608E-2      115.41        1.567E-2      114.95        0.89322       -43.99         
1204.0510     0.50478       -114.44       1.716E-2      114.30        1.682E-2      113.62        0.89186       -44.33         
1207.8004     0.50014       -115.13       1.799E-2      112.22        1.782E-2      111.24        0.88984       -44.61         
1211.5497     0.49626       -115.71       1.845E-2      110.41        1.812E-2      109.57        0.88839       -44.84         
1215.2991     0.49337       -116.27       1.946E-2      109.69        1.912E-2      108.92        0.8876        -45.11         
1219.0485     0.49088       -116.81       2.048E-2      107.57        2.021E-2      107.08        0.88719       -45.44         
1222.7979     0.48887       -117.33       2.135E-2      105.95        2.12E-2       105.30        0.88597       -45.78         
1226.5473     0.48624       -117.78       2.374E-2      106.14        2.356E-2      105.33        0.88378       -46.11         
1230.2966     0.48396       -118.31       2.506E-2      103.32        2.484E-2      102.62        0.88206       -46.44         
1234.0460     0.48171       -118.83       2.576E-2      100.69        2.537E-2      99.46         0.87981       -46.82         
1237.7954     0.47945       -119.37       2.62E-2       98.94         2.59E-2       98.03         0.87727       -47.23         
1241.5448     0.47716       -119.98       2.742E-2      97.65         2.715E-2      96.74         0.87431       -47.65         
1245.2942     0.47392       -120.66       2.902E-2      95.53         2.865E-2      94.51         0.871         -48.06         
1249.0435     0.47023       -121.32       3.042E-2      92.28         3.01E-2       91.58         0.86742       -48.48         
1252.7929     0.46691       -122.04       3.149E-2      89.20         3.117E-2      88.20         0.86403       -48.93         
1256.5423     0.46352       -122.86       3.268E-2      85.96         3.229E-2      85.31         0.86038       -49.39         
1260.2917     0.46014       -123.79       3.409E-2      82.49         3.36E-2       81.63         0.85651       -49.86         
1264.0411     0.45676       -124.78       3.457E-2      78.47         3.414E-2      77.56         0.85297       -50.31         
1267.7904     0.45319       -125.76       3.492E-2      74.74         3.438E-2      74.05         0.84955       -50.74         
1271.5398     0.45043       -126.70       3.506E-2      71.09         3.47E-2       70.46         0.8466        -51.17         
1275.2892     0.44846       -127.70       3.456E-2      67.95         3.415E-2      67.22         0.84406       -51.65         
1279.0386     0.44638       -128.83       3.386E-2      66.57         3.353E-2      65.89         0.84073       -52.17         
1282.7880     0.44327       -130.00       3.392E-2      65.91         3.344E-2      65.26         0.83718       -52.63         
1286.5373     0.43896       -131.11       3.458E-2      65.53         3.409E-2      64.76         0.83381       -53.07         
1290.2867     0.43422       -132.07       3.551E-2      64.42         3.519E-2      63.50         0.82984       -53.49         
1294.0361     0.42943       -132.95       3.70E-2       62.78         3.664E-2      62.03         0.82573       -53.90         
1297.7855     0.42468       -133.79       3.809E-2      60.24         3.762E-2      59.54         0.82177       -54.25         
1301.5349     0.41922       -134.71       3.879E-2      58.40         3.831E-2      57.58         0.81929       -54.63         
1305.2842     0.41235       -135.56       4.014E-2      56.87         3.975E-2      56.06         0.81623       -55.13         
1309.0336     0.40578       -136.26       4.194E-2      54.27         4.153E-2      53.43         0.81147       -55.61         
1312.7830     0.39974       -136.99       4.365E-2      50.66         4.309E-2      49.90         0.80667       -56.05         
1316.5324     0.39434       -137.81       4.433E-2      46.50         4.389E-2      45.55         0.802         -56.52         
1320.2818     0.38909       -138.76       4.438E-2      42.99         4.388E-2      42.15         0.79758       -56.98         
1324.0311     0.38396       -139.76       4.416E-2      39.82         4.372E-2      39.04         0.79359       -57.57         
1327.7805     0.37945       -140.80       4.384E-2      37.35         4.346E-2      36.47         0.78818       -58.15         
1331.5299     0.37488       -141.94       4.386E-2      35.40         4.339E-2      34.55         0.78285       -58.71         
1335.2793     0.36997       -143.14       4.384E-2      33.30         4.338E-2      32.51         0.77706       -59.30         
1339.0287     0.36414       -144.27       4.388E-2      31.40         4.353E-2      30.73         0.77146       -59.91         
1342.7780     0.35802       -145.11       4.392E-2      29.58         4.344E-2      28.63         0.7655        -60.53         
1346.5274     0.35302       -145.75       4.402E-2      28.39         4.37E-2       27.55         0.75907       -61.09         
1350.2768     0.34893       -146.44       4.424E-2      26.87         4.396E-2      25.88         0.75303       -61.62         
1354.0262     0.34476       -147.18       4.474E-2      25.62         4.417E-2      24.84         0.74666       -62.21         
1357.7756     0.33991       -147.89       4.564E-2      24.55         4.504E-2      23.80         0.73935       -62.77         
1361.5249     0.33478       -148.58       4.698E-2      22.31         4.648E-2      21.43         0.73163       -63.23         
1365.2743     0.32942       -149.33       4.722E-2      19.83         4.672E-2      19.01         0.72492       -63.63         
1369.0237     0.32354       -150.12       4.769E-2      18.10         4.717E-2      17.22         0.71821       -64.06         
1372.7731     0.3178        -150.95       4.791E-2      15.95         4.744E-2      15.10         0.7117        -64.46         
1376.5225     0.31203       -151.95       4.793E-2      14.42         4.741E-2      13.62         0.70577       -64.95         
1380.2718     0.30627       -153.06       4.845E-2      13.39         4.803E-2      12.47         0.6987        -65.48         
1384.0212     0.2999        -154.25       4.924E-2      11.71         4.875E-2      10.90         0.69184       -66.02         
1387.7706     0.29335       -155.28       4.95E-2       10.04         4.893E-2      9.21          0.68513       -66.59         
1391.5200     0.28736       -156.15       4.962E-2      9.37          4.92E-2       8.62          0.67707       -67.29         
1395.2694     0.28254       -156.81       5.095E-2      9.25          5.051E-2      8.46          0.66724       -67.85         
1399.0187     0.27847       -157.42       5.32E-2       8.41          5.274E-2      7.66          0.65938       -68.30         
1402.7681     0.27534       -157.93       5.573E-2      6.25          5.525E-2      5.45          0.65239       -68.88         
1406.5175     0.27255       -158.35       5.722E-2      3.34          5.672E-2      2.38          0.64482       -69.49         
1410.2669     0.27017       -158.69       5.82E-2       1.15          5.774E-2      0.27          0.63695       -70.11         
1414.0163     0.26749       -159.06       5.954E-2      -0.77         5.90E-2       -1.57         0.62838       -70.79         
1417.7656     0.26478       -159.39       6.149E-2      -2.80         6.089E-2      -3.56         0.6183        -71.40         
1421.5150     0.26178       -159.78       6.36E-2       -6.07         6.297E-2      -6.91         0.60828       -71.84         
1425.2644     0.25818       -160.42       6.415E-2      -9.60         6.351E-2      -10.30        0.6001        -72.21         
1429.0138     0.25309       -161.16       6.397E-2      -11.75        6.334E-2      -12.62        0.5915        -72.73         
1432.7632     0.24774       -162.00       6.492E-2      -13.61        6.433E-2      -14.32        0.58205       -73.19         
1436.5125     0.24206       -162.89       6.604E-2      -16.06        6.538E-2      -16.75        0.57303       -73.67         
1440.2619     0.23744       -163.91       6.684E-2      -18.29        6.622E-2      -18.95        0.56322       -74.22         
1444.0113     0.23346       -165.25       6.766E-2      -20.68        6.699E-2      -21.39        0.5537        -74.78         
1447.7607     0.23055       -166.78       6.841E-2      -22.62        6.791E-2      -23.37        0.54365       -75.55         
1451.5101     0.22856       -168.73       6.976E-2      -24.65        6.912E-2      -25.33        0.53167       -76.42         
1455.2594     0.22606       -170.74       7.146E-2      -26.97        7.085E-2      -27.75        0.51715       -77.34         
1459.0088     0.224         -172.51       7.286E-2      -30.03        7.226E-2      -30.74        0.50084       -78.16         
1462.7582     0.22342       -174.17       7.349E-2      -33.04        7.288E-2      -33.74        0.48288       -78.78         
1466.5076     0.22246       -175.69       7.416E-2      -35.69        7.352E-2      -36.37        0.46411       -79.00         
1470.2570     0.22187       -176.78       7.46E-2       -38.40        7.392E-2      -39.10        0.44676       -78.87         
1474.0063     0.22161       -177.77       7.534E-2      -40.99        7.471E-2      -41.71        0.43101       -78.43         
1477.7557     0.22036       -178.53       7.606E-2      -44.11        7.531E-2      -44.74        0.41795       -77.56         
1481.5051     0.21904       -179.09       7.596E-2      -47.37        7.525E-2      -47.99        0.40991       -76.69         
1485.2545     0.21679       -179.72       7.54E-2       -50.09        7.467E-2      -50.77        0.40271       -76.33         
1489.0039     0.21304       179.71        7.439E-2      -52.69        7.373E-2      -53.35        0.39196       -75.73         
1492.7532     0.20873       179.33        7.38E-2       -54.74        7.309E-2      -55.37        0.38368       -74.68         
1496.5026     0.20477       178.86        7.356E-2      -57.16        7.284E-2      -57.79        0.37802       -73.59         
1500.2520     0.20101       178.14        7.219E-2      -59.37        7.158E-2      -60.07        0.37401       -72.65         
1504.0014     0.19824       176.98        7.117E-2      -60.75        7.061E-2      -61.51        0.37074       -71.87         
1507.7508     0.19546       175.15        7.084E-2      -62.05        7.019E-2      -62.77        0.36843       -71.30         
1511.5001     0.19235       173.02        7.043E-2      -63.36        6.984E-2      -64.07        0.36631       -70.93         
1515.2495     0.19022       170.76        7.045E-2      -64.03        6.984E-2      -64.73        0.36405       -71.05         
1518.9989     0.18919       168.10        7.166E-2      -65.19        7.104E-2      -65.90        0.35902       -71.55         
1522.7483     0.18872       165.39        7.261E-2      -66.85        7.203E-2      -67.57        0.3516        -71.74         
1526.4977     0.18832       162.67        7.332E-2      -68.60        7.278E-2      -69.36        0.34546       -71.77         
1530.2470     0.18799       160.33        7.439E-2      -69.89        7.369E-2      -70.65        0.34117       -72.06         
1533.9964     0.18834       158.64        7.631E-2      -71.76        7.568E-2      -72.47        0.33499       -72.89         
1537.7458     0.18987       157.18        7.822E-2      -74.26        7.753E-2      -75.03        0.32637       -73.56         
1541.4952     0.19179       155.84        7.967E-2      -77.35        7.904E-2      -78.03        0.31749       -74.01         
1545.2446     0.19398       154.39        8.00E-2       -80.49        7.934E-2      -81.19        0.30788       -74.34         
1548.9939     0.19477       152.87        8.007E-2      -82.68        7.932E-2      -83.41        0.29811       -74.62         
1552.7433     0.19409       151.44        8.16E-2       -85.16        8.094E-2      -85.82        0.28605       -74.77         
1556.4927     0.19215       150.06        8.287E-2      -88.76        8.215E-2      -89.40        0.27218       -74.22         
1560.2421     0.1892        148.73        8.283E-2      -92.57        8.217E-2      -93.17        0.25916       -72.79         
1563.9915     0.18539       147.55        8.221E-2      -96.38        8.153E-2      -97.04        0.24759       -70.80         
1567.7408     0.18133       146.44        8.046E-2      -100.03       7.982E-2      -100.72       0.23832       -67.94         
1571.4902     0.17682       145.47        7.791E-2      -103.33       7.73E-2       -104.01       0.23327       -65.01         
1575.2396     0.1735        144.71        7.451E-2      -105.70       7.398E-2      -106.45       0.23008       -62.45         
1578.9890     0.17185       143.75        7.18E-2       -106.82       7.131E-2      -107.59       0.22771       -60.51         
1582.7384     0.17063       142.55        7.009E-2      -107.48       6.954E-2      -108.22       0.22387       -58.58         
1586.4877     0.17047       141.07        6.944E-2      -107.68       6.889E-2      -108.51       0.22214       -56.62         
1590.2371     0.17018       139.25        6.993E-2      -108.60       6.943E-2      -109.41       0.22018       -55.38         
1593.9865     0.16988       137.44        7.042E-2      -110.28       6.982E-2      -111.17       0.21745       -54.22         
1597.7359     0.16943       135.36        7.01E-2       -112.16       6.957E-2      -112.88       0.2156        -53.01         
1601.4853     0.16772       133.58        7.004E-2      -113.29       6.941E-2      -114.07       0.21373       -52.48         
1605.2346     0.16649       132.16        7.055E-2      -115.05       7.002E-2      -115.86       0.21069       -51.57         
1608.9840     0.16571       130.90        7.042E-2      -117.11       6.99E-2       -117.99       0.20933       -50.69         
1612.7334     0.16574       129.64        6.989E-2      -118.90       6.937E-2      -119.79       0.20833       -49.96         
1616.4828     0.16622       128.06        6.956E-2      -119.98       6.901E-2      -120.82       0.2069        -49.53         
1620.2322     0.16523       126.12        7.007E-2      -120.91       6.962E-2      -121.78       0.20312       -48.63         
1623.9815     0.16306       124.73        7.147E-2      -122.85       7.092E-2      -123.63       0.20054       -46.68         
1627.7309     0.16218       124.04        7.177E-2      -125.06       7.121E-2      -125.87       0.2009        -44.52         
1631.4803     0.16378       123.49        7.228E-2      -126.85       7.175E-2      -127.74       0.20242       -42.54         
1635.2297     0.16728       122.43        7.277E-2      -129.01       7.226E-2      -129.87       0.20478       -40.68         
1638.9791     0.1711        120.76        7.354E-2      -131.12       7.306E-2      -132.04       0.20781       -39.30         
1642.7284     0.17426       118.92        7.435E-2      -133.82       7.383E-2      -134.71       0.20955       -38.52         
1646.4778     0.17694       116.93        7.447E-2      -136.84       7.391E-2      -137.80       0.20828       -37.81         
1650.2272     0.17879       115.07        7.356E-2      -139.79       7.303E-2      -140.70       0.20551       -36.80         
1653.9766     0.1803        113.23        7.223E-2      -141.80       7.169E-2      -142.75       0.20251       -35.53         
1657.7260     0.18141       111.53        7.185E-2      -142.94       7.128E-2      -143.89       0.20075       -34.43         
1661.4753     0.18207       109.91        7.269E-2      -144.37       7.217E-2      -145.28       0.1976        -34.05         
1665.2247     0.1832        108.16        7.392E-2      -146.83       7.343E-2      -147.77       0.19127       -33.31         
1668.9741     0.18301       106.11        7.448E-2      -149.82       7.39E-2       -150.73       0.18615       -31.41         
1672.7235     0.18244       104.30        7.471E-2      -152.84       7.415E-2      -153.78       0.18619       -29.78         
1676.4729     0.18232       102.45        7.425E-2      -156.30       7.376E-2      -157.27       0.18551       -29.36         
1680.2222     0.18238       100.25        7.276E-2      -159.76       7.226E-2      -160.73       0.18445       -28.58         
1683.9716     0.18142       97.99         7.058E-2      -162.42       7.01E-2       -163.31       0.18349       -28.48         
1687.7210     0.18003       95.94         6.877E-2      -164.52       6.829E-2      -165.50       0.17948       -27.58         
1691.4704     0.17849       94.47         6.646E-2      -166.39       6.607E-2      -167.36       0.17839       -25.52         
1695.2198     0.17908       93.44         6.513E-2      -167.28       6.468E-2      -168.25       0.17961       -23.86         
1698.9691     0.18079       92.41         6.435E-2      -169.06       6.40E-2       -170.01       0.18054       -22.30         
1702.7185     0.18394       91.43         6.221E-2      -170.68       6.175E-2      -171.69       0.18044       -20.69         
1706.4679     0.18814       90.06         6.07E-2       -170.23       6.041E-2      -171.27       0.17994       -18.26         
1710.2173     0.19134       88.26         6.132E-2      -170.33       6.095E-2      -171.33       0.18078       -15.58         
1713.9667     0.19328       86.45         6.212E-2      -171.40       6.173E-2      -172.48       0.18298       -13.04         
1717.7160     0.19383       84.50         6.285E-2      -173.13       6.247E-2      -174.15       0.18491       -10.64         
1721.4654     0.19169       82.61         6.306E-2      -175.56       6.267E-2      -176.57       0.18754       -8.49          
1725.2148     0.18782       81.22         6.222E-2      -177.83       6.184E-2      -178.81       0.18985       -6.88          
1728.9642     0.18356       80.58         6.086E-2      -179.31       6.046E-2      179.73        0.18976       -5.41          
1732.7136     0.18057       80.36         6.002E-2      -179.47       5.965E-2      179.53        0.19037       -3.34          
1736.4629     0.17912       80.22         6.097E-2      -179.97       6.057E-2      179.01        0.19327       -1.69          
1740.2123     0.17927       79.78         6.214E-2      178.09        6.174E-2      177.08        0.19671       -0.46          
1743.9617     0.17995       79.17         6.205E-2      175.46        6.172E-2      174.41        0.20118       0.12           
1747.7111     0.18175       78.19         6.109E-2      173.53        6.082E-2      172.47        0.20506       0.10           
1751.4605     0.18347       76.75         6.049E-2      172.57        6.021E-2      171.54        0.20783       -0.09          
1755.2098     0.18374       75.33         6.071E-2      171.53        6.03E-2       170.44        0.20891       -0.20          
1758.9592     0.18396       74.53         6.138E-2      170.19        6.103E-2      169.09        0.20912       0.78           
1762.7086     0.18566       74.02         6.209E-2      168.06        6.175E-2      167.00        0.2139        2.39           
1766.4580     0.18848       73.43         6.227E-2      165.89        6.185E-2      164.78        0.22166       3.51           
1770.2074     0.19108       72.56         6.264E-2      163.87        6.222E-2      162.79        0.22965       3.92           
1773.9567     0.19234       71.84         6.308E-2      161.11        6.272E-2      160.03        0.23528       4.06           
1777.7061     0.19355       71.53         6.269E-2      158.19        6.238E-2      157.13        0.23884       4.62           
1781.4555     0.19492       71.17         6.254E-2      155.29        6.213E-2      154.27        0.24352       5.53           
1785.2049     0.1963        70.93         6.149E-2      151.75        6.112E-2      150.73        0.24798       5.77           
1788.9543     0.1975        70.71         5.896E-2      148.51        5.862E-2      147.46        0.24762       6.05           
1792.7036     0.199         70.58         5.571E-2      146.98        5.535E-2      145.93        0.24725       6.93           
1796.4530     0.20055       70.24         5.407E-2      146.73        5.381E-2      145.61        0.24704       7.50           
1800.2024     0.20241       70.05         5.233E-2      145.68        5.202E-2      144.61        0.24438       8.09           
1803.9518     0.20505       69.78         5.074E-2      146.36        5.048E-2      145.28        0.24213       9.05           
1807.7012     0.20831       69.39         5.086E-2      146.73        5.053E-2      145.65        0.24032       9.94           
1811.4505     0.21198       68.81         5.132E-2      146.29        5.106E-2      145.13        0.23955       11.07          
1815.1999     0.21533       68.37         5.157E-2      144.99        5.128E-2      143.89        0.24182       12.12          
1818.9493     0.2195        68.05         5.149E-2      143.53        5.108E-2      142.24        0.24546       12.30          
1822.6987     0.22387       67.59         5.075E-2      142.00        5.03E-2       140.85        0.246         12.32          
1826.4481     0.22815       67.25         5.001E-2      141.63        4.965E-2      140.41        0.24738       13.06          
1830.1974     0.23289       66.82         4.965E-2      141.10        4.933E-2      139.84        0.25062       13.59          
1833.9468     0.23725       66.17         4.96E-2       141.24        4.927E-2      139.96        0.2528        14.27          
1837.6962     0.24056       65.41         5.032E-2      141.01        5.001E-2      139.81        0.25534       15.31          
1841.4456     0.2425        64.62         5.137E-2      140.17        5.102E-2      138.91        0.25766       16.58          
1845.1950     0.24336       63.83         5.243E-2      139.01        5.213E-2      137.85        0.2607        18.45          
1848.9443     0.24304       63.10         5.37E-2       137.04        5.328E-2      135.92        0.26521       20.26          
1852.6937     0.24269       62.65         5.427E-2      134.90        5.386E-2      133.82        0.26998       22.17          
1856.4431     0.24375       62.03         5.468E-2      132.92        5.431E-2      131.77        0.276         24.01          
1860.1925     0.24501       61.07         5.519E-2      130.70        5.491E-2      129.58        0.28205       25.53          
1863.9419     0.24575       59.89         5.556E-2      128.02        5.517E-2      126.93        0.28787       26.95          
1867.6912     0.24589       58.61         5.51E-2       125.59        5.48E-2       124.36        0.29422       28.15          
1871.4406     0.24569       57.59         5.476E-2      123.67        5.456E-2      122.42        0.30063       29.18          
1875.1900     0.2464        56.74         5.516E-2      121.44        5.484E-2      120.14        0.30879       30.08          
1878.9394     0.24809       56.07         5.492E-2      117.88        5.469E-2      116.62        0.31907       30.39          
1882.6888     0.25051       55.58         5.31E-2       114.79        5.272E-2      113.50        0.3289        30.03          
1886.4381     0.25524       55.40         5.128E-2      113.01        5.095E-2      111.82        0.33755       29.52          
1890.1875     0.26236       54.81         4.973E-2      111.73        4.941E-2      110.55        0.34619       28.99          
1893.9369     0.26885       53.74         4.847E-2      111.08        4.82E-2       109.86        0.35551       28.55          
1897.6863     0.27279       52.76         4.799E-2      110.63        4.766E-2      109.39        0.36559       28.17          
1901.4357     0.27661       52.18         4.771E-2      109.55        4.752E-2      108.33        0.37701       27.84          
1905.1850     0.28155       51.54         4.74E-2       108.11        4.716E-2      106.92        0.38852       27.40          
1908.9344     0.28557       50.60         4.642E-2      106.47        4.619E-2      105.32        0.39879       27.09          
1912.6838     0.28781       49.61         4.526E-2      106.09        4.501E-2      104.98        0.40878       26.93          
1916.4332     0.2885        48.69         4.518E-2      106.04        4.493E-2      104.92        0.41811       26.82          
1920.1826     0.28816       48.16         4.534E-2      104.91        4.506E-2      103.85        0.42576       26.76          
1923.9319     0.28873       47.90         4.439E-2      103.85        4.414E-2      102.80        0.43175       26.83          
1927.6813     0.29078       47.70         4.405E-2      104.19        4.381E-2      103.03        0.43609       27.03          
1931.4307     0.29381       47.50         4.432E-2      104.46        4.40E-2       103.28        0.43971       27.42          
1935.1801     0.29941       47.17         4.515E-2      104.27        4.491E-2      103.05        0.4437        27.79          
1938.9295     0.30528       46.25         4.61E-2       103.23        4.59E-2       101.98        0.44825       28.14          
1942.6788     0.31005       45.11         4.676E-2      102.06        4.644E-2      100.84        0.4539        28.26          
1946.4282     0.31312       43.85         4.759E-2      101.14        4.735E-2      99.91         0.45969       28.07          
1950.1776     0.31364       42.82         4.905E-2      100.25        4.884E-2      99.08         0.46514       27.89          
1953.9270     0.3144        42.34         5.099E-2      98.10         5.066E-2      97.01         0.47284       27.51          
1957.6764     0.31656       41.88         5.255E-2      94.74         5.217E-2      93.70         0.47985       26.89          
1961.4257     0.31865       41.29         5.275E-2      91.21         5.242E-2      90.18         0.48633       26.36          
1965.1751     0.3198        40.55         5.258E-2      88.21         5.232E-2      87.11         0.49377       25.96          
1968.9245     0.31905       39.90         5.193E-2      85.44         5.167E-2      84.47         0.50281       25.56          
1972.6739     0.31812       39.62         5.105E-2      83.51         5.082E-2      82.51         0.51195       25.26          
1976.4233     0.31826       39.43         5.101E-2      82.40         5.074E-2      81.38         0.52251       25.08          
1980.1726     0.31922       39.15         5.213E-2      80.23         5.193E-2      79.25         0.53305       24.93          
1983.9220     0.32054       38.84         5.237E-2      76.29         5.209E-2      75.33         0.54458       24.92          
1987.6714     0.3225        38.31         5.068E-2      72.57         5.041E-2      71.52         0.55646       24.75          
1991.4208     0.32438       37.65         4.858E-2      70.57         4.828E-2      69.52         0.56639       24.49          
1995.1702     0.32673       36.77         4.694E-2      70.17         4.67E-2       69.07         0.57523       24.24          
1998.9195     0.3289        35.74         4.696E-2      69.68         4.676E-2      68.62         0.58303       23.84          
2002.6689     0.33128       34.50         4.707E-2      67.89         4.683E-2      66.99         0.58858       23.45          
2006.4183     0.33245       33.12         4.716E-2      66.14         4.696E-2      65.11         0.59476       23.14          
2010.1677     0.33357       31.83         4.682E-2      63.88         4.663E-2      62.97         0.60278       22.67          
2013.9171     0.33474       30.44         4.672E-2      61.59         4.649E-2      60.67         0.61039       21.90          
2017.6664     0.33506       29.06         4.553E-2      58.60         4.522E-2      57.66         0.61652       21.06          
2021.4158     0.33558       27.80         4.36E-2       57.28         4.338E-2      56.56         0.62308       20.11          
2025.1652     0.33545       26.48         4.255E-2      56.82         4.231E-2      55.92         0.62966       19.07          
2028.9146     0.33493       25.50         4.174E-2      56.22         4.158E-2      55.40         0.63642       17.88          
2032.6640     0.3357        24.70         4.114E-2      56.28         4.086E-2      55.55         0.64058       16.74          
2036.4133     0.33652       23.94         4.125E-2      56.50         4.103E-2      55.84         0.64507       15.92          
2040.1627     0.33707       23.43         4.191E-2      55.97         4.158E-2      55.30         0.65163       15.21          
2043.9121     0.33787       23.18         4.276E-2      54.62         4.258E-2      53.88         0.65812       14.58          
2047.6615     0.34006       23.19         4.331E-2      52.72         4.312E-2      51.85         0.66552       14.01          
2051.4109     0.34374       23.09         4.377E-2      50.32         4.352E-2      49.64         0.67189       13.35          
2055.1602     0.34719       22.70         4.36E-2       47.75         4.337E-2      47.01         0.67546       12.72          
2058.9096     0.34855       22.24         4.303E-2      45.26         4.284E-2      44.43         0.67767       12.25          
2062.6590     0.3485        21.97         4.243E-2      43.84         4.226E-2      42.91         0.67988       11.85          
2066.4084     0.34807       21.78         4.219E-2      42.31         4.179E-2      41.50         0.68164       11.45          
2070.1578     0.34649       21.66         4.247E-2      40.78         4.22E-2       39.93         0.68259       11.04          
2073.9071     0.34485       21.71         4.256E-2      37.62         4.231E-2      36.87         0.68274       10.62          
2077.6565     0.34448       21.73         4.147E-2      34.72         4.123E-2      34.03         0.68332       10.13          
2081.4059     0.34442       21.44         4.032E-2      32.79         3.996E-2      32.12         0.68344       9.50           
2085.1553     0.3439        20.86         3.939E-2      31.11         3.91E-2       30.40         0.68313       8.81           
2088.9047     0.3424        20.19         3.842E-2      29.45         3.819E-2      28.83         0.68316       8.02           
2092.6540     0.341         19.52         3.724E-2      28.12         3.694E-2      27.37         0.68285       7.20           
2096.4034     0.33975       18.87         3.608E-2      27.87         3.584E-2      27.23         0.68315       6.39           
2100.1528     0.33964       18.22         3.598E-2      28.26         3.575E-2      27.61         0.68267       5.60           
2103.9022     0.33979       17.44         3.665E-2      27.10         3.645E-2      26.43         0.68169       4.95           
2107.6516     0.33928       16.70         3.661E-2      24.69         3.637E-2      24.00         0.68151       4.51           
2111.4009     0.33869       16.26         3.618E-2      22.82         3.596E-2      22.13         0.68344       4.14           
2115.1503     0.34025       16.04         3.591E-2      20.63         3.557E-2      20.06         0.68569       3.68           
2118.8997     0.34322       15.52         3.521E-2      18.71         3.505E-2      17.95         0.68608       3.29           
2122.6491     0.34406       14.80         3.483E-2      16.51         3.449E-2      15.60         0.68692       3.08           
2126.3985     0.34303       14.26         3.378E-2      14.10         3.345E-2      13.26         0.68882       2.84           
2130.1478     0.34048       13.87         3.262E-2      12.37         3.234E-2      11.65         0.68986       2.48           
2133.8972     0.33715       13.77         3.141E-2      11.05         3.12E-2       10.23         0.68951       2.12           
2137.6466     0.33483       13.69         3.018E-2      10.27         2.982E-2      9.51          0.6884        1.65           
2141.3960     0.33204       13.42         2.925E-2      10.21         2.896E-2      9.53          0.68479       1.06           
2145.1454     0.32926       13.02         2.87E-2       10.08         2.844E-2      9.27          0.67938       0.60           
2148.8947     0.32614       12.38         2.826E-2      9.42          2.799E-2      8.69          0.67575       0.24           
2152.6441     0.32264       11.63         2.757E-2      8.51          2.737E-2      7.72          0.67382       -0.31          
2156.3935     0.31909       10.88         2.675E-2      7.78          2.651E-2      6.90          0.67106       -0.94          
2160.1429     0.31653       10.24         2.559E-2      8.09          2.542E-2      7.25          0.66881       -1.57          
2163.8923     0.31603       9.70          2.509E-2      8.71          2.497E-2      7.87          0.66619       -2.20          
2167.6416     0.3174        8.96          2.414E-2      9.41          2.388E-2      8.72          0.664         -2.71          
2171.3910     0.31838       8.32          2.375E-2      12.51         2.357E-2      11.44         0.66296       -3.17          
2175.1404     0.32021       8.07          2.449E-2      14.92         2.417E-2      13.94         0.66116       -3.58          
2178.8898     0.32345       8.10          2.548E-2      15.58         2.525E-2      14.53         0.65945       -3.83          
2182.6392     0.32816       8.35          2.621E-2      14.91         2.595E-2      13.85         0.65774       -3.96          
2186.3885     0.33279       8.58          2.682E-2      15.46         2.659E-2      14.51         0.65577       -3.95          
2190.1379     0.33586       9.01          2.87E-2       14.95         2.834E-2      13.54         0.65374       -3.80          
2193.8873     0.33846       9.73          3.031E-2      11.23         3.006E-2      10.33         0.6523        -3.56          
2197.6367     0.34119       10.49         3.038E-2      6.34          3.007E-2      5.10          0.65145       -3.35          
2201.3861     0.34301       11.02         2.912E-2      3.37          2.882E-2      2.52          0.65025       -3.24          
2205.1354     0.34219       11.32         2.826E-2      2.44          2.795E-2      1.31          0.64789       -3.23          
2208.8848     0.33886       11.66         2.798E-2      2.10          2.756E-2      1.09          0.64432       -3.26          
2212.6342     0.33441       12.05         2.783E-2      1.05          2.755E-2      0.01          0.64119       -3.25          
2216.3836     0.33058       12.39         2.727E-2      0.34          2.70E-2       -0.65         0.63942       -3.42          
2220.1330     0.32759       12.59         2.722E-2      1.20          2.703E-2      0.05          0.63718       -3.78          
2223.8823     0.32614       12.41         2.823E-2      1.14          2.804E-2      -0.01         0.63497       -4.15          
2227.6317     0.32588       11.92         2.929E-2      -1.44         2.90E-2       -2.58         0.63396       -4.57          
2231.3811     0.3266        11.11         2.943E-2      -5.22         2.909E-2      -6.42         0.63281       -5.02          
2235.1305     0.32836       10.13         2.847E-2      -8.39         2.824E-2      -9.54         0.63275       -5.37          
2238.8799     0.33088       9.04          2.753E-2      -9.31         2.722E-2      -10.86        0.63426       -5.72          
2242.6292     0.33344       7.99          2.729E-2      -10.07        2.702E-2      -11.36        0.63601       -6.08          
2246.3786     0.33579       7.16          2.711E-2      -12.11        2.678E-2      -13.61        0.63746       -6.37          
2250.1280     0.33768       6.79          2.631E-2      -14.66        2.609E-2      -15.96        0.63815       -6.53          
2253.8774     0.34058       6.98          2.467E-2      -15.80        2.442E-2      -16.94        0.63983       -6.58          
2257.6268     0.3451        7.30          2.353E-2      -13.94        2.321E-2      -15.02        0.6397        -6.65          
2261.3761     0.34911       7.56          2.34E-2       -11.92        2.319E-2      -13.10        0.63871       -6.60          
2265.1255     0.35203       7.84          2.34E-2       -10.06        2.326E-2      -11.10        0.63688       -6.53          
2268.8749     0.35337       8.02          2.403E-2      -8.75         2.375E-2      -9.80         0.63402       -6.51          
2272.6243     0.35252       8.17          2.494E-2      -7.85         2.476E-2      -9.16         0.63021       -6.57          
2276.3737     0.3506        8.33          2.613E-2      -8.71         2.589E-2      -9.86         0.62551       -6.77          
2280.1230     0.34784       8.37          2.724E-2      -10.09        2.70E-2       -11.19        0.61915       -7.07          
2283.8724     0.34509       8.23          2.839E-2      -12.71        2.813E-2      -14.03        0.61147       -7.44          
2287.6218     0.34172       7.80          2.89E-2       -16.08        2.867E-2      -17.42        0.60323       -7.69          
2291.3712     0.33787       7.32          2.859E-2      -19.60        2.828E-2      -20.80        0.5968        -7.93          
2295.1206     0.33513       6.78          2.806E-2      -21.05        2.778E-2      -22.11        0.59127       -8.32          
2298.8699     0.33355       6.16          2.849E-2      -22.91        2.823E-2      -24.07        0.58465       -8.73          
2302.6193     0.33315       5.57          2.814E-2      -25.91        2.787E-2      -27.23        0.57825       -8.91          
2306.3687     0.33422       5.09          2.769E-2      -27.49        2.763E-2      -28.88        0.57349       -8.87          
2310.1181     0.33707       4.67          2.762E-2      -29.76        2.735E-2      -31.06        0.57123       -8.62          
2313.8675     0.3404        4.39          2.708E-2      -32.22        2.682E-2      -33.43        0.5713        -8.24          
2317.6168     0.34404       4.26          2.625E-2      -33.91        2.603E-2      -35.14        0.57261       -7.76          
2321.3662     0.34758       4.24          2.556E-2      -35.06        2.54E-2       -36.22        0.57488       -7.25          
2325.1156     0.34981       4.22          2.503E-2      -35.14        2.48E-2       -36.16        0.57599       -6.76          
2328.8650     0.35038       4.32          2.509E-2      -36.07        2.486E-2      -37.15        0.57514       -6.10          
2332.6144     0.34973       4.47          2.47E-2       -37.65        2.446E-2      -38.87        0.57431       -5.35          
2336.3637     0.34771       4.58          2.403E-2      -38.87        2.381E-2      -40.22        0.57293       -4.52          
2340.1131     0.34447       4.61          2.337E-2      -39.36        2.31E-2       -40.29        0.57208       -3.72          
2343.8625     0.34066       4.53          2.28E-2       -39.14        2.268E-2      -40.75        0.57146       -2.96          
2347.6119     0.337         4.19          2.235E-2      -38.56        2.218E-2      -39.65        0.57159       -2.33          
2351.3613     0.33299       3.42          2.218E-2      -37.12        2.204E-2      -38.64        0.57211       -1.91          
2355.1106     0.32822       2.35          2.26E-2       -35.76        2.239E-2      -36.88        0.573         -1.77          
2358.8600     0.3237        1.34          2.336E-2      -35.46        2.318E-2      -36.54        0.57352       -1.85          
2362.6094     0.3215        0.49          2.409E-2      -36.20        2.393E-2      -37.32        0.57487       -2.16          
2366.3588     0.32227       -0.37         2.483E-2      -37.33        2.474E-2      -38.73        0.57613       -2.66          
2370.1082     0.3255        -1.12         2.538E-2      -39.10        2.536E-2      -40.16        0.57776       -3.21          
2373.8575     0.33154       -1.70         2.594E-2      -41.17        2.586E-2      -42.42        0.5797        -3.73          
2377.6069     0.33896       -2.25         2.622E-2      -43.08        2.613E-2      -44.25        0.58225       -4.21          
2381.3563     0.34532       -2.63         2.649E-2      -45.02        2.64E-2       -46.33        0.584         -4.54          
2385.1057     0.3503        -2.54         2.659E-2      -46.79        2.652E-2      -47.83        0.58568       -4.56          
2388.8551     0.35501       -1.84         2.704E-2      -48.10        2.69E-2       -49.26        0.58901       -4.39          
2392.6044     0.36042       -0.79         2.756E-2      -50.37        2.755E-2      -51.67        0.5927        -4.25          
2396.3538     0.36647       0.35          2.791E-2      -53.01        2.776E-2      -54.21        0.59542       -4.09          
2400.1032     0.37207       1.37          2.813E-2      -55.63        2.805E-2      -56.70        0.5971        -3.93          
2403.8526     0.37618       2.14          2.831E-2      -58.96        2.815E-2      -60.19        0.59635       -3.86          
2407.6020     0.37729       2.59          2.80E-2       -62.25        2.788E-2      -63.36        0.59207       -3.68          
2411.3513     0.37427       2.97          2.773E-2      -65.42        2.744E-2      -66.48        0.5868        -3.35          
2415.1007     0.36927       3.41          2.713E-2      -69.04        2.689E-2      -70.12        0.58114       -3.04          
2418.8501     0.36341       3.71          2.595E-2      -72.23        2.582E-2      -73.38        0.57536       -2.82          
2422.5995     0.35759       3.98          2.459E-2      -73.85        2.448E-2      -75.21        0.56961       -2.71          
2426.3489     0.35331       4.14          2.377E-2      -75.10        2.354E-2      -76.50        0.56488       -2.64          
2430.0982     0.35096       3.92          2.268E-2      -75.86        2.254E-2      -76.98        0.56148       -2.64          
2433.8476     0.34929       3.37          2.191E-2      -75.41        2.177E-2      -76.72        0.56047       -2.67          
2437.5970     0.34814       2.62          2.187E-2      -74.58        2.175E-2      -75.62        0.56132       -2.83          
2441.3464     0.34691       1.90          2.221E-2      -75.32        2.201E-2      -75.90        0.56188       -3.00          
2445.0958     0.34677       1.33          2.248E-2      -76.56        2.231E-2      -77.27        0.56307       -2.99          
2448.8451     0.34771       0.82          2.273E-2      -78.36        2.25E-2       -79.23        0.56542       -2.89          
2452.5945     0.34996       0.50          2.286E-2      -81.65        2.259E-2      -82.82        0.56841       -2.68          
2456.3439     0.35337       0.12          2.20E-2       -85.65        2.176E-2      -86.57        0.57136       -2.35          
2460.0933     0.35581       -0.38         2.05E-2       -87.26        2.036E-2      -88.23        0.57421       -1.85          
2463.8427     0.35588       -0.63         1.93E-2       -86.48        1.917E-2      -87.48        0.57799       -1.17          
2467.5920     0.35464       -0.46         1.904E-2      -84.98        1.89E-2       -85.84        0.58242       -0.50          
2471.3414     0.35425       0.05          1.865E-2      -85.42        1.855E-2      -85.92        0.58648       0.09           
2475.0908     0.35488       0.61          1.824E-2      -83.71        1.806E-2      -84.61        0.58945       0.58           
2478.8402     0.35662       0.94          1.834E-2      -82.85        1.812E-2      -83.66        0.59047       0.95           
2482.5896     0.35878       0.90          1.864E-2      -81.17        1.831E-2      -82.33        0.59051       1.22           
2486.3389     0.35923       0.51          1.915E-2      -80.38        1.892E-2      -81.75        0.58964       1.39           
2490.0883     0.35841       0.00          1.983E-2      -80.87        1.964E-2      -81.91        0.58949       1.42           
2493.8377     0.35643       -0.47         2.041E-2      -82.49        2.029E-2      -83.49        0.58902       1.22           
2497.5871     0.35456       -0.78         2.072E-2      -84.14        2.055E-2      -85.17        0.58808       0.92           
2501.3365     0.35382       -0.97         2.116E-2      -85.42        2.089E-2      -86.25        0.58786       0.63           
2505.0858     0.3546        -1.29         2.14E-2       -86.94        2.118E-2      -87.41        0.58888       0.28           
2508.8352     0.35608       -1.64         2.196E-2      -87.15        2.172E-2      -88.15        0.59068       -0.06          
2512.5846     0.35821       -2.11         2.317E-2      -89.70        2.293E-2      -90.34        0.59365       -0.37          
2516.3340     0.35987       -2.59         2.366E-2      -94.38        2.344E-2      -94.98        0.59689       -0.57          
2520.0834     0.36117       -2.89         2.338E-2      -97.64        2.302E-2      -98.57        0.60158       -0.58          
2523.8327     0.36281       -3.11         2.308E-2      -100.29       2.281E-2      -101.10       0.6075        -0.50          
2527.5821     0.36394       -3.26         2.287E-2      -102.79       2.267E-2      -103.49       0.61304       -0.37          
2531.3315     0.3641        -3.32         2.259E-2      -105.61       2.229E-2      -106.44       0.6167        -0.10          
2535.0809     0.36288       -3.21         2.192E-2      -107.89       2.17E-2       -108.91       0.61946       0.39           
2538.8303     0.3614        -2.85         2.166E-2      -108.96       2.136E-2      -109.99       0.6214        0.95           
2542.5796     0.36075       -2.41         2.177E-2      -110.83       2.153E-2      -111.69       0.62265       1.57           
2546.3290     0.36063       -2.15         2.161E-2      -114.43       2.137E-2      -115.66       0.62369       2.11           
2550.0784     0.36016       -2.06         2.09E-2       -117.72       2.078E-2      -118.66       0.62447       2.50           
2553.8278     0.35939       -2.08         2.022E-2      -120.73       2.00E-2       -121.90       0.62492       2.71           
2557.5772     0.35866       -2.20         1.898E-2      -123.57       1.885E-2      -124.16       0.62427       2.64           
2561.3265     0.35817       -2.50         1.775E-2      -123.54       1.764E-2      -124.00       0.62186       2.45           
2565.0759     0.35744       -2.89         1.743E-2      -123.55       1.721E-2      -124.05       0.62015       2.22           
2568.8253     0.35706       -3.30         1.675E-2      -124.69       1.655E-2      -125.42       0.61905       1.85           
2572.5747     0.35709       -3.74         1.591E-2      -124.05       1.568E-2      -124.55       0.61839       1.36           
2576.3241     0.35786       -4.14         1.581E-2      -122.14       1.575E-2      -122.93       0.61767       0.91           
2580.0734     0.35933       -4.44         1.606E-2      -122.62       1.585E-2      -123.57       0.61831       0.62           
2583.8228     0.36155       -4.71         1.587E-2      -124.21       1.564E-2      -125.06       0.62086       0.45           
2587.5722     0.36402       -4.91         1.553E-2      -124.71       1.542E-2      -125.90       0.62498       0.41           
2591.3216     0.36681       -4.99         1.514E-2      -126.16       1.501E-2      -127.04       0.62982       0.50           
2595.0710     0.36952       -5.01         1.461E-2      -125.92       1.453E-2      -126.79       0.63486       0.67           
2598.8203     0.37184       -4.98         1.437E-2      -124.62       1.421E-2      -125.52       0.63928       0.91           
2602.5697     0.37409       -4.90         1.431E-2      -123.53       1.417E-2      -124.86       0.64217       1.21           
2606.3191     0.37604       -4.78         1.438E-2      -122.69       1.424E-2      -123.53       0.6438        1.62           
2610.0685     0.37711       -4.74         1.482E-2      -122.35       1.47E-2       -123.29       0.64484       2.05           
2613.8179     0.37645       -4.59         1.502E-2      -123.80       1.489E-2      -124.35       0.64484       2.46           
2617.5672     0.37562       -4.21         1.503E-2      -124.42       1.476E-2      -125.32       0.64406       2.84           
2621.3166     0.37514       -3.84         1.528E-2      -124.89       1.502E-2      -125.35       0.64351       3.13           
2625.0660     0.37467       -3.46         1.553E-2      -126.19       1.529E-2      -126.87       0.6434        3.28           
2628.8154     0.375         -3.13         1.539E-2      -126.60       1.52E-2       -127.21       0.64392       3.23           
2632.5648     0.37577       -3.12         1.601E-2      -127.00       1.585E-2      -127.59       0.64466       2.94           
2636.3141     0.37509       -3.39         1.635E-2      -129.25       1.614E-2      -130.01       0.64538       2.55           
2640.0635     0.37304       -3.74         1.648E-2      -131.39       1.626E-2      -132.16       0.64781       2.14           
2643.8129     0.37003       -3.88         1.664E-2      -133.93       1.652E-2      -134.52       0.65198       1.63           
2647.5623     0.36845       -3.89         1.652E-2      -136.13       1.632E-2      -136.95       0.65678       1.12           
2651.3117     0.36835       -4.02         1.665E-2      -138.29       1.646E-2      -139.16       0.66258       0.74           
2655.0610     0.36861       -4.29         1.661E-2      -141.54       1.65E-2       -142.70       0.66939       0.41           
2658.8104     0.36876       -4.64         1.585E-2      -144.84       1.568E-2      -146.01       0.67588       0.23           
2662.5598     0.36928       -4.99         1.50E-2       -144.95       1.494E-2      -146.00       0.68197       0.17           
2666.3092     0.36952       -5.35         1.492E-2      -144.38       1.476E-2      -145.08       0.68691       0.28           
2670.0586     0.36955       -5.60         1.499E-2      -145.42       1.491E-2      -146.33       0.6909        0.49           
2673.8079     0.37048       -5.66         1.496E-2      -146.73       1.481E-2      -147.35       0.69346       0.76           
2677.5573     0.3722        -5.74         1.495E-2      -147.34       1.475E-2      -148.26       0.69431       1.10           
2681.3067     0.37452       -5.83         1.512E-2      -149.05       1.491E-2      -149.36       0.69416       1.45           
2685.0561     0.37672       -6.01         1.508E-2      -150.48       1.485E-2      -151.23       0.69287       1.73           
2688.8055     0.37887       -6.29         1.527E-2      -152.11       1.504E-2      -152.76       0.69009       1.97           
2692.5548     0.38015       -6.69         1.558E-2      -154.58       1.528E-2      -155.07       0.68694       2.11           
2696.3042     0.38078       -7.12         1.554E-2      -158.86       1.541E-2      -159.57       0.68431       2.15           
2700.0536     0.38102       -7.51         1.523E-2      -163.39       1.506E-2      -164.01       0.6825        1.99           
2703.8030     0.3815        -7.92         1.434E-2      -167.46       1.419E-2      -168.27       0.68114       1.65           
2707.5524     0.38234       -8.33         1.326E-2      -169.37       1.303E-2      -170.10       0.68065       1.23           
2711.3017     0.38355       -8.74         1.243E-2      -168.95       1.232E-2      -169.83       0.6814        0.82           
2715.0511     0.38545       -9.08         1.224E-2      -167.82       1.208E-2      -168.82       0.68427       0.44           
2718.8005     0.38881       -9.44         1.233E-2      -168.54       1.226E-2      -169.69       0.68862       0.09           
2722.5499     0.39232       -10.01        1.245E-2      -172.38       1.23E-2       -173.28       0.69392       -0.15          
2726.2993     0.3945        -10.54        1.159E-2      -176.49       1.15E-2       -176.77       0.69978       -0.31          
2730.0486     0.39581       -10.81        1.083E-2      -177.69       1.076E-2      -178.26       0.70573       -0.33          
2733.7980     0.39781       -10.81        1.029E-2      -178.05       1.01E-2       -178.80       0.71115       -0.26          
2737.5474     0.40061       -10.65        9.927E-3      -178.46       9.694E-3      -179.28       0.71572       -0.06          
2741.2968     0.40349       -10.50        9.53E-3       179.13        9.288E-3      178.71        0.7191        0.22           
2745.0462     0.40569       -10.32        8.529E-3      175.75        8.443E-3      175.37        0.72204       0.58           
2748.7955     0.40711       -10.11        7.282E-3      178.83        7.234E-3      177.72        0.72368       0.90           
2752.5449     0.40728       -9.94         6.811E-3      -173.55       6.675E-3      -173.63       0.72415       1.15           
2756.2943     0.40613       -9.78         7.278E-3      -168.76       7.217E-3      -169.81       0.72352       1.27           
2760.0437     0.40477       -9.57         7.342E-3      -172.69       7.198E-3      -173.22       0.72161       1.24           
2763.7931     0.40282       -9.52         6.679E-3      -172.45       6.597E-3      -173.54       0.71932       1.09           
2767.5424     0.40085       -9.57         6.176E-3      -167.83       6.042E-3      -168.38       0.71763       0.81           
2771.2918     0.39892       -9.80         6.251E-3      -160.92       6.093E-3      -160.94       0.71675       0.36           
2775.0412     0.39652       -10.26        6.521E-3      -156.56       6.483E-3      -157.09       0.71598       -0.17          
2778.7906     0.39366       -10.76        7.058E-3      -154.21       7.015E-3      -155.53       0.71636       -0.71          
2782.5400     0.39145       -11.23        7.578E-3      -155.62       7.42E-3       -156.05       0.71786       -1.19          
2786.2893     0.39066       -11.77        7.83E-3       -158.63       7.687E-3      -158.92       0.72089       -1.58          
2790.0387     0.39042       -12.35        7.523E-3      -160.70       7.376E-3      -162.26       0.72558       -1.86          
2793.7881     0.39101       -12.85        6.994E-3      -159.53       6.972E-3      -160.30       0.73088       -2.04          
2797.5375     0.39252       -13.26        7.081E-3      -154.65       6.984E-3      -155.99       0.7366        -2.09          
2801.2869     0.3942        -13.50        7.373E-3      -151.15       7.278E-3      -151.65       0.74215       -2.00          
2805.0362     0.39717       -13.64        8.102E-3      -147.71       7.987E-3      -147.96       0.74696       -1.79          
2808.7856     0.39997       -13.79        9.237E-3      -148.87       9.03E-3       -148.99       0.75076       -1.46          
2812.5350     0.40211       -13.95        1.011E-2      -152.65       9.901E-3      -152.99       0.75375       -1.08          
2816.2844     0.40303       -14.08        1.039E-2      -158.27       1.023E-2      -158.55       0.75523       -0.75          
2820.0338     0.40237       -14.15        1.033E-2      -161.96       1.022E-2      -162.34       0.75555       -0.47          
2823.7831     0.40041       -14.07        1.037E-2      -165.23       1.018E-2      -165.48       0.75513       -0.31          
2827.5325     0.39843       -13.85        1.017E-2      -168.77       1.002E-2      -169.31       0.75433       -0.34          
2831.2819     0.39702       -13.68        9.68E-3       -170.41       9.482E-3      -171.40       0.7526        -0.58          
2835.0313     0.39527       -13.65        9.46E-3       -167.87       9.36E-3       -169.19       0.74968       -0.96          
2838.7807     0.39331       -13.78        9.793E-3      -168.94       9.663E-3      -170.12       0.74708       -1.37          
2842.5300     0.39131       -13.97        9.831E-3      -170.43       9.715E-3      -171.20       0.74588       -1.83          
2846.2794     0.38986       -14.21        9.625E-3      -169.93       9.587E-3      -170.91       0.74647       -2.34          
2850.0288     0.38941       -14.53        1.035E-2      -168.56       1.038E-2      -169.56       0.74896       -2.89          
2853.7782     0.38989       -14.95        1.121E-2      -172.64       1.106E-2      -173.75       0.75276       -3.43          
2857.5276     0.39091       -15.42        1.14E-2       -178.79       1.137E-2      -179.42       0.75713       -3.90          
2861.2769     0.39177       -15.90        1.089E-2      176.83        1.087E-2      176.32        0.76152       -4.22          
2865.0263     0.39231       -16.21        1.027E-2      176.15        1.016E-2      175.36        0.76648       -4.33          
2868.7757     0.39311       -16.29        1.033E-2      176.70        1.022E-2      175.75        0.7715        -4.29          
2872.5251     0.39489       -16.25        1.081E-2      175.68        1.056E-2      174.97        0.7757        -4.17          
2876.2745     0.39657       -16.24        1.085E-2      173.20        1.068E-2      172.52        0.77817       -3.95          
2880.0238     0.39728       -16.26        1.105E-2      171.43        1.091E-2      170.03        0.77898       -3.70          
2883.7732     0.39703       -16.19        1.114E-2      167.19        1.091E-2      166.50        0.77768       -3.43          
2887.5226     0.39688       -16.14        1.08E-2       163.55        1.068E-2      162.68        0.77517       -3.12          
2891.2720     0.39597       -16.26        1.048E-2      161.87        1.031E-2      160.95        0.77269       -2.86          
2895.0214     0.39344       -16.42        1.033E-2      159.03        1.027E-2      158.03        0.77004       -2.75          
2898.7707     0.39109       -16.58        9.945E-3      156.37        9.802E-3      155.46        0.76719       -2.81          
2902.5201     0.39009       -16.85        9.535E-3      154.74        9.486E-3      153.67        0.76411       -3.04          
2906.2695     0.38996       -17.41        9.194E-3      153.81        8.996E-3      151.96        0.76185       -3.40          
2910.0189     0.39029       -18.19        8.748E-3      153.31        8.592E-3      152.15        0.76029       -3.92          
2913.7683     0.39076       -18.99        8.742E-3      153.41        8.672E-3      152.73        0.76001       -4.50          
2917.5176     0.392         -19.69        8.654E-3      150.30        8.574E-3      150.33        0.76086       -5.07          
2921.2670     0.39451       -20.21        8.094E-3      147.31        7.975E-3      147.13        0.76342       -5.56          
2925.0164     0.39822       -20.63        7.554E-3      148.89        7.428E-3      147.84        0.76771       -5.94          
2928.7658     0.40211       -20.90        7.283E-3      150.06        7.164E-3      149.86        0.77301       -6.22          
2932.5152     0.40621       -20.93        7.166E-3      151.29        7.012E-3      151.21        0.77798       -6.32          
2936.2645     0.41008       -20.79        6.774E-3      154.99        6.653E-3      154.59        0.78298       -6.23          
2940.0139     0.41349       -20.52        7.062E-3      159.41        6.978E-3      159.11        0.78761       -6.00          
2943.7633     0.41638       -20.09        7.491E-3      159.79        7.599E-3      160.01        0.79118       -5.66          
2947.5127     0.41818       -19.74        8.107E-3      156.86        8.023E-3      156.78        0.79374       -5.22          
2951.2621     0.41787       -19.43        8.223E-3      153.49        8.096E-3      152.17        0.79556       -4.74          
2955.0114     0.41606       -19.14        7.764E-3      150.08        7.836E-3      149.35        0.79652       -4.29          
2958.7608     0.41306       -18.99        7.404E-3      149.63        7.323E-3      148.73        0.796         -3.91          
2962.5102     0.4091        -18.98        7.357E-3      151.16        7.241E-3      150.02        0.79455       -3.66          
2966.2596     0.40495       -19.17        7.467E-3      150.73        7.378E-3      149.61        0.79244       -3.54          
2970.0090     0.40128       -19.59        7.429E-3      148.17        7.367E-3      147.81        0.79096       -3.63          
2973.7583     0.39777       -20.23        7.006E-3      147.14        7.01E-3       145.60        0.78944       -3.93          
2977.5077     0.39503       -20.90        6.749E-3      148.20        6.70E-3       147.25        0.78815       -4.42          
2981.2571     0.39426       -21.58        6.54E-3       151.87        6.384E-3      151.11        0.78771       -5.03          
2985.0065     0.39495       -22.26        6.878E-3      156.82        6.848E-3      156.81        0.78776       -5.68          
2988.7559     0.39745       -22.83        7.711E-3      156.92        7.49E-3       156.57        0.78935       -6.30          
2992.5052     0.40137       -23.36        8.245E-3      154.00        8.159E-3      153.33        0.79263       -6.86          
2996.2546     0.40586       -23.85        8.546E-3      149.66        8.477E-3      148.78        0.79702       -7.35          
3000.0040     0.40899       -24.21        8.645E-3      144.73        8.493E-3      144.89        0.80171       -7.71          
