!Siglent Technologies,SNA5004A,SNA5XCED5R0097,V1.0.0.2.15
!Date: 2026-04-30 16:25:08
!Data & Calibration Information:
!Freq	S11:F2(ON)	S21:F2(ON)	S12:F2(ON)	S22:F2(ON)
# Hz S DB R 50
1000000	-1.33824520e+01	-6.44593284e+00	-9.91541804e+01	1.21699590e+02	-1.15551080e+02	-1.55222223e+02	-7.56379326e-03	1.79589655e+02
1285571.42857	-1.34508079e+01	-6.63119446e+00	-1.10679805e+02	1.30944692e+02	-1.04143027e+02	-1.65855492e+02	-6.81289013e-03	1.79415259e+02
1571142.85714	-1.35286731e+01	-7.11973428e+00	-1.00678699e+02	-6.67369438e+01	-1.07321899e+02	3.83587532e+01	-8.08692747e-03	1.79281186e+02
1856714.28571	-1.35767453e+01	-7.89821371e+00	-1.02506130e+02	-1.49564392e+02	-9.81726853e+01	-6.81294121e+01	-6.44875338e-03	1.79128608e+02
2142285.71429	-1.35834691e+01	-8.21798343e+00	-1.11635229e+02	-1.29658359e+02	-1.03931820e+02	-8.55189514e+01	-9.51376295e-03	1.79004702e+02
2427857.14286	-1.36366938e+01	-9.18512391e+00	-9.93119819e+01	-6.62354326e+01	-1.03985360e+02	1.13462420e+02	-1.02002406e-02	1.78857087e+02
2713428.57143	-1.36383525e+01	-9.64800468e+00	-1.13063980e+02	8.41038083e+01	-9.61673111e+01	2.34963513e+01	-1.12431554e-02	1.78740667e+02
2999000	-1.37122281e+01	-1.04296981e+01	-1.02185823e+02	6.84778531e+01	-1.05518867e+02	-3.50722221e+01	-1.07536243e-02	1.78604906e+02
3284571.42857	-1.37178857e+01	-1.09696972e+01	-9.59061629e+01	-1.70207259e+02	-9.84752651e+01	6.97406408e+01	-1.19960035e-02	1.78486362e+02
3570142.85714	-1.37085065e+01	-1.16737360e+01	-1.19455457e+02	1.08745724e+02	-1.00454263e+02	5.28280010e+01	-9.61178051e-03	1.78344276e+02
3855714.28571	-1.37988291e+01	-1.23690145e+01	-1.12153586e+02	7.62797785e+01	-9.97271595e+01	-1.59083463e+02	-1.31973802e-02	1.78223810e+02
4141285.71429	-1.37717872e+01	-1.30753155e+01	-1.03816001e+02	1.70525873e+02	-9.22300375e+01	1.19266459e+02	-1.43089044e-02	1.78069205e+02
4426857.14286	-1.38615275e+01	-1.35470930e+01	-1.02526672e+02	-4.53762553e+01	-1.01189919e+02	3.58410972e+01	-1.99998819e-02	1.77993986e+02
4712428.57143	-1.38678323e+01	-1.43905258e+01	-9.90787064e+01	-1.01592146e+02	-9.90937717e+01	-1.72578652e+02	-1.74473036e-02	1.77834498e+02
4998000	-1.39411532e+01	-1.51013323e+01	-9.38415198e+01	1.54406879e+02	-8.42907939e+01	-1.28808762e+01	-2.02961807e-02	1.77719699e+02
5283571.42857	-1.39055807e+01	-1.55402298e+01	-9.71578960e+01	6.87350136e+01	-9.48802349e+01	-1.08127821e+02	-2.15953655e-02	1.77608357e+02
5569142.85714	-1.39304878e+01	-1.61845759e+01	-9.45528872e+01	1.56091412e+01	-9.63160795e+01	1.59467471e+02	-1.94053323e-02	1.77475223e+02
5854714.28571	-1.39165701e+01	-1.68145840e+01	-1.05139915e+02	-2.28135424e+00	-1.08723335e+02	1.32754165e+02	-2.19739239e-02	1.77366639e+02
6140285.71429	-1.39588101e+01	-1.73476396e+01	-9.82360026e+01	5.07622292e+01	-1.05563096e+02	1.12445196e+02	-2.76483060e-02	1.77276312e+02
6425857.14286	-1.39768340e+01	-1.79837676e+01	-9.93818902e+01	1.39255418e+02	-1.03009760e+02	1.24234671e+02	-2.77846368e-02	1.77149651e+02
6711428.57143	-1.39636298e+01	-1.87299149e+01	-1.00066293e+02	-1.37728236e+02	-1.05540152e+02	5.44597231e+01	-3.25094937e-02	1.77020812e+02
6997000	-1.39749312e+01	-1.93276966e+01	-9.99214887e+01	9.12068786e+01	-1.00440687e+02	-1.13020517e+01	-3.52348998e-02	1.76905506e+02
7282571.42857	-1.39982757e+01	-1.99743860e+01	-1.00901960e+02	7.81996175e+01	-1.06331058e+02	3.91098397e+01	-3.55642928e-02	1.76812280e+02
7568142.85714	-1.40176724e+01	-2.08230546e+01	-1.00020906e+02	1.64420414e+02	-1.04140043e+02	-9.39910806e+01	-4.19466805e-02	1.76704026e+02
7853714.28571	-1.40138490e+01	-2.13382253e+01	-1.09290403e+02	-6.98485960e+01	-1.09708797e+02	-1.44279896e+02	-4.56343468e-02	1.76545853e+02
8139285.71429	-1.40238463e+01	-2.20120238e+01	-9.65792253e+01	5.38375358e+01	-9.73207514e+01	5.61560618e+01	-3.84363430e-02	1.76412376e+02
8424857.14286	-1.40016270e+01	-2.25103378e+01	-9.40413071e+01	1.76638036e+00	-1.03838661e+02	1.22697006e+02	-4.53434017e-02	1.76298440e+02
8710428.57143	-1.40019526e+01	-2.32669422e+01	-1.02779981e+02	9.37323613e+01	-1.02001426e+02	3.38175962e+01	-4.63453466e-02	1.76160937e+02
8996000	-1.40062890e+01	-2.38624293e+01	-1.14782455e+02	6.80562372e+01	-1.15581326e+02	1.51642052e+02	-4.85212891e-02	1.76072875e+02
9281571.42857	-1.40232390e+01	-2.45449933e+01	-9.42486812e+01	2.33475020e+01	-1.01832154e+02	-9.49990015e+00	-5.01459604e-02	1.75948095e+02
9567142.85714	-1.40163850e+01	-2.50934995e+01	-1.06249057e+02	3.17627586e+01	-9.92058778e+01	-4.53132133e+01	-5.50421478e-02	1.75814699e+02
9852714.28571	-1.40266077e+01	-2.54081590e+01	-1.00955398e+02	1.08464883e+02	-1.06240604e+02	7.31572627e+01	-5.51060700e-02	1.75642407e+02
10138285.7143	-1.40227833e+01	-2.60957013e+01	-9.32335253e+01	3.70639206e+01	-1.02429591e+02	2.86843101e+00	-6.13186555e-02	1.75492566e+02
10423857.1429	-1.40315541e+01	-2.67900992e+01	-9.95366051e+01	-3.55982413e+01	-9.66069105e+01	9.35417660e+00	-5.24048935e-02	1.75368889e+02
10709428.5714	-1.40105163e+01	-2.74222455e+01	-9.45907148e+01	1.36142561e+02	-9.70113809e+01	6.94922038e+01	-6.13636587e-02	1.75236256e+02
10995000	-1.39880106e+01	-2.79724326e+01	-1.00930503e+02	1.48267686e+02	-9.68345924e+01	8.46646444e+01	-5.60464662e-02	1.75118109e+02
11280571.4286	-1.39950231e+01	-2.85278296e+01	-1.07264158e+02	5.86948607e+01	-1.05211473e+02	-1.57822128e+02	-6.65391566e-02	1.75066414e+02
11566142.8571	-1.39995745e+01	-2.92238243e+01	-9.55694506e+01	8.97749643e+01	-9.81908068e+01	5.76221326e+01	-7.20604947e-02	1.74913197e+02
11851714.2857	-1.39825129e+01	-2.95846287e+01	-9.84286836e+01	1.36598514e+02	-9.31730950e+01	1.64570545e+02	-6.98273014e-02	1.74784392e+02
12137285.7143	-1.39805220e+01	-3.01344685e+01	-9.85380504e+01	1.73177152e+02	-1.03879124e+02	1.02075683e+02	-6.94737956e-02	1.74633536e+02
12422857.1429	-1.39551828e+01	-3.05793721e+01	-1.00472343e+02	-1.23352696e+02	-1.05728197e+02	-1.62816095e+02	-7.50618612e-02	1.74510535e+02
12708428.5714	-1.39528160e+01	-3.08493316e+01	-9.50385147e+01	3.47957278e+01	-1.07757635e+02	-4.52017398e+01	-9.95122341e-02	1.74388887e+02
12994000	-1.39409151e+01	-3.16108234e+01	-1.19084633e+02	4.32473652e+00	-9.55498155e+01	1.09674696e+02	-1.06264946e-01	1.74326761e+02
13279571.4286	-1.38976526e+01	-3.21845613e+01	-9.34492620e+01	1.33988551e+01	-1.00751022e+02	1.45882633e+02	-1.06234267e-01	1.74111785e+02
13565142.8571	-1.38799358e+01	-3.29152218e+01	-9.54133392e+01	1.30731811e+02	-8.25495526e+01	6.48149734e+01	-1.10972753e-01	1.73989433e+02
13850714.2857	-1.39029847e+01	-3.36172616e+01	-9.83594685e+01	6.49730547e+01	-9.63727076e+01	6.55728232e+01	-1.07641935e-01	1.73837499e+02
14136285.7143	-1.38525225e+01	-3.41208452e+01	-9.64021077e+01	8.26711929e+01	-1.00420346e+02	1.00078669e+02	-1.00340670e-01	1.73686231e+02
14421857.1429	-1.38272839e+01	-3.47693269e+01	-9.48511869e+01	9.84523749e+00	-9.56058819e+01	7.94428733e+01	-9.31030062e-02	1.73517268e+02
14707428.5714	-1.37973585e+01	-3.52626464e+01	-9.45885013e+01	1.32125399e+02	-9.59624715e+01	3.01609679e+01	-8.41709458e-02	1.73391418e+02
14993000	-1.37928981e+01	-3.58209639e+01	-9.98385267e+01	8.13100699e+01	-9.68791895e+01	1.67429065e+02	-8.93844607e-02	1.73275949e+02
15278571.4286	-1.37962130e+01	-3.63735891e+01	-1.05580982e+02	-1.02247459e+02	-9.49670376e+01	1.38925178e+02	-8.00571918e-02	1.73182343e+02
15564142.8571	-1.37677416e+01	-3.68334805e+01	-1.02320418e+02	8.96042389e+01	-9.77295541e+01	5.65323870e+01	-8.35138513e-02	1.73071414e+02
15849714.2857	-1.37595667e+01	-3.74964948e+01	-9.50271260e+01	1.34547638e+02	-9.87585744e+01	7.13294532e+01	-9.12580060e-02	1.72837190e+02
16135285.7143	-1.37359260e+01	-3.80411876e+01	-9.34108299e+01	6.10603157e+01	-9.53112107e+01	1.06367140e+02	-8.89210084e-02	1.72753705e+02
16420857.1429	-1.37329600e+01	-3.87317693e+01	-9.78520915e+01	2.44069221e+01	-1.02870071e+02	1.00231606e+02	-9.41546361e-02	1.72661227e+02
16706428.5714	-1.37255309e+01	-3.93714518e+01	-9.32685395e+01	9.89323015e+01	-9.03150368e+01	1.30522868e+02	-1.07733816e-01	1.72557783e+02
16992000	-1.37018411e+01	-3.97135556e+01	-9.49466329e+01	1.13972082e+02	-9.43766757e+01	5.99398313e+01	-1.12437919e-01	1.72451547e+02
17277571.4286	-1.36933022e+01	-4.02413070e+01	-9.60127351e+01	-2.62216390e+01	-9.53875494e+01	5.20792861e+01	-1.14953559e-01	1.72265561e+02
17563142.8571	-1.36752904e+01	-4.06598962e+01	-8.84382292e+01	7.26239290e+01	-1.00040332e+02	4.90926928e+01	-1.15310378e-01	1.72100258e+02
17848714.2857	-1.36461085e+01	-4.11340915e+01	-9.29910733e+01	1.11502574e+02	-1.00634672e+02	9.60740878e+01	-1.10906269e-01	1.71938423e+02
18134285.7143	-1.36569647e+01	-4.15552040e+01	-9.41670860e+01	8.16565960e+01	-9.61730361e+01	7.15787771e+01	-1.10827868e-01	1.71811660e+02
18419857.1429	-1.36317354e+01	-4.20252588e+01	-9.66012920e+01	1.16665275e+02	-9.56271195e+01	4.98743537e+01	-1.10394533e-01	1.71716933e+02
18705428.5714	-1.35966209e+01	-4.27500430e+01	-9.56340032e+01	6.17760133e+01	-9.41521030e+01	5.85456743e+01	-1.16851899e-01	1.71576923e+02
18991000	-1.35840794e+01	-4.31713366e+01	-9.96255603e+01	4.23023803e+01	-9.20069832e+01	6.41316799e+01	-1.04647766e-01	1.71454123e+02
19276571.4286	-1.35466812e+01	-4.38209895e+01	-1.05752841e+02	3.32870163e+01	-9.28278062e+01	1.25237539e+01	-1.18206695e-01	1.71303287e+02
19562142.8571	-1.35415881e+01	-4.41841276e+01	-9.15760510e+01	1.54454670e+01	-9.84785539e+01	8.05734852e+01	-1.10754132e-01	1.71164949e+02
19847714.2857	-1.35107550e+01	-4.46905402e+01	-9.63018185e+01	5.77336489e+01	-9.57122633e+01	4.25260633e+01	-1.25214646e-01	1.71003859e+02
20133285.7143	-1.34973395e+01	-4.49334830e+01	-9.73871162e+01	2.64535335e+01	-9.24406753e+01	7.98105317e+01	-1.07704695e-01	1.70849117e+02
20418857.1429	-1.34958287e+01	-4.54619604e+01	-8.87903703e+01	8.07859622e+01	-8.97375988e+01	6.88354635e+01	-1.07373824e-01	1.70654865e+02
20704428.5714	-1.34234918e+01	-4.61133600e+01	-1.02389326e+02	1.03649734e+02	-9.88228890e+01	3.42041830e+01	-1.25685923e-01	1.70592702e+02
20990000	-1.34448810e+01	-4.63759051e+01	-1.02753037e+02	9.60218001e+01	-9.79082124e+01	2.31947595e+01	-9.49711117e-02	1.70351216e+02
21275571.4286	-1.33314156e+01	-4.70996116e+01	-9.19922334e+01	6.80383861e+01	-8.95554773e+01	7.68836520e+01	-1.54183159e-01	1.70254936e+02
21561142.8571	-1.34076282e+01	-4.73152709e+01	-9.02555344e+01	6.47021384e+01	-9.15068982e+01	3.47734932e+01	-9.03933888e-02	1.70005776e+02
21846714.2857	-1.33661722e+01	-4.81683849e+01	-8.76783471e+01	3.42317364e+01	-9.55275755e+01	5.77105880e+01	-1.17899885e-01	1.70136792e+02
22132285.7143	-1.32969738e+01	-4.82699299e+01	-8.62802577e+01	6.05942376e+01	-8.95766118e+01	8.07072237e+01	-1.12127437e-01	1.69800612e+02
22417857.1429	-1.32453018e+01	-4.93128731e+01	-9.19751885e+01	6.20619166e+01	-9.00996599e+01	6.03642778e+01	-1.58124891e-01	1.70344216e+02
22703428.5714	-1.30275347e+01	-4.92193896e+01	-8.90662825e+01	-4.00453659e+01	-8.93748810e+01	4.90499530e+01	-2.41898425e-01	1.69558305e+02
22989000	-1.28590193e+01	-5.01198957e+01	-9.17499469e+01	2.86226637e+01	-8.94210280e+01	3.02553420e+01	-3.28811601e-01	1.70672389e+02
23274571.4286	-1.30400367e+01	-4.99077921e+01	-8.95813932e+01	-5.74829022e+00	-9.24194629e+01	3.45297131e+01	-3.51954517e-01	1.69502286e+02
23560142.8571	-1.27771816e+01	-5.00841524e+01	-8.99662069e+01	4.19005814e+01	-8.77610180e+01	2.16046451e+01	-5.26746374e-01	1.69935772e+02
23845714.2857	-1.31309798e+01	-5.12668931e+01	-8.67784158e+01	3.93528474e+01	-8.95390089e+01	4.35601539e+01	-2.35854564e-01	1.69386651e+02
24131285.7143	-1.29075907e+01	-5.13750749e+01	-8.35017478e+01	2.98364538e+01	-8.95772855e+01	-1.43326505e+01	-4.38236353e-01	1.69036907e+02
24416857.1429	-1.31706229e+01	-5.18794263e+01	-9.19630634e+01	-3.63815995e+01	-8.68423767e+01	3.32430762e+01	-1.40820481e-01	1.68863360e+02
24702428.5714	-1.31581634e+01	-5.18657714e+01	-8.80591705e+01	7.70325042e+00	-8.97328305e+01	3.89592574e+01	-1.97823716e-01	1.68551291e+02
24988000	-1.30788944e+01	-5.21258397e+01	-8.53704981e+01	7.68375759e+00	-8.96634774e+01	-1.64246533e+01	-1.91250106e-01	1.68665789e+02
25273571.4286	-1.32023759e+01	-5.28167896e+01	-9.19912336e+01	7.16084317e+01	-9.08654966e+01	-9.92373497e+00	-8.82738122e-02	1.68259870e+02
25559142.8571	-1.30809870e+01	-5.29708227e+01	-8.90539244e+01	3.56602989e+00	-8.88672290e+01	2.80687296e+00	-1.77227824e-01	1.68355730e+02
25844714.2857	-1.30862985e+01	-5.35544637e+01	-9.36113783e+01	3.92275891e+01	-8.94171352e+01	-3.38417605e-01	-9.51843093e-02	1.68209555e+02
26130285.7143	-1.30583423e+01	-5.38563584e+01	-8.96542863e+01	6.72386004e+00	-8.97507967e+01	6.72778538e+00	-1.24838700e-01	1.68034237e+02
26415857.1429	-1.29843744e+01	-5.41278524e+01	-9.14795040e+01	2.42009074e+01	-8.65292444e+01	2.65245047e+01	-1.20825184e-01	1.68021179e+02
26701428.5714	-1.29836277e+01	-5.44568362e+01	-9.07668613e+01	5.94505470e+00	-8.76323436e+01	-1.47845677e+01	-9.60143093e-02	1.67703610e+02
26987000	-1.28913098e+01	-5.47035580e+01	-8.64302662e+01	2.77041159e+00	-8.87349936e+01	2.50804039e+01	-1.60615724e-01	1.67731574e+02
27272571.4286	-1.29048457e+01	-5.51641063e+01	-8.90474248e+01	1.31131703e+00	-8.86901981e+01	9.07178152e-01	-1.28008542e-01	1.67512858e+02
27558142.8571	-1.28175837e+01	-5.53563891e+01	-9.44303376e+01	-6.98714792e+00	-8.77043264e+01	-1.21106820e+01	-1.60667190e-01	1.67478431e+02
27843714.2857	-1.28196416e+01	-5.59330738e+01	-8.88699865e+01	-3.06099660e+01	-9.18628473e+01	2.39961537e+01	-1.15691929e-01	1.67304814e+02
28129285.7143	-1.27517001e+01	-5.60074491e+01	-8.80512738e+01	4.44092550e-01	-8.82890817e+01	-2.19397246e+01	-1.60161181e-01	1.67183053e+02
28414857.1429	-1.27325432e+01	-5.66102859e+01	-9.13750971e+01	2.05896256e-01	-9.17176505e+01	-5.83522377e+01	-1.20763843e-01	1.67044804e+02
28700428.5714	-1.26979985e+01	-5.68676973e+01	-8.77023878e+01	-2.94203777e+01	-9.07907703e+01	-5.60758995e+00	-1.53427586e-01	1.66859047e+02
28986000	-1.26607818e+01	-5.70566452e+01	-8.47625070e+01	6.42597487e+00	-9.03892893e+01	-2.78184324e+01	-1.26835914e-01	1.66689954e+02
29271571.4286	-1.26056970e+01	-5.73338527e+01	-8.79466602e+01	2.63014181e+00	-9.09624505e+01	-8.96935335e+00	-1.45967393e-01	1.66536877e+02
29557142.8571	-1.25776877e+01	-5.79099130e+01	-9.09136778e+01	-2.37778851e+01	-9.19707364e+01	-2.43461051e+01	-1.46444546e-01	1.66478944e+02
29842714.2857	-1.25175507e+01	-5.82104800e+01	-8.92927539e+01	-8.05316547e+00	-8.93044159e+01	-5.58007307e-01	-1.48072425e-01	1.66311121e+02
30128285.7143	-1.24626206e+01	-5.85809712e+01	-8.84687323e+01	5.97315378e+00	-9.00934223e+01	-2.43388076e+01	-1.37736097e-01	1.66118206e+02
30413857.1429	-1.24365154e+01	-5.88549621e+01	-9.04157422e+01	-3.29556781e+01	-8.87687840e+01	-3.00603181e+01	-1.27592468e-01	1.66017301e+02
30699428.5714	-1.23891543e+01	-5.91184314e+01	-9.72184121e+01	-1.10311545e+01	-9.46280335e+01	-4.53285863e+00	-1.37298049e-01	1.65918887e+02
30985000	-1.23399452e+01	-5.94465924e+01	-8.63739495e+01	6.84068598e+00	-9.09876961e+01	-1.44286495e+01	-1.38024754e-01	1.65787946e+02
31270571.4286	-1.22928310e+01	-5.98523751e+01	-9.41147191e+01	-9.36249362e+00	-9.07233777e+01	-4.38298841e+01	-1.33995086e-01	1.65597833e+02
31556142.8571	-1.22596699e+01	-6.04870497e+01	-9.00621519e+01	-2.37999219e+01	-9.28085166e+01	2.86477992e+00	-1.31105149e-01	1.65500348e+02
31841714.2857	-1.22160610e+01	-6.06569238e+01	-8.86710121e+01	-2.50319086e+01	-9.43392884e+01	-2.27672454e+01	-1.24253919e-01	1.65287037e+02
32127285.7143	-1.21545866e+01	-6.09232674e+01	-9.33287983e+01	-3.78883167e+01	-8.92814431e+01	-1.38478785e+01	-1.23638446e-01	1.65085904e+02
32412857.1429	-1.21304889e+01	-6.13211336e+01	-8.63289912e+01	3.41903487e-01	-9.03290141e+01	-1.32846754e+01	-1.38930535e-01	1.64990135e+02
32698428.5714	-1.21106754e+01	-6.17765280e+01	-9.18038871e+01	-8.30233494e+00	-8.89478004e+01	-3.74826347e+01	-1.55970109e-01	1.64984816e+02
32984000	-1.20521307e+01	-6.22061974e+01	-8.86611193e+01	-9.20281046e+00	-8.75586660e+01	-1.27446925e+00	-1.33984343e-01	1.64791389e+02
33269571.4286	-1.20350933e+01	-6.23876105e+01	-9.26734012e+01	-3.88568755e+01	-8.90907446e+01	-3.16250377e+01	-1.44023590e-01	1.64684507e+02
33555142.8571	-1.19961841e+01	-6.28752432e+01	-9.54614358e+01	-6.29527470e+00	-8.68026693e+01	-4.83003969e+01	-1.39027075e-01	1.64441630e+02
33840714.2857	-1.19782546e+01	-6.32284698e+01	-8.97061076e+01	-4.04063623e+01	-9.00975623e+01	-2.04330745e+01	-1.31516962e-01	1.64433243e+02
34126285.7143	-1.19420808e+01	-6.36578628e+01	-8.48476190e+01	-2.18849272e+01	-9.15135986e+01	-3.00422120e+01	-1.40145002e-01	1.64283279e+02
34411857.1429	-1.19061854e+01	-6.38919232e+01	-9.20684186e+01	-1.43103019e+01	-9.21543605e+01	-2.10276257e+01	-1.26982066e-01	1.64117436e+02
34697428.5714	-1.18619572e+01	-6.43114819e+01	-9.33612090e+01	-5.29510817e+01	-9.14015425e+01	-3.91607207e+01	-1.37286361e-01	1.63950305e+02
34983000	-1.18691401e+01	-6.47604195e+01	-9.47853480e+01	-4.84319763e+00	-8.74692845e+01	-3.26027100e+01	-1.29911843e-01	1.63807964e+02
35268571.4286	-1.18293303e+01	-6.52280333e+01	-9.03525951e+01	-1.74205248e+01	-9.09522180e+01	-3.35284778e+00	-1.29980770e-01	1.63717375e+02
35554142.8571	-1.18296872e+01	-6.53891625e+01	-9.16867262e+01	-2.84939548e+01	-9.34556382e+01	-4.78667994e+01	-1.30460772e-01	1.63540929e+02
35839714.2857	-1.18068734e+01	-6.55487658e+01	-8.60352530e+01	2.78063102e+00	-8.81251446e+01	-4.78392152e+01	-1.25628081e-01	1.63463337e+02
36125285.7143	-1.17812666e+01	-6.58170530e+01	-9.07623912e+01	-2.74968831e+01	-9.01821081e+01	-3.32664106e+01	-1.18349552e-01	1.63330210e+02
36410857.1429	-1.17434292e+01	-6.59548265e+01	-8.81869662e+01	-2.03811694e+01	-8.89627437e+01	-3.64835879e+01	-1.31816618e-01	1.63183529e+02
36696428.5714	-1.16892682e+01	-6.62856632e+01	-8.83499141e+01	-3.40085781e+01	-8.91404464e+01	-4.60019755e+01	-1.23247685e-01	1.62973866e+02
36982000	-1.16695690e+01	-6.65610661e+01	-8.65711197e+01	-2.31641338e+01	-9.32699122e+01	-1.25401440e+01	-1.25897619e-01	1.62815136e+02
37267571.4286	-1.16722160e+01	-6.68865221e+01	-8.86011334e+01	-3.37612416e+01	-8.71834561e+01	-5.91302719e+01	-1.28856942e-01	1.62783545e+02
37553142.8571	-1.16419110e+01	-6.70499895e+01	-8.71396374e+01	-3.09241113e+01	-8.58228481e+01	-3.95688959e+01	-1.25729978e-01	1.62663573e+02
37838714.2857	-1.16163740e+01	-6.72166192e+01	-9.18351242e+01	-2.45949559e+01	-8.95652673e+01	-3.91536523e+01	-1.30699947e-01	1.62522930e+02
38124285.7143	-1.15801073e+01	-6.71990589e+01	-9.24124069e+01	-2.78498070e+01	-8.76839901e+01	-4.25361470e+01	-1.06556182e-01	1.62325903e+02
38409857.1429	-1.15408860e+01	-6.76815385e+01	-8.47530237e+01	-4.40572558e+01	-8.60957015e+01	-4.09916159e+01	-1.15420460e-01	1.62160070e+02
38695428.5714	-1.15075887e+01	-6.79960353e+01	-9.40158810e+01	-7.46141857e+01	-8.76834968e+01	-4.63555726e+01	-1.14035263e-01	1.62008364e+02
38981000	-1.14742925e+01	-6.80813126e+01	-8.76020346e+01	-5.77512286e+01	-8.52386826e+01	-5.75552882e+01	-1.17181454e-01	1.61890497e+02
39266571.4286	-1.14480189e+01	-6.84007313e+01	-8.71593588e+01	-4.92949956e+01	-8.75709295e+01	-6.99305189e+01	-1.08978063e-01	1.61851312e+02
39552142.8571	-1.14154978e+01	-6.85509976e+01	-9.05929508e+01	-3.77480059e+01	-8.72167626e+01	-4.52482278e+01	-1.14373822e-01	1.61686917e+02
39837714.2857	-1.13773133e+01	-6.88187463e+01	-8.79478510e+01	-2.66568114e+01	-8.62405303e+01	-5.95635336e+01	-9.03557454e-02	1.61532794e+02
40123285.7143	-1.13467831e+01	-6.91632133e+01	-8.72384748e+01	-5.45341020e+01	-8.92478126e+01	-6.69660478e+01	-1.05212203e-01	1.61450047e+02
40408857.1429	-1.13112117e+01	-6.94357067e+01	-8.88088603e+01	-6.65143058e+01	-8.75307345e+01	-7.79348843e+01	-1.12025908e-01	1.61364415e+02
40694428.5714	-1.12674040e+01	-6.95286052e+01	-8.70686107e+01	-8.84547895e+01	-8.81582655e+01	-6.80250154e+01	-1.06654169e-01	1.61236403e+02
40980000	-1.12494620e+01	-6.97042899e+01	-8.82184738e+01	-4.51778375e+01	-9.21828133e+01	-6.96885642e+01	-1.04062611e-01	1.61073692e+02
41265571.4286	-1.12179927e+01	-7.01331497e+01	-8.60192588e+01	-5.69578291e+01	-9.24666562e+01	-8.07568668e+01	-1.01845305e-01	1.60887262e+02
41551142.8571	-1.12012199e+01	-7.01288826e+01	-8.83009905e+01	-7.36364696e+01	-9.07441095e+01	-5.92298273e+01	-1.17462103e-01	1.60783054e+02
41836714.2857	-1.11644183e+01	-7.02896548e+01	-9.01424929e+01	-6.63027850e+01	-8.95012584e+01	-8.29610742e+01	-1.22500581e-01	1.60621279e+02
42122285.7143	-1.11246484e+01	-7.06620207e+01	-8.83698168e+01	-6.58820804e+01	-8.95937043e+01	-9.18529586e+01	-1.26407514e-01	1.60506375e+02
42407857.1429	-1.11015470e+01	-7.10565454e+01	-8.77584877e+01	-1.00209581e+02	-8.61656450e+01	-8.88296246e+01	-1.26842542e-01	1.60379963e+02
42693428.5714	-1.10590724e+01	-7.11294985e+01	-9.03877334e+01	-6.75406439e+01	-8.83681796e+01	-6.98394487e+01	-1.25230724e-01	1.60196926e+02
42979000	-1.10143535e+01	-7.13817670e+01	-9.31042602e+01	-6.46493008e+01	-8.99075034e+01	-7.40982538e+01	-1.28149039e-01	1.60078356e+02
43264571.4286	-1.10005135e+01	-7.15362319e+01	-9.19119619e+01	-8.87983505e+01	-9.47096647e+01	-7.27998369e+01	-1.28077368e-01	1.59934288e+02
43550142.8571	-1.09622344e+01	-7.19971057e+01	-9.02246787e+01	-8.03213523e+01	-8.85912311e+01	-6.73711511e+01	-1.20522543e-01	1.59798690e+02
43835714.2857	-1.09540131e+01	-7.21346453e+01	-8.79452484e+01	-6.77389848e+01	-8.92880101e+01	-8.69486810e+01	-1.24156474e-01	1.59636909e+02
44121285.7143	-1.09314181e+01	-7.26747607e+01	-8.82373628e+01	-6.37463894e+01	-9.00264601e+01	-5.77773269e+01	-1.17527217e-01	1.59513269e+02
44406857.1429	-1.08980902e+01	-7.29606169e+01	-8.91180605e+01	-5.87117865e+01	-9.00121779e+01	-7.51034750e+01	-1.09772600e-01	1.59437425e+02
44692428.5714	-1.08982397e+01	-7.30968102e+01	-8.99073316e+01	-4.84915848e+01	-8.92621676e+01	-6.17030030e+01	-1.02877182e-01	1.59330673e+02
44978000	-1.08400757e+01	-7.32723145e+01	-8.94778143e+01	-7.82092049e+01	-8.70002160e+01	-6.08827676e+01	-9.55894594e-02	1.59221952e+02
45263571.4286	-1.08329792e+01	-7.35110858e+01	-9.03587436e+01	-9.32149016e+01	-8.80941272e+01	-6.60395494e+01	-8.86137718e-02	1.59110648e+02
45549142.8571	-1.07637825e+01	-7.38555117e+01	-8.83803935e+01	-9.67199984e+01	-8.87313349e+01	-8.75244067e+01	-7.89121744e-02	1.58958590e+02
45834714.2857	-1.07476293e+01	-7.40499941e+01	-9.40907561e+01	-4.86179994e+01	-8.73880301e+01	-9.10797859e+01	-8.07054244e-02	1.58849830e+02
46120285.7143	-1.07065335e+01	-7.42341674e+01	-9.37470423e+01	-9.11086972e+01	-9.47767853e+01	-7.50507665e+01	-8.05145224e-02	1.58698166e+02
46405857.1429	-1.06969103e+01	-7.44441620e+01	-9.21693200e+01	-1.06166353e+02	-8.71051624e+01	-8.90933569e+01	-8.14296425e-02	1.58621259e+02
46691428.5714	-1.06514855e+01	-7.45985802e+01	-8.74888670e+01	-1.12702046e+02	-9.37474891e+01	-8.45609869e+01	-7.59315222e-02	1.58483251e+02
46977000	-1.06370372e+01	-7.48394373e+01	-9.23569287e+01	-7.75675883e+01	-8.79852367e+01	-1.07186261e+02	-7.01401051e-02	1.58338820e+02
47262571.4286	-1.05949016e+01	-7.50477217e+01	-9.28262259e+01	-8.50604645e+01	-9.34183206e+01	-8.34232317e+01	-7.84516714e-02	1.58205655e+02
47548142.8571	-1.05934293e+01	-7.54937891e+01	-9.10176793e+01	-1.37858828e+02	-9.03869378e+01	-9.81015741e+01	-8.02016459e-02	1.58061390e+02
47833714.2857	-1.05414383e+01	-7.56570331e+01	-9.42619407e+01	-9.16432436e+01	-9.11288886e+01	-6.55291904e+01	-8.10198649e-02	1.57901673e+02
48119285.7143	-1.05127729e+01	-7.59383629e+01	-9.36930788e+01	-1.09252650e+02	-8.97195363e+01	-8.03268265e+01	-8.51503574e-02	1.57774910e+02
48404857.1429	-1.04762299e+01	-7.61616984e+01	-9.48929478e+01	-9.74157638e+01	-9.66845804e+01	-1.12526244e+02	-8.31779769e-02	1.57639663e+02
48690428.5714	-1.04572454e+01	-7.64048574e+01	-8.87117976e+01	-9.97283040e+01	-9.26707060e+01	-1.00236567e+02	-7.47317031e-02	1.57557640e+02
48976000	-1.04109127e+01	-7.67064720e+01	-9.33706267e+01	-7.31175865e+01	-9.67323731e+01	-1.17687725e+02	-6.78443095e-02	1.57477415e+02
49261571.4286	-1.03990585e+01	-7.68946454e+01	-9.02546155e+01	-7.60680633e+01	-9.34773659e+01	-9.54763039e+01	-6.39880379e-02	1.57436385e+02
49547142.8571	-1.03606308e+01	-7.71421953e+01	-9.72803289e+01	-8.00596463e+01	-9.16699173e+01	-5.01430711e+01	-6.47741552e-02	1.57323387e+02
49832714.2857	-1.03302785e+01	-7.73607836e+01	-1.00959698e+02	-8.38617031e+01	-9.65744637e+01	-1.22940431e+02	-6.41104938e-02	1.57157526e+02
50118285.7143	-1.03198066e+01	-7.75822334e+01	-9.94654641e+01	-2.74772481e+01	-9.65952705e+01	-6.07516515e+01	-6.17771913e-02	1.56987464e+02
50403857.1429	-1.02734332e+01	-7.79186008e+01	-9.26763331e+01	-7.18476105e+01	-9.20852220e+01	-1.03122554e+02	-6.36909878e-02	1.56828629e+02
50689428.5714	-1.02354867e+01	-7.80836278e+01	-9.23536510e+01	-8.00655955e+01	-9.30342788e+01	-1.02601738e+02	-6.37833902e-02	1.56723648e+02
50975000	-1.01836037e+01	-7.85038077e+01	-9.41470557e+01	-1.28886755e+02	-9.51182488e+01	-6.79284628e+01	-6.49909634e-02	1.56573301e+02
51260571.4286	-1.01910958e+01	-7.89175897e+01	-1.02217837e+02	-2.71995769e+01	-8.96932914e+01	-7.64109468e+01	-6.25546784e-02	1.56439311e+02
51546142.8571	-1.01751174e+01	-7.89906897e+01	-1.02789615e+02	-1.27016957e+02	-1.01763924e+02	-2.73928630e+01	-6.85973082e-02	1.56331864e+02
51831714.2857	-1.01238023e+01	-7.93117010e+01	-9.02153046e+01	-7.37779065e+01	-9.48005010e+01	-7.94008646e+01	-7.38317952e-02	1.56229295e+02
52117285.7143	-1.00936732e+01	-7.94967410e+01	-9.36017144e+01	-6.48674443e+01	-9.08030352e+01	-5.21635311e+01	-7.73937777e-02	1.56133330e+02
52402857.1429	-1.00754449e+01	-7.95057763e+01	-9.35832183e+01	-8.80496025e+01	-9.39303880e+01	-3.34596614e+01	-7.60711356e-02	1.55948985e+02
52688428.5714	-1.00349049e+01	-7.98539695e+01	-9.32629989e+01	-9.50738884e+01	-9.37823827e+01	-1.19403174e+02	-7.83028617e-02	1.55794611e+02
52974000	-1.00078592e+01	-8.00317214e+01	-9.38111431e+01	-5.43032757e+01	-9.60811530e+01	-2.12331936e+01	-7.78988893e-02	1.55662729e+02
53259571.4286	-9.99240870e+00	-8.04003614e+01	-9.35905484e+01	-7.81721614e+01	-9.05931745e+01	-8.77547027e+01	-7.18007448e-02	1.55523221e+02
53545142.8571	-9.96217035e+00	-8.05798470e+01	-9.74061956e+01	-6.54094455e+01	-8.76622073e+01	-4.97867431e+01	-6.86689468e-02	1.55425540e+02
53830714.2857	-9.93927027e+00	-8.08119523e+01	-9.13905595e+01	-2.76255847e+01	-8.83504358e+01	-8.37967955e+01	-6.16826388e-02	1.55327802e+02
54116285.7143	-9.93247817e+00	-8.11077983e+01	-9.68137804e+01	-8.19584747e+01	-9.18439404e+01	-4.02197369e+01	-6.07436748e-02	1.55223363e+02
54401857.1429	-9.90215529e+00	-8.12803610e+01	-8.89983551e+01	-7.83193926e+01	-9.16567647e+01	-8.62880402e+01	-6.27681257e-02	1.55118580e+02
54687428.5714	-9.87723086e+00	-8.17367901e+01	-8.77264888e+01	-9.53497039e+01	-9.62342064e+01	-6.61427990e+01	-6.83524523e-02	1.54962131e+02
54973000	-9.83595631e+00	-8.19525770e+01	-9.08555559e+01	-8.17346470e+01	-9.22664149e+01	-6.00634257e+01	-6.50294789e-02	1.54886542e+02
55258571.4286	-9.83174056e+00	-8.22597043e+01	-9.21611119e+01	-6.44187337e+01	-8.98296193e+01	-7.84842755e+01	-6.82520504e-02	1.54749996e+02
55544142.8571	-9.81093779e+00	-8.22982721e+01	-9.36155150e+01	-6.57295035e+01	-9.34531993e+01	-6.47731806e+01	-7.29798349e-02	1.54593996e+02
55829714.2857	-9.80290522e+00	-8.24763989e+01	-9.32116241e+01	-6.96277731e+01	-8.78339492e+01	-6.62114257e+01	-7.31628913e-02	1.54477782e+02
56115285.7143	-9.76511256e+00	-8.26693050e+01	-8.94859347e+01	-5.94085407e+01	-8.84330632e+01	-1.02147474e+02	-7.74029679e-02	1.54317471e+02
56400857.1429	-9.73642986e+00	-8.28899131e+01	-8.84667395e+01	-7.93441486e+01	-9.21262653e+01	-8.99026532e+01	-7.24977101e-02	1.54178651e+02
56686428.5714	-9.69845894e+00	-8.32498626e+01	-9.33951235e+01	-8.17570417e+01	-9.23318995e+01	-6.10785819e+01	-7.19142477e-02	1.54041801e+02
56972000	-9.67751305e+00	-8.33840220e+01	-9.02748866e+01	-9.72706927e+01	-9.45574685e+01	-8.19744693e+01	-7.36304368e-02	1.54000697e+02
57257571.4286	-9.65895382e+00	-8.38332868e+01	-8.73881238e+01	-6.54951626e+01	-9.42106329e+01	-1.00950522e+02	-7.37301393e-02	1.53930794e+02
57543142.8571	-9.63648658e+00	-8.39928966e+01	-8.73452849e+01	-6.19754333e+01	-9.45356163e+01	-8.65919467e+01	-8.18235399e-02	1.53784950e+02
57828714.2857	-9.60536215e+00	-8.42109520e+01	-9.24897928e+01	-7.68574884e+01	-9.05884915e+01	-6.04182760e+01	-8.41924136e-02	1.53648730e+02
58114285.7143	-9.58657084e+00	-8.44531344e+01	-9.21107690e+01	-8.65139569e+01	-8.80057397e+01	-5.58870872e+01	-8.27929244e-02	1.53476559e+02
58399857.1429	-9.57350729e+00	-8.47325316e+01	-9.36835993e+01	-6.08296594e+01	-9.82559837e+01	-1.11602568e+02	-8.54137519e-02	1.53319324e+02
58685428.5714	-9.54162641e+00	-8.48712893e+01	-9.03955001e+01	-9.71574941e+01	-8.80302261e+01	-7.56076937e+01	-8.76217616e-02	1.53186182e+02
58971000	-9.51083299e+00	-8.51473723e+01	-8.72020231e+01	-8.20315288e+01	-9.11390159e+01	-6.04741753e+01	-8.04945213e-02	1.53029693e+02
59256571.4286	-9.47894896e+00	-8.53664179e+01	-9.22758015e+01	-5.94282985e+01	-9.17972016e+01	-6.15152297e+01	-8.23409870e-02	1.52868854e+02
59542142.8571	-9.45381888e+00	-8.55585028e+01	-8.99017816e+01	-6.61271011e+01	-8.94263014e+01	-6.27942930e+01	-7.77223263e-02	1.52788302e+02
59827714.2857	-9.41174197e+00	-8.58947549e+01	-8.61965716e+01	-6.18674659e+01	-8.97181378e+01	-5.19365812e+01	-8.53087955e-02	1.52704480e+02
60113285.7143	-9.40491204e+00	-8.62412257e+01	-8.84373121e+01	-8.59904760e+01	-8.98362014e+01	-8.42020695e+01	-9.60572273e-02	1.52649818e+02
60398857.1429	-9.40594440e+00	-8.65199648e+01	-8.83702043e+01	-8.75472293e+01	-9.23644195e+01	-7.17332228e+01	-1.01138832e-01	1.52574733e+02
60684428.5714	-9.35738277e+00	-8.65819108e+01	-8.60759526e+01	-7.75039999e+01	-8.67664301e+01	-8.51666176e+01	-1.01186254e-01	1.52458484e+02
60970000	-9.32036909e+00	-8.67608098e+01	-8.97074804e+01	-6.91223468e+01	-9.02087960e+01	-7.35636624e+01	-1.02860097e-01	1.52341507e+02
61255571.4286	-9.30673196e+00	-8.70463828e+01	-8.67601880e+01	-1.07428951e+02	-8.88659481e+01	-7.24211762e+01	-1.02661801e-01	1.52224345e+02
61541142.8571	-9.27784754e+00	-8.72437467e+01	-8.50143278e+01	-8.15570151e+01	-9.41507311e+01	-8.83353523e+01	-1.08028675e-01	1.52089872e+02
61826714.2857	-9.25673839e+00	-8.74155609e+01	-8.87223419e+01	-8.31998992e+01	-8.91043767e+01	-7.55515346e+01	-1.10320111e-01	1.51959972e+02
62112285.7143	-9.25049507e+00	-8.76384392e+01	-8.90602766e+01	-1.03072446e+02	-8.87625844e+01	-6.40229928e+01	-1.04871657e-01	1.51821560e+02
62397857.1429	-9.21419638e+00	-8.78979821e+01	-8.80715407e+01	-9.20179049e+01	-8.86912656e+01	-8.83206592e+01	-1.02737898e-01	1.51683575e+02
62683428.5714	-9.19691509e+00	-8.80572385e+01	-8.54039694e+01	-9.63529474e+01	-8.81591387e+01	-8.79249880e+01	-1.06370564e-01	1.51563761e+02
62969000	-9.17448276e+00	-8.83020490e+01	-8.49788955e+01	-7.21797385e+01	-9.01070315e+01	-8.67170733e+01	-1.09310018e-01	1.51495442e+02
63254571.4286	-9.16222142e+00	-8.85167737e+01	-8.83296300e+01	-6.60228604e+01	-8.70823613e+01	-8.66256741e+01	-1.18074472e-01	1.51401636e+02
63540142.8571	-9.12433932e+00	-8.87491784e+01	-8.50386627e+01	-8.82553517e+01	-9.05746120e+01	-1.06461567e+02	-1.13562489e-01	1.51324314e+02
63825714.2857	-9.10511856e+00	-8.89037945e+01	-8.78521676e+01	-9.07775451e+01	-9.33097338e+01	-7.52971726e+01	-1.14914890e-01	1.51178258e+02
64111285.7143	-9.07012095e+00	-8.90956634e+01	-9.24627436e+01	-8.69963270e+01	-9.01985579e+01	-9.40868425e+01	-1.29876441e-01	1.50986881e+02
64396857.1429	-9.05135775e+00	-8.93623555e+01	-8.67829540e+01	-8.49661601e+01	-8.60481617e+01	-9.97127642e+01	-1.26030056e-01	1.50840801e+02
64682428.5714	-9.03666437e+00	-8.94731557e+01	-8.53975948e+01	-7.82240489e+01	-8.91020337e+01	-9.44446615e+01	-1.18187372e-01	1.50668731e+02
64968000	-9.01172375e+00	-8.96453219e+01	-8.83593890e+01	-1.03731595e+02	-8.78393298e+01	-7.67596052e+01	-1.13794886e-01	1.50584216e+02
65253571.4286	-8.98471095e+00	-8.98312275e+01	-8.68009019e+01	-9.27377372e+01	-9.06084026e+01	-9.05906031e+01	-1.19938580e-01	1.50466114e+02
65539142.8571	-8.95635958e+00	-9.00661279e+01	-8.60379659e+01	-9.21933718e+01	-8.68500409e+01	-9.96134353e+01	-1.24890050e-01	1.50330810e+02
65824714.2857	-8.93789724e+00	-9.03363149e+01	-8.80734286e+01	-1.10055213e+02	-8.71810603e+01	-9.27496915e+01	-1.19241292e-01	1.50205248e+02
66110285.7143	-8.91309805e+00	-9.05044088e+01	-9.09878049e+01	-7.50716191e+01	-8.73754175e+01	-8.22435274e+01	-1.15316978e-01	1.50087702e+02
66395857.1429	-8.89121190e+00	-9.07398666e+01	-8.78951929e+01	-6.25881018e+01	-9.07245333e+01	-1.03976355e+02	-1.22026163e-01	1.49967180e+02
66681428.5714	-8.87156995e+00	-9.08764159e+01	-8.68097378e+01	-8.14531304e+01	-8.69223051e+01	-1.02477983e+02	-1.30765240e-01	1.49848213e+02
66967000	-8.84116828e+00	-9.10884447e+01	-9.15173601e+01	-1.13268344e+02	-9.04156255e+01	-8.07556794e+01	-1.31646920e-01	1.49725675e+02
67252571.4286	-8.80274598e+00	-9.13603949e+01	-8.80112704e+01	-1.19237716e+02	-8.90906223e+01	-9.62527061e+01	-1.37671141e-01	1.49595930e+02
67538142.8571	-8.79159168e+00	-9.15154656e+01	-8.72798197e+01	-7.33524895e+01	-8.72062245e+01	-8.21080236e+01	-1.47793868e-01	1.49442708e+02
67823714.2857	-8.76379583e+00	-9.17158278e+01	-8.45686732e+01	-1.12723960e+02	-8.55207697e+01	-9.81128226e+01	-1.55723006e-01	1.49395556e+02
68109285.7143	-8.73033000e+00	-9.19536183e+01	-8.53085642e+01	-1.01061719e+02	-8.49518675e+01	-9.75895827e+01	-1.59036265e-01	1.49233429e+02
68394857.1429	-8.72165261e+00	-9.21715036e+01	-8.68563619e+01	-9.59985083e+01	-8.58967198e+01	-9.50745159e+01	-1.58729716e-01	1.49154966e+02
68680428.5714	-8.69171044e+00	-9.24989891e+01	-8.44912204e+01	-1.09963573e+02	-8.64370400e+01	-9.22739299e+01	-1.75303018e-01	1.49043724e+02
68966000	-8.67874564e+00	-9.26311768e+01	-8.77328824e+01	-9.92309590e+01	-8.38979880e+01	-1.00267608e+02	-1.69044370e-01	1.48920526e+02
69251571.4286	-8.66607214e+00	-9.28641554e+01	-8.65032203e+01	-1.13328329e+02	-8.61190470e+01	-9.79297330e+01	-1.79332192e-01	1.48782370e+02
69537142.8571	-8.64284409e+00	-9.29106486e+01	-8.74689807e+01	-1.08230318e+02	-8.73528325e+01	-9.55350579e+01	-1.90846301e-01	1.48699483e+02
69822714.2857	-8.61751711e+00	-9.32313748e+01	-8.68864194e+01	-8.23547527e+01	-8.66683557e+01	-1.14245352e+02	-1.85966555e-01	1.48577885e+02
70108285.7143	-8.59859409e+00	-9.34784740e+01	-8.71178341e+01	-1.04227599e+02	-8.69731993e+01	-1.03781400e+02	-1.87881191e-01	1.48469158e+02
70393857.1429	-8.58174458e+00	-9.36171474e+01	-8.71594695e+01	-1.06367900e+02	-8.61583995e+01	-1.13793098e+02	-1.92708257e-01	1.48374766e+02
70679428.5714	-8.56650326e+00	-9.37664018e+01	-8.63982029e+01	-1.28680970e+02	-8.66053277e+01	-1.15304821e+02	-2.08131384e-01	1.48176784e+02
70965000	-8.53781552e+00	-9.39445512e+01	-9.07268612e+01	-1.00936707e+02	-8.80318107e+01	-1.22491724e+02	-2.17858480e-01	1.48107583e+02
71250571.4286	-8.51162001e+00	-9.41765135e+01	-8.71523252e+01	-1.05026215e+02	-8.70961436e+01	-1.30245759e+02	-2.11418566e-01	1.48021961e+02
71536142.8571	-8.49918004e+00	-9.43781916e+01	-8.76483778e+01	-1.32521642e+02	-8.91857218e+01	-1.09582496e+02	-2.11037281e-01	1.47878349e+02
71821714.2857	-8.46781909e+00	-9.45236324e+01	-8.63314344e+01	-1.23634557e+02	-8.77459611e+01	-1.42158026e+02	-2.03269829e-01	1.47629967e+02
72107285.7143	-8.44508129e+00	-9.47551364e+01	-8.76049355e+01	-1.07631975e+02	-8.77048469e+01	-1.07500694e+02	-1.99057788e-01	1.47493200e+02
72392857.1429	-8.41623825e+00	-9.50025736e+01	-8.59254049e+01	-1.24036781e+02	-8.77539503e+01	-9.95976304e+01	-1.98681331e-01	1.47415342e+02
72678428.5714	-8.37794025e+00	-9.51848144e+01	-8.70579132e+01	-1.00239084e+02	-8.74383732e+01	-1.35058022e+02	-1.96433739e-01	1.47241200e+02
72964000	-8.35832744e+00	-9.53989512e+01	-8.44586972e+01	-9.55198200e+01	-8.43334107e+01	-1.16123563e+02	-1.93920296e-01	1.47037699e+02
73249571.4286	-8.34967380e+00	-9.55933090e+01	-8.71460309e+01	-1.21265928e+02	-8.96302891e+01	-1.02261934e+02	-1.67404557e-01	1.46765766e+02
73535142.8571	-8.33081165e+00	-9.58035492e+01	-8.97704661e+01	-1.13686539e+02	-8.56795796e+01	-1.09381918e+02	-1.80068728e-01	1.46706209e+02
73820714.2857	-8.30821352e+00	-9.60285294e+01	-8.60877760e+01	-1.19323989e+02	-8.78218687e+01	-1.21172748e+02	-1.90583115e-01	1.46546004e+02
74106285.7143	-8.27806295e+00	-9.62171362e+01	-8.86652241e+01	-9.21547158e+01	-8.87940180e+01	-1.24611824e+02	-2.02098908e-01	1.46463022e+02
74391857.1429	-8.26907410e+00	-9.64405338e+01	-8.67652894e+01	-9.28927519e+01	-8.59607632e+01	-1.19060073e+02	-1.95799844e-01	1.46340826e+02
74677428.5714	-8.24699150e+00	-9.67084523e+01	-8.81760620e+01	-1.10496287e+02	-8.36790818e+01	-1.28601508e+02	-2.01619585e-01	1.46248673e+02
74963000	-8.22447812e+00	-9.68097846e+01	-8.50710334e+01	-1.21253046e+02	-8.79434339e+01	-1.06111263e+02	-1.96287089e-01	1.46087536e+02
75248571.4286	-8.20334165e+00	-9.69712981e+01	-8.61966854e+01	-1.49942519e+02	-8.51504092e+01	-1.24771892e+02	-1.96814475e-01	1.46008167e+02
75534142.8571	-8.19431234e+00	-9.72210593e+01	-8.66589796e+01	-1.26533095e+02	-8.67582063e+01	-1.22063404e+02	-2.00334277e-01	1.45778272e+02
75819714.2857	-8.16960468e+00	-9.74361784e+01	-8.76111163e+01	-1.24974866e+02	-8.65698884e+01	-1.24527176e+02	-2.02636835e-01	1.45618492e+02
76105285.7143	-8.16606532e+00	-9.75285321e+01	-8.76084764e+01	-1.38165016e+02	-8.65359079e+01	-1.14963107e+02	-2.01364957e-01	1.45538966e+02
76390857.1429	-8.13561336e+00	-9.76687080e+01	-8.70862228e+01	-1.28226127e+02	-8.37244739e+01	-1.31337930e+02	-1.97230421e-01	1.45357250e+02
76676428.5714	-8.11984368e+00	-9.78010854e+01	-8.52528692e+01	-1.33396498e+02	-8.47127263e+01	-1.34402654e+02	-2.08066585e-01	1.45381224e+02
76962000	-8.10117635e+00	-9.79611179e+01	-8.76014916e+01	-1.58492496e+02	-8.52937880e+01	-1.46222109e+02	-2.08949679e-01	1.45193875e+02
77247571.4286	-8.06131914e+00	-9.80224722e+01	-8.48249819e+01	-1.35878427e+02	-8.83896787e+01	-1.42965865e+02	-2.15317402e-01	1.45019495e+02
77533142.8571	-8.04039257e+00	-9.82767108e+01	-8.64788375e+01	-1.51000254e+02	-8.52313055e+01	-1.49232155e+02	-2.20574400e-01	1.44879550e+02
77818714.2857	-8.01612241e+00	-9.83724589e+01	-8.67974845e+01	-1.43571577e+02	-8.43905166e+01	-1.54380245e+02	-2.12434515e-01	1.44708041e+02
78104285.7143	-8.00048651e+00	-9.85540679e+01	-8.64963109e+01	-1.49519144e+02	-8.69555396e+01	-1.58276081e+02	-2.09972662e-01	1.44556727e+02
78389857.1429	-7.96331764e+00	-9.87697483e+01	-8.63955729e+01	-1.57085103e+02	-8.84693089e+01	-1.47213325e+02	-2.39650963e-01	1.44480704e+02
78675428.5714	-7.92828177e+00	-9.89375510e+01	-8.95737055e+01	-1.39737388e+02	-8.99159489e+01	-1.50797905e+02	-2.27844351e-01	1.44386880e+02
78961000	-7.90572444e+00	-9.90771385e+01	-8.71270580e+01	-1.44306800e+02	-9.27366930e+01	-1.78333549e+02	-2.17910423e-01	1.44181681e+02
79246571.4286	-7.88127865e+00	-9.91859267e+01	-8.72192951e+01	1.66795746e+02	-9.02956560e+01	-1.61362274e+02	-2.20089101e-01	1.44049149e+02
79532142.8571	-7.86314700e+00	-9.93777983e+01	-9.35310363e+01	-1.47472024e+02	-8.65491498e+01	-1.67870377e+02	-2.21397342e-01	1.43872786e+02
79817714.2857	-7.84865357e+00	-9.94992760e+01	-8.90423554e+01	-1.40479410e+02	-9.24570040e+01	1.74040970e+02	-2.17402402e-01	1.43825158e+02
80103285.7143	-7.80305056e+00	-9.96629037e+01	-8.86276162e+01	-1.63370366e+02	-9.03422296e+01	-1.79070769e+02	-2.19558245e-01	1.43677024e+02
80388857.1429	-7.77807354e+00	-9.97848205e+01	-9.35563361e+01	1.78497998e+02	-9.15099465e+01	1.73605437e+02	-2.23933577e-01	1.43671532e+02
80674428.5714	-7.76151287e+00	-1.00008994e+02	-9.22866016e+01	-1.61189126e+02	-8.93087252e+01	-1.69060413e+02	-2.26259010e-01	1.43448313e+02
80960000	-7.73005304e+00	-1.00230219e+02	-8.85066438e+01	-1.63627809e+02	-9.39632382e+01	-9.55385101e+01	-2.35430313e-01	1.43180113e+02
81245571.4286	-7.68816039e+00	-1.00387911e+02	-8.92147308e+01	1.59654449e+02	-9.38973911e+01	-1.47433555e+02	-2.34220436e-01	1.42957439e+02
81531142.8571	-7.66451478e+00	-1.00623524e+02	-8.82505427e+01	-1.46094933e+02	-9.38349961e+01	-1.79709059e+02	-2.22430107e-01	1.43017379e+02
81816714.2857	-7.63482145e+00	-1.00717049e+02	-9.82807727e+01	1.06880604e+02	-9.43072122e+01	-1.54691946e+02	-2.30364066e-01	1.42847455e+02
82102285.7143	-7.60943510e+00	-1.00821562e+02	-9.56509577e+01	1.22942402e+02	-9.39043917e+01	1.02594590e+02	-2.28941016e-01	1.42748642e+02
82387857.1429	-7.59331711e+00	-1.00998337e+02	-8.92408519e+01	-1.38634478e+02	-9.81210126e+01	-1.29276428e+02	-2.39844526e-01	1.42492565e+02
82673428.5714	-7.56912096e+00	-1.01238296e+02	-9.49600774e+01	-1.38712756e+02	-1.07059896e+02	-1.40142362e+02	-2.37945415e-01	1.42451926e+02
82959000	-7.54614559e+00	-1.01312547e+02	-9.13253024e+01	-1.24828429e+02	-1.04051578e+02	-1.79559426e+02	-2.07390215e-01	1.42305241e+02
83244571.4286	-7.52393660e+00	-1.01467212e+02	-9.43379132e+01	-2.78466335e+01	-9.55288276e+01	-6.50484251e+01	-2.21108843e-01	1.42128809e+02
83530142.8571	-7.50689383e+00	-1.01593988e+02	-1.05799333e+02	-2.46799693e+01	-1.01826814e+02	-9.37027357e+00	-2.31218127e-01	1.42068648e+02
83815714.2857	-7.47156675e+00	-1.01654072e+02	-9.57493652e+01	-9.41571827e+00	-9.63300163e+01	-7.52780768e+01	-2.09987127e-01	1.41846875e+02
84101285.7143	-7.45144633e+00	-1.01905083e+02	-9.21593084e+01	-6.18683041e+01	-9.17054889e+01	-7.29030437e+01	-2.34036406e-01	1.41804675e+02
84386857.1429	-7.42492778e+00	-1.02131409e+02	-9.54338194e+01	-7.90480375e+01	-9.03706385e+01	-1.42920731e+02	-2.29527528e-01	1.41610016e+02
84672428.5714	-7.40165609e+00	-1.02174333e+02	-1.00539533e+02	-7.25506660e+01	-9.93735144e+01	5.91536741e+01	-2.10751447e-01	1.41598723e+02
84958000	-7.38217330e+00	-1.02355586e+02	-1.02955800e+02	-8.83560068e+01	-9.10193159e+01	-6.08198280e+01	-2.16928904e-01	1.41400571e+02
85243571.4286	-7.36070335e+00	-1.02521157e+02	-9.07224681e+01	-2.55446933e+01	-9.20096655e+01	-7.14614598e+01	-1.99550745e-01	1.41193114e+02
85529142.8571	-7.34658155e+00	-1.02578434e+02	-9.58091494e+01	-4.51844257e+01	-1.01040607e+02	-4.71198754e+01	-2.04722226e-01	1.41141468e+02
85814714.2857	-7.33210944e+00	-1.02783330e+02	-9.79002446e+01	-4.71919071e+01	-9.31593886e+01	-5.63737042e+01	-2.06162304e-01	1.40999144e+02
86100285.7143	-7.30712200e+00	-1.02934831e+02	-9.52845503e+01	-5.37747702e+01	-9.14185752e+01	-4.59385948e+01	-1.94937598e-01	1.40849214e+02
86385857.1429	-7.28517117e+00	-1.03122237e+02	-9.06685305e+01	-9.62684057e+01	-9.38729059e+01	-9.31683085e+01	-2.03647623e-01	1.40674249e+02
86671428.5714	-7.27380918e+00	-1.03195416e+02	-9.13795636e+01	-1.20568930e+02	-9.66150443e+01	-4.89600288e+01	-1.95522567e-01	1.40576937e+02
86957000	-7.23671458e+00	-1.03391737e+02	-8.83279753e+01	-8.84841072e+01	-9.05441121e+01	-9.21203398e+01	-2.03067943e-01	1.40378290e+02
87242571.4286	-7.22099080e+00	-1.03468433e+02	-9.08017885e+01	-9.57425905e+01	-8.98354932e+01	-3.79435992e+01	-1.81218153e-01	1.40259224e+02
87528142.8571	-7.20005197e+00	-1.03558794e+02	-8.78628741e+01	-5.55645498e+01	-8.94061552e+01	-7.13104212e+01	-2.04450280e-01	1.40073879e+02
87813714.2857	-7.16865077e+00	-1.03797992e+02	-9.35247650e+01	-6.29427322e+01	-8.98973266e+01	-7.43751755e+01	-1.84284333e-01	1.39999115e+02
88099285.7143	-7.16115806e+00	-1.04002747e+02	-8.76594145e+01	-5.43548830e+01	-8.91346411e+01	-7.21173947e+01	-1.82696812e-01	1.39813712e+02
88384857.1429	-7.14853118e+00	-1.04024693e+02	-9.30717606e+01	-3.40100092e+01	-8.68044993e+01	-6.80958825e+01	-1.91155389e-01	1.39769849e+02
88670428.5714	-7.12801717e+00	-1.04165859e+02	-8.56177498e+01	-7.60398903e+01	-8.99832014e+01	-9.48232580e+01	-1.92759915e-01	1.39697789e+02
88956000	-7.11792286e+00	-1.04240695e+02	-8.72181028e+01	-9.17591787e+01	-8.90786738e+01	-9.09221258e+01	-1.96444541e-01	1.39479258e+02
89241571.4286	-7.10462660e+00	-1.04353105e+02	-8.98607156e+01	-8.46304315e+01	-8.85855359e+01	-1.04582778e+02	-1.95891586e-01	1.39322658e+02
89527142.8571	-7.08212936e+00	-1.04509111e+02	-8.42231884e+01	-9.19952168e+01	-8.55656797e+01	-9.15068088e+01	-1.88515122e-01	1.39161985e+02
89812714.2857	-7.06999222e+00	-1.04557885e+02	-8.95763563e+01	-9.67979516e+01	-9.59570303e+01	-8.28552420e+01	-1.84089350e-01	1.38999632e+02
90098285.7143	-7.04798202e+00	-1.04721646e+02	-8.99814219e+01	-8.95359495e+01	-8.84879917e+01	-1.04452980e+02	-1.97494724e-01	1.38909626e+02
90383857.1429	-7.03149707e+00	-1.04845967e+02	-9.00167230e+01	-9.09907274e+01	-8.86310417e+01	-9.37385965e+01	-1.88435127e-01	1.38702357e+02
90669428.5714	-6.99991452e+00	-1.04928776e+02	-8.94937020e+01	-7.80043907e+01	-9.29121610e+01	-7.94710657e+01	-2.00838269e-01	1.38632987e+02
90955000	-6.98211775e+00	-1.05099171e+02	-8.86795263e+01	-1.23664652e+02	-9.20603563e+01	-9.41567041e+01	-1.92355381e-01	1.38506172e+02
91240571.4286	-6.97218507e+00	-1.05181126e+02	-9.05036339e+01	-5.93948410e+01	-9.15641116e+01	-8.79846183e+01	-1.88909803e-01	1.38346306e+02
91526142.8571	-6.95588407e+00	-1.05405307e+02	-8.77548669e+01	-7.72606335e+01	-8.51593002e+01	-9.99032473e+01	-1.88242388e-01	1.38280370e+02
91811714.2857	-6.94094553e+00	-1.05513270e+02	-8.65892178e+01	-1.13225254e+02	-9.08774142e+01	-8.49125054e+01	-1.95313593e-01	1.38096587e+02
92097285.7143	-6.91589957e+00	-1.05705313e+02	-8.95125905e+01	-1.04838811e+02	-8.54736609e+01	-1.32236735e+02	-1.84393662e-01	1.37910996e+02
92382857.1429	-6.90108932e+00	-1.05801692e+02	-8.92462931e+01	-9.27911335e+01	-8.70827316e+01	-1.01139898e+02	-1.84868201e-01	1.37818001e+02
92668428.5714	-6.87640847e+00	-1.05925947e+02	-8.55949853e+01	-9.40787325e+01	-8.90290706e+01	-1.27644483e+02	-1.87355553e-01	1.37584382e+02
92954000	-6.86017091e+00	-1.06087721e+02	-8.48699693e+01	-1.01675129e+02	-8.68175155e+01	-7.87967934e+01	-1.85016185e-01	1.37518629e+02
93239571.4286	-6.83614022e+00	-1.06186433e+02	-8.58231529e+01	-9.27461776e+01	-8.67769243e+01	-8.27617898e+01	-1.83979459e-01	1.37430736e+02
93525142.8571	-6.81912814e+00	-1.06261051e+02	-8.35989184e+01	-9.96685939e+01	-8.84595441e+01	-1.42544056e+02	-1.87944017e-01	1.37299514e+02
93810714.2857	-6.79555798e+00	-1.06442146e+02	-8.95155892e+01	-1.09846632e+02	-8.46793681e+01	-1.09828580e+02	-1.79789408e-01	1.37081548e+02
94096285.7143	-6.78344836e+00	-1.06626375e+02	-8.81885818e+01	-6.88454123e+01	-8.67118363e+01	-1.02622586e+02	-1.73293137e-01	1.37050311e+02
94381857.1429	-6.76435450e+00	-1.06725423e+02	-8.59116172e+01	-1.05930366e+02	-8.60719572e+01	-1.07562326e+02	-1.52972229e-01	1.36880391e+02
94667428.5714	-6.75166896e+00	-1.06817260e+02	-8.64329519e+01	-1.00119150e+02	-8.68484067e+01	-1.02326326e+02	-1.60222117e-01	1.36831545e+02
94953000	-6.74173576e+00	-1.06941879e+02	-8.91868861e+01	-9.83891399e+01	-8.71576910e+01	-8.85931298e+01	-1.44376157e-01	1.36593268e+02
95238571.4286	-6.72676318e+00	-1.07127556e+02	-8.47657775e+01	-1.22857458e+02	-8.61750705e+01	-1.10504276e+02	-1.39344603e-01	1.36429330e+02
95524142.8571	-6.70658775e+00	-1.07212117e+02	-8.56742517e+01	-1.12330358e+02	-8.50222693e+01	-1.08737605e+02	-1.53410656e-01	1.36365052e+02
95809714.2857	-6.68957722e+00	-1.07286621e+02	-8.29266663e+01	-1.00146433e+02	-8.99526053e+01	-7.85319822e+01	-1.56582722e-01	1.36246303e+02
96095285.7143	-6.67357038e+00	-1.07381935e+02	-8.70675347e+01	-1.19855392e+02	-8.69286464e+01	-1.25594001e+02	-1.46931780e-01	1.36105374e+02
96380857.1429	-6.66213909e+00	-1.07507650e+02	-8.47963624e+01	-1.08143374e+02	-8.71221455e+01	-7.52240370e+01	-1.34089226e-01	1.35949076e+02
96666428.5714	-6.65348049e+00	-1.07570369e+02	-8.40443369e+01	-1.15711477e+02	-8.35200007e+01	-1.12261298e+02	-1.34970963e-01	1.35827756e+02
96952000	-6.62800507e+00	-1.07797881e+02	-8.49168748e+01	-1.11261517e+02	-8.67842538e+01	-1.13437383e+02	-1.22160045e-01	1.35773471e+02
97237571.4286	-6.60425719e+00	-1.07811747e+02	-8.39674234e+01	-1.25648293e+02	-8.72148064e+01	-9.85157255e+01	-1.16749430e-01	1.35605613e+02
97523142.8571	-6.59277875e+00	-1.07821474e+02	-8.37678796e+01	-1.21549465e+02	-8.68597999e+01	-1.00854595e+02	-1.21274451e-01	1.35483946e+02
97808714.2857	-6.58395340e+00	-1.07916601e+02	-8.48786890e+01	-1.04611587e+02	-8.70099283e+01	-1.02623147e+02	-1.20197964e-01	1.35344484e+02
98094285.7143	-6.57029087e+00	-1.08144415e+02	-8.58025231e+01	-1.05614495e+02	-8.30536932e+01	-1.14892998e+02	-1.26098732e-01	1.35221103e+02
98379857.1429	-6.55200914e+00	-1.08242137e+02	-8.53014288e+01	-1.25716399e+02	-8.45198886e+01	-1.22258962e+02	-1.25290528e-01	1.35045717e+02
98665428.5714	-6.54481641e+00	-1.08379197e+02	-8.54189989e+01	-1.30163968e+02	-8.58004088e+01	-1.16973325e+02	-1.28610230e-01	1.34890356e+02
98951000	-6.54113510e+00	-1.08512611e+02	-8.33453181e+01	-1.14946808e+02	-8.41839646e+01	-1.08726522e+02	-1.34531829e-01	1.34724677e+02
99236571.4286	-6.52274289e+00	-1.08500497e+02	-8.28788146e+01	-1.06031427e+02	-8.58217699e+01	-1.19616028e+02	-1.42016338e-01	1.34655064e+02
99522142.8571	-6.49287090e+00	-1.08606682e+02	-8.75989549e+01	-1.13604535e+02	-8.46080704e+01	-1.34675600e+02	-1.44692128e-01	1.34573805e+02
99807714.2857	-6.47833010e+00	-1.08774100e+02	-8.45668319e+01	-1.14372267e+02	-8.35969690e+01	-1.21320431e+02	-1.47285241e-01	1.34443740e+02
100093285.714	-6.46244396e+00	-1.08851544e+02	-8.53121673e+01	-1.27172922e+02	-8.38694940e+01	-1.21619624e+02	-1.47980457e-01	1.34234402e+02
100378857.143	-6.43733352e+00	-1.08853438e+02	-8.43460371e+01	-1.19089056e+02	-8.69305286e+01	-1.38519239e+02	-1.43226746e-01	1.34073209e+02
100664428.571	-6.41301984e+00	-1.08962757e+02	-8.74765230e+01	-1.37418038e+02	-8.66395034e+01	-1.16515440e+02	-1.42989378e-01	1.34069836e+02
100950000	-6.40038852e+00	-1.09080071e+02	-8.55536423e+01	-1.25307964e+02	-8.64777653e+01	-1.21402945e+02	-1.44125011e-01	1.33998491e+02
101235571.429	-6.39297255e+00	-1.09182286e+02	-8.54560614e+01	-1.34897019e+02	-8.51461853e+01	-1.17730812e+02	-1.43676954e-01	1.33818912e+02
101521142.857	-6.39105626e+00	-1.09330459e+02	-8.91366896e+01	-1.31634616e+02	-8.70887845e+01	-1.36456399e+02	-1.58153825e-01	1.33668322e+02
101806714.286	-6.37180765e+00	-1.09426297e+02	-8.99809423e+01	-1.14428903e+02	-8.43209240e+01	-1.23513223e+02	-1.52628246e-01	1.33555558e+02
102092285.714	-6.34609451e+00	-1.09467721e+02	-8.71991865e+01	-1.37137520e+02	-8.76688574e+01	-1.24994952e+02	-1.46884425e-01	1.33442128e+02
102377857.143	-6.33829870e+00	-1.09619864e+02	-8.75086831e+01	-1.38698491e+02	-8.90036453e+01	-1.12628878e+02	-1.49062262e-01	1.33358219e+02
102663428.571	-6.31721210e+00	-1.09670938e+02	-9.22263311e+01	-1.08175789e+02	-8.85339680e+01	-1.13460503e+02	-1.43750026e-01	1.33243965e+02
102949000	-6.30979309e+00	-1.09789603e+02	-8.78929462e+01	-1.08545055e+02	-8.50106713e+01	-1.27352994e+02	-1.38510336e-01	1.33168577e+02
103234571.429	-6.31054257e+00	-1.09804711e+02	-8.57207869e+01	-1.23141863e+02	-9.06949553e+01	-1.08984462e+02	-1.33449071e-01	1.33020380e+02
103520142.857	-6.27887889e+00	-1.09902682e+02	-8.80454864e+01	-9.84920125e+01	-8.78565801e+01	-1.11130724e+02	-1.32118746e-01	1.32902748e+02
103805714.286	-6.27935150e+00	-1.10013615e+02	-8.88652534e+01	-7.79555788e+01	-8.83607281e+01	-1.20113261e+02	-1.24752493e-01	1.32790213e+02
104091285.714	-6.25047614e+00	-1.10179869e+02	-8.96524998e+01	-1.06470778e+02	-8.59036674e+01	-1.00844827e+02	-1.09262970e-01	1.32706418e+02
104376857.143	-6.23623739e+00	-1.10248537e+02	-8.64970716e+01	-1.05862231e+02	-8.49158368e+01	-1.06371871e+02	-1.07692302e-01	1.32560832e+02
104662428.571	-6.22471696e+00	-1.10237192e+02	-8.61529988e+01	-1.04731820e+02	-8.75235653e+01	-1.02285676e+02	-1.01619321e-01	1.32391715e+02
104948000	-6.20971423e+00	-1.10299770e+02	-8.68738391e+01	-1.00844196e+02	-8.65909476e+01	-8.36336776e+01	-1.01684122e-01	1.32252318e+02
105233571.429	-6.19119892e+00	-1.10436700e+02	-8.61277164e+01	-1.03447475e+02	-8.82614032e+01	-1.09045514e+02	-1.05768804e-01	1.32146127e+02
105519142.857	-6.19433274e+00	-1.10504286e+02	-8.41930943e+01	-1.09973789e+02	-8.16659192e+01	-1.08093290e+02	-1.12807647e-01	1.32007330e+02
105804714.286	-6.16890982e+00	-1.10581417e+02	-8.26809819e+01	-1.00704594e+02	-8.23327335e+01	-1.03122878e+02	-1.11128312e-01	1.31875339e+02
106090285.714	-6.15941910e+00	-1.10739918e+02	-8.32178254e+01	-1.09064043e+02	-8.46132443e+01	-9.52097049e+01	-1.10201072e-01	1.31735138e+02
106375857.143	-6.13653214e+00	-1.10796802e+02	-8.34808779e+01	-9.71191747e+01	-8.33887602e+01	-9.56614577e+01	-1.10249299e-01	1.31629914e+02
106661428.571	-6.12495117e+00	-1.10862022e+02	-8.40790076e+01	-1.16925456e+02	-8.48039652e+01	-1.01046630e+02	-1.12687203e-01	1.31536069e+02
106947000	-6.11404318e+00	-1.11066236e+02	-8.34701081e+01	-9.32501772e+01	-8.46757292e+01	-9.85045825e+01	-1.17489252e-01	1.31418797e+02
107232571.429	-6.10947786e+00	-1.11050311e+02	-8.32021025e+01	-1.11659275e+02	-8.34089323e+01	-1.05603983e+02	-1.21881927e-01	1.31272036e+02
107518142.857	-6.08146674e+00	-1.11122103e+02	-8.15484944e+01	-1.08486140e+02	-8.19890086e+01	-9.96540701e+01	-1.22688234e-01	1.31153675e+02
107803714.286	-6.07280114e+00	-1.11353842e+02	-8.36416504e+01	-9.90186392e+01	-8.51222612e+01	-1.07919475e+02	-1.21050758e-01	1.31086897e+02
108089285.714	-6.05568499e+00	-1.11444468e+02	-8.45051977e+01	-1.15427422e+02	-8.40711697e+01	-1.19425917e+02	-1.16426955e-01	1.30942409e+02
108374857.143	-6.04198219e+00	-1.11612559e+02	-8.29593530e+01	-1.10068642e+02	-8.46484515e+01	-1.08409133e+02	-1.16024817e-01	1.30770003e+02
108660428.571	-5.99947224e+00	-1.11600436e+02	-8.21042493e+01	-1.08365907e+02	-8.27857481e+01	-1.09915140e+02	-1.18610559e-01	1.30600082e+02
108946000	-6.00416010e+00	-1.11752169e+02	-8.23048604e+01	-9.90162240e+01	-8.33351026e+01	-1.13648908e+02	-1.08483332e-01	1.30475155e+02
109231571.429	-5.99037323e+00	-1.11822521e+02	-8.17993625e+01	-1.15039773e+02	-8.03028660e+01	-1.07404615e+02	-1.07543058e-01	1.30383489e+02
109517142.857	-5.99018209e+00	-1.12026764e+02	-8.12542541e+01	-1.10822605e+02	-8.08613054e+01	-9.98662949e+01	-1.01451413e-01	1.30263630e+02
109802714.286	-5.97281393e+00	-1.12164638e+02	-8.10509932e+01	-1.14430553e+02	-8.06715889e+01	-1.09906394e+02	-1.03220686e-01	1.30172153e+02
110088285.714	-5.97528975e+00	-1.12321109e+02	-7.99615066e+01	-1.22021308e+02	-8.06552773e+01	-1.19024472e+02	-1.04633779e-01	1.30067168e+02
110373857.143	-5.95208309e+00	-1.12457932e+02	-7.96240263e+01	-1.17462730e+02	-7.89212702e+01	-1.17235610e+02	-1.15947651e-01	1.29895710e+02
110659428.571	-5.93366645e+00	-1.12583425e+02	-8.02232320e+01	-1.20932563e+02	-8.02742274e+01	-1.21338691e+02	-1.19271510e-01	1.29766466e+02
110945000	-5.93947491e+00	-1.12641717e+02	-7.83833178e+01	-1.24401596e+02	-7.95682296e+01	-1.17390877e+02	-1.26677879e-01	1.29613271e+02
111230571.429	-5.90876197e+00	-1.12726549e+02	-7.94379566e+01	-1.25902458e+02	-8.05726013e+01	-1.26071089e+02	-1.29705134e-01	1.29476806e+02
111516142.857	-5.91189984e+00	-1.12777146e+02	-7.96024542e+01	-1.24027104e+02	-7.98144696e+01	-1.30654693e+02	-1.32025345e-01	1.29362589e+02
111801714.286	-5.90268515e+00	-1.12923297e+02	-7.95732311e+01	-1.42699981e+02	-7.95884233e+01	-1.28008148e+02	-1.26655250e-01	1.29247830e+02
112087285.714	-5.88610305e+00	-1.13004758e+02	-7.97480587e+01	-1.27248376e+02	-7.91678420e+01	-1.37583581e+02	-1.31842626e-01	1.29159692e+02
112372857.143	-5.89141982e+00	-1.13130354e+02	-7.89100455e+01	-1.36106675e+02	-7.92770631e+01	-1.34854677e+02	-1.31898006e-01	1.29053223e+02
112658428.571	-5.88419266e+00	-1.13221465e+02	-7.83301118e+01	-1.41020057e+02	-7.96399089e+01	-1.42615133e+02	-1.32245141e-01	1.28947053e+02
112944000	-5.88831910e+00	-1.13290487e+02	-7.88954224e+01	-1.42454845e+02	-7.90735332e+01	-1.50363378e+02	-1.28503663e-01	1.28794744e+02
113229571.429	-5.87087170e+00	-1.13519411e+02	-7.88545079e+01	-1.43510129e+02	-7.86373305e+01	-1.49747947e+02	-1.21874253e-01	1.28631335e+02
113515142.857	-5.85853096e+00	-1.13620205e+02	-7.81428488e+01	-1.50220582e+02	-7.94480360e+01	-1.49614003e+02	-1.24193080e-01	1.28499907e+02
113800714.286	-5.83272132e+00	-1.13788798e+02	-7.99393711e+01	-1.44370099e+02	-7.83383563e+01	-1.47586943e+02	-1.20385709e-01	1.28365469e+02
114086285.714	-5.84466795e+00	-1.13839916e+02	-7.96505034e+01	-1.45833280e+02	-8.13174044e+01	-1.51147868e+02	-1.19851690e-01	1.28246525e+02
114371857.143	-5.83471678e+00	-1.13911225e+02	-8.08022573e+01	-1.50580275e+02	-8.01197355e+01	-1.53902819e+02	-1.24171509e-01	1.28140026e+02
114657428.571	-5.82770105e+00	-1.14038305e+02	-8.18442909e+01	-1.56686725e+02	-7.95765306e+01	-1.49722475e+02	-1.31789638e-01	1.28047190e+02
114943000	-5.83148771e+00	-1.14170287e+02	-8.33568217e+01	-1.66817924e+02	-8.22620001e+01	-1.48063320e+02	-1.50568827e-01	1.28000027e+02
115228571.429	-5.82159638e+00	-1.14203027e+02	-8.05608971e+01	-1.57147507e+02	-7.98503093e+01	-1.60101902e+02	-1.52236189e-01	1.27909051e+02
115514142.857	-5.80118343e+00	-1.14301563e+02	-8.16411115e+01	-1.53898479e+02	-8.17829446e+01	-1.60521338e+02	-1.49190399e-01	1.27880324e+02
115799714.286	-5.79386254e+00	-1.14420948e+02	-8.42805871e+01	1.76844011e+02	-8.19053777e+01	-1.64194736e+02	-1.40065319e-01	1.27747267e+02
116085285.714	-5.77209501e+00	-1.14531655e+02	-8.13206519e+01	-1.54364509e+02	-8.21279181e+01	-1.67298999e+02	-1.42354104e-01	1.27658519e+02
116370857.143	-5.76913323e+00	-1.14636143e+02	-8.52753673e+01	-1.75078940e+02	-8.32446516e+01	-1.63138398e+02	-1.50729084e-01	1.27489194e+02
116656428.571	-5.75166008e+00	-1.14768494e+02	-8.26914479e+01	-1.59537974e+02	-8.37298682e+01	-1.59238477e+02	-1.52012163e-01	1.27371687e+02
116942000	-5.73848094e+00	-1.14912316e+02	-8.34773106e+01	-1.50350476e+02	-8.51532931e+01	-1.73666446e+02	-1.53108951e-01	1.27194078e+02
117227571.429	-5.73523325e+00	-1.14958126e+02	-8.14855338e+01	-1.50397405e+02	-8.41169327e+01	-1.64017745e+02	-1.46222503e-01	1.27060618e+02
117513142.857	-5.71632110e+00	-1.15082850e+02	-8.43177774e+01	-1.49334605e+02	-8.40841047e+01	-1.49833262e+02	-1.42999824e-01	1.26952357e+02
117798714.286	-5.71061285e+00	-1.15174838e+02	-8.55948593e+01	-1.41064268e+02	-8.49722877e+01	-1.54356290e+02	-1.47008173e-01	1.26787039e+02
118084285.714	-5.69255736e+00	-1.15304195e+02	-8.44340753e+01	-1.51418891e+02	-8.49356230e+01	-1.33429876e+02	-1.48853846e-01	1.26749421e+02
118369857.143	-5.69714390e+00	-1.15464220e+02	-8.42753306e+01	-1.46982602e+02	-8.33112335e+01	-1.54340243e+02	-1.55886884e-01	1.26672865e+02
118655428.571	-5.67656302e+00	-1.15493638e+02	-8.34102069e+01	-1.60778391e+02	-8.31630980e+01	-1.55006640e+02	-1.58884855e-01	1.26538686e+02
118941000	-5.64509084e+00	-1.15650798e+02	-8.28576050e+01	-1.32372416e+02	-8.14986055e+01	-1.46391872e+02	-1.55670603e-01	1.26456998e+02
119226571.429	-5.64687030e+00	-1.15820155e+02	-8.27422137e+01	-1.44609705e+02	-8.26528126e+01	-1.50766750e+02	-1.53170117e-01	1.26323388e+02
119512142.857	-5.64513341e+00	-1.15882453e+02	-8.19564737e+01	-1.52526072e+02	-8.16668987e+01	-1.52632112e+02	-1.54111260e-01	1.26167118e+02
119797714.286	-5.62442077e+00	-1.16030473e+02	-8.17932880e+01	-1.43680328e+02	-8.31007708e+01	-1.56336072e+02	-1.60454951e-01	1.26025725e+02
120083285.714	-5.61188973e+00	-1.16160673e+02	-8.14821475e+01	-1.46023726e+02	-8.13117559e+01	-1.45605486e+02	-1.64642134e-01	1.25872665e+02
120368857.143	-5.61241723e+00	-1.16263305e+02	-8.29534093e+01	-1.48842107e+02	-8.10100091e+01	-1.56974381e+02	-1.66204306e-01	1.25752310e+02
120654428.571	-5.61019095e+00	-1.16370352e+02	-8.02138371e+01	-1.47473570e+02	-8.07213388e+01	-1.49532918e+02	-1.53297869e-01	1.25650137e+02
120940000	-5.59916506e+00	-1.16534316e+02	-8.07999173e+01	-1.38945155e+02	-8.33451016e+01	-1.46300604e+02	-1.51391407e-01	1.25561705e+02
121225571.429	-5.59488990e+00	-1.16614242e+02	-8.00617858e+01	-1.52836209e+02	-8.13072785e+01	-1.59254952e+02	-1.50061350e-01	1.25419533e+02
121511142.857	-5.57869231e+00	-1.16723078e+02	-8.08386976e+01	-1.50890714e+02	-8.08533170e+01	-1.52954899e+02	-1.53388305e-01	1.25315574e+02
121796714.286	-5.57778072e+00	-1.16778050e+02	-8.00343034e+01	-1.61344057e+02	-8.24146933e+01	-1.58070369e+02	-1.72013054e-01	1.25230328e+02
122082285.714	-5.57324807e+00	-1.16803848e+02	-8.18444579e+01	-1.59457663e+02	-8.09025147e+01	-1.62243298e+02	-1.78431290e-01	1.25104103e+02
122367857.143	-5.56433819e+00	-1.16942244e+02	-8.07049165e+01	-1.51699363e+02	-8.16810644e+01	-1.54089335e+02	-1.81100528e-01	1.25041633e+02
122653428.571	-5.54031601e+00	-1.17132541e+02	-8.15758118e+01	-1.63025971e+02	-8.11211366e+01	-1.63569161e+02	-1.84951724e-01	1.24870531e+02
122939000	-5.52482670e+00	-1.17265761e+02	-8.22734642e+01	-1.55282578e+02	-8.20528905e+01	-1.48632693e+02	-1.85602658e-01	1.24753580e+02
123224571.429	-5.51743670e+00	-1.17292947e+02	-8.12501833e+01	-1.50337864e+02	-8.07733716e+01	-1.60889367e+02	-1.86894028e-01	1.24681698e+02
123510142.857	-5.51440586e+00	-1.17407558e+02	-8.14817033e+01	-1.51386690e+02	-8.37830537e+01	-1.55782491e+02	-2.03839428e-01	1.24567860e+02
123795714.286	-5.49740617e+00	-1.17530184e+02	-8.03109116e+01	-1.54226815e+02	-8.13009680e+01	-1.55569056e+02	-2.01923419e-01	1.24461604e+02
124081285.714	-5.47852361e+00	-1.17563916e+02	-8.19727075e+01	-1.61119191e+02	-8.13585563e+01	-1.54621849e+02	-2.05371148e-01	1.24327745e+02
124366857.143	-5.47508479e+00	-1.17706071e+02	-8.21022571e+01	-1.58105735e+02	-8.13108903e+01	-1.54538848e+02	-2.17160515e-01	1.24311143e+02
124652428.571	-5.46420459e+00	-1.17875922e+02	-8.12765137e+01	-1.50594996e+02	-8.23831757e+01	-1.52563079e+02	-2.24902753e-01	1.24249701e+02
124938000	-5.45749917e+00	-1.18048754e+02	-8.29021159e+01	-1.57083361e+02	-8.04987949e+01	-1.60850530e+02	-2.23179772e-01	1.24088819e+02
125223571.429	-5.45177126e+00	-1.18129525e+02	-8.10027034e+01	-1.60761742e+02	-8.01765590e+01	-1.62229158e+02	-2.16363162e-01	1.23988650e+02
125509142.857	-5.43289070e+00	-1.18223617e+02	-8.03119184e+01	-1.56222259e+02	-8.19869390e+01	-1.59368748e+02	-2.24615489e-01	1.23815839e+02
125794714.286	-5.42708658e+00	-1.18381142e+02	-8.17947183e+01	-1.58597538e+02	-8.01806168e+01	-1.53918454e+02	-2.21467898e-01	1.23687311e+02
126080285.714	-5.41917463e+00	-1.18447510e+02	-8.06325713e+01	-1.56814586e+02	-8.07160221e+01	-1.61458895e+02	-2.21476196e-01	1.23545717e+02
126365857.143	-5.40884916e+00	-1.18619677e+02	-8.17400209e+01	-1.59295053e+02	-7.96136140e+01	-1.55919552e+02	-2.26170993e-01	1.23472227e+02
126651428.571	-5.40583157e+00	-1.18757927e+02	-7.90513733e+01	-1.63515504e+02	-8.01637987e+01	-1.57349086e+02	-2.26366872e-01	1.23346759e+02
126937000	-5.40416800e+00	-1.18848664e+02	-8.14090270e+01	-1.45003568e+02	-7.91718960e+01	-1.65847571e+02	-2.40389402e-01	1.23191789e+02
127222571.429	-5.39193744e+00	-1.18999027e+02	-8.05540206e+01	-1.56051661e+02	-7.99582984e+01	-1.69423601e+02	-2.31292695e-01	1.23096639e+02
127508142.857	-5.37460168e+00	-1.19089898e+02	-7.79972106e+01	-1.68176167e+02	-7.94488819e+01	-1.66092006e+02	-2.32964460e-01	1.22986036e+02
127793714.286	-5.37129529e+00	-1.19107275e+02	-8.02483031e+01	-1.58917681e+02	-7.91319635e+01	-1.74962683e+02	-2.43438430e-01	1.22904653e+02
128079285.714	-5.36909408e+00	-1.19202391e+02	-7.97733672e+01	-1.67045375e+02	-7.98423591e+01	-1.75536530e+02	-2.36252235e-01	1.22688549e+02
128364857.143	-5.35768246e+00	-1.19295626e+02	-7.82705480e+01	-1.74079755e+02	-7.96873679e+01	-1.69721850e+02	-2.48809963e-01	1.22571038e+02
128650428.571	-5.34721524e+00	-1.19418705e+02	-7.94710224e+01	-1.70346459e+02	-8.01253351e+01	-1.66517038e+02	-2.34682172e-01	1.22538414e+02
128936000	-5.33549002e+00	-1.19528625e+02	-7.79873792e+01	-1.73028199e+02	-7.91054145e+01	1.78964466e+02	-2.36511978e-01	1.22366949e+02
129221571.429	-5.31284449e+00	-1.19650083e+02	-8.06653584e+01	1.77610373e+02	-8.14446559e+01	1.79981180e+02	-2.46403124e-01	1.22177999e+02
129507142.857	-5.31042886e+00	-1.19706934e+02	-8.03094181e+01	1.78786658e+02	-7.92939326e+01	1.79199408e+02	-2.42038273e-01	1.22123572e+02
129792714.286	-5.29287254e+00	-1.19864950e+02	-8.08833560e+01	1.72543643e+02	-7.94375158e+01	1.78611660e+02	-2.42540320e-01	1.22045607e+02
130078285.714	-5.28293607e+00	-1.20013450e+02	-7.90110872e+01	1.75777991e+02	-8.15813677e+01	1.66281761e+02	-2.63140077e-01	1.21907243e+02
130363857.143	-5.26475061e+00	-1.20087443e+02	-8.09975317e+01	-1.78191677e+02	-8.05553697e+01	1.76683450e+02	-2.56491220e-01	1.21705163e+02
130649428.571	-5.24082748e+00	-1.20204058e+02	-8.15512453e+01	-1.78535847e+02	-8.10336218e+01	-1.79007476e+02	-2.51133638e-01	1.21559729e+02
130935000	-5.23113989e+00	-1.20322477e+02	-8.03366038e+01	1.72702014e+02	-8.19920078e+01	-1.71504540e+02	-2.51363631e-01	1.21426667e+02
131220571.429	-5.21677789e+00	-1.20444093e+02	-8.27613395e+01	1.64917426e+02	-8.31516233e+01	1.70156015e+02	-2.45556755e-01	1.21315457e+02
131506142.857	-5.20515112e+00	-1.20544767e+02	-8.18400246e+01	1.74266954e+02	-8.16523004e+01	-1.77778199e+02	-2.49396869e-01	1.21178411e+02
131791714.286	-5.19954918e+00	-1.20666847e+02	-7.96252800e+01	-1.75048114e+02	-8.04503721e+01	1.79366062e+02	-2.50469219e-01	1.21060656e+02
132077285.714	-5.18872726e+00	-1.20853419e+02	-8.25643907e+01	1.74888423e+02	-8.14204255e+01	1.77761473e+02	-2.57122358e-01	1.20764402e+02
132362857.143	-5.17436083e+00	-1.20989211e+02	-7.96750289e+01	-1.71929848e+02	-8.25016993e+01	1.72445257e+02	-2.60314256e-01	1.20555065e+02
132648428.571	-5.15876085e+00	-1.21140106e+02	-8.39952063e+01	1.75147126e+02	-8.17636344e+01	-1.77444105e+02	-2.62361090e-01	1.20429134e+02
132934000	-5.13862771e+00	-1.21202919e+02	-8.04713961e+01	1.74966718e+02	-8.15669038e+01	-1.79523699e+02	-2.62508062e-01	1.20392883e+02
133219571.429	-5.11783878e+00	-1.21344648e+02	-8.39803032e+01	1.66826424e+02	-8.26719846e+01	1.76352157e+02	-2.55953284e-01	1.20253903e+02
133505142.857	-5.09698137e+00	-1.21417762e+02	-8.17830276e+01	1.79074304e+02	-8.20267444e+01	1.74910737e+02	-2.60466417e-01	1.20171548e+02
133790714.286	-5.08372444e+00	-1.21537443e+02	-8.25736339e+01	1.72418556e+02	-8.10259977e+01	1.75546917e+02	-2.46931365e-01	1.19973894e+02
134076285.714	-5.08281369e+00	-1.21669136e+02	-8.26042006e+01	-1.72144440e+02	-8.05955024e+01	-1.79894532e+02	-2.49777464e-01	1.19876309e+02
134361857.143	-5.06984192e+00	-1.21764076e+02	-8.42524894e+01	-1.58601876e+02	-8.21888537e+01	1.78262151e+02	-2.45678379e-01	1.19785227e+02
134647428.571	-5.05594898e+00	-1.21951328e+02	-8.18069468e+01	1.63093379e+02	-8.30781322e+01	1.79562817e+02	-2.43386373e-01	1.19608953e+02
134933000	-5.04699502e+00	-1.22065379e+02	-8.11858255e+01	-1.66884661e+02	-8.34735040e+01	-1.77519458e+02	-2.33254062e-01	1.19376880e+02
135218571.429	-5.03524587e+00	-1.22185980e+02	-8.12802204e+01	-1.74213237e+02	-8.14282892e+01	-1.77407820e+02	-2.50900146e-01	1.19239685e+02
135504142.857	-5.01452763e+00	-1.22329866e+02	-8.24470509e+01	-1.75970009e+02	-8.26767864e+01	-1.79130569e+02	-2.48904621e-01	1.19343258e+02
135789714.286	-5.00071703e+00	-1.22439037e+02	-8.19415196e+01	-1.72833413e+02	-8.38583576e+01	-1.79489340e+02	-2.67388580e-01	1.19089345e+02
136075285.714	-4.99311449e+00	-1.22554921e+02	-8.21806684e+01	-1.67852079e+02	-8.43652792e+01	-1.73004556e+02	-2.51235751e-01	1.18960456e+02
136360857.143	-4.98724092e+00	-1.22717913e+02	-8.39283650e+01	1.76356025e+02	-8.27708306e+01	-1.74052662e+02	-2.43814258e-01	1.18765281e+02
136646428.571	-4.96870129e+00	-1.22851680e+02	-7.96398854e+01	-1.68328807e+02	-8.08123769e+01	1.79620799e+02	-2.58060325e-01	1.18659990e+02
136932000	-4.95840362e+00	-1.22925719e+02	-8.08826062e+01	-1.70891068e+02	-8.04588012e+01	-1.79791762e+02	-2.58717796e-01	1.18502004e+02
137217571.429	-4.94386462e+00	-1.23050090e+02	-8.54314787e+01	-1.60199822e+02	-8.12700627e+01	-1.61970367e+02	-2.66934125e-01	1.18429127e+02
137503142.857	-4.93488054e+00	-1.23163367e+02	-8.11401400e+01	-1.72811271e+02	-8.26759217e+01	-1.68520621e+02	-2.66973453e-01	1.18326831e+02
137788714.286	-4.91670269e+00	-1.23234805e+02	-8.26132817e+01	-1.58894114e+02	-8.09230925e+01	-1.53924293e+02	-2.67094319e-01	1.18161083e+02
138074285.714	-4.90330341e+00	-1.23357554e+02	-7.95064385e+01	-1.74971330e+02	-8.28363639e+01	-1.70909055e+02	-2.69068136e-01	1.17954984e+02
138359857.143	-4.88758468e+00	-1.23471983e+02	-8.16367122e+01	-1.72163520e+02	-8.29594739e+01	-1.77478473e+02	-2.75422582e-01	1.17901393e+02
138645428.571	-4.87848589e+00	-1.23587277e+02	-7.96276559e+01	-1.66334860e+02	-8.07662425e+01	-1.74047690e+02	-2.56523288e-01	1.17741257e+02
138931000	-4.86676449e+00	-1.23710243e+02	-8.19461712e+01	-1.65414092e+02	-8.15565747e+01	-1.70381210e+02	-2.67371380e-01	1.17651195e+02
139216571.429	-4.85500686e+00	-1.23845268e+02	-8.11820443e+01	-1.49828290e+02	-8.03790107e+01	-1.79516313e+02	-2.67301562e-01	1.17543812e+02
139502142.857	-4.83605544e+00	-1.23986185e+02	-7.98804759e+01	-1.65492125e+02	-8.15117674e+01	-1.65099889e+02	-2.52346995e-01	1.17294157e+02
139787714.286	-4.82089688e+00	-1.24052136e+02	-8.00453797e+01	-1.59130889e+02	-8.00743348e+01	-1.56041118e+02	-2.55411969e-01	1.17159157e+02
140073285.714	-4.80678156e+00	-1.24108438e+02	-8.10837152e+01	-1.60137617e+02	-8.06185929e+01	-1.69575070e+02	-2.53080212e-01	1.17087248e+02
140358857.143	-4.79730853e+00	-1.24293874e+02	-8.22095352e+01	-1.72566150e+02	-8.00348572e+01	-1.75524093e+02	-2.57760088e-01	1.16868828e+02
140644428.571	-4.78936581e+00	-1.24424454e+02	-7.90558029e+01	-1.70093698e+02	-8.06974149e+01	-1.60843923e+02	-2.46702773e-01	1.16815973e+02
140930000	-4.77268366e+00	-1.24605162e+02	-7.86336094e+01	-1.68279110e+02	-7.98495392e+01	-1.71899107e+02	-2.37399482e-01	1.16687515e+02
141215571.429	-4.76610708e+00	-1.24648127e+02	-7.94466185e+01	-1.72912635e+02	-8.11145092e+01	1.79457007e+02	-2.52682796e-01	1.16502106e+02
141501142.857	-4.75285289e+00	-1.24678801e+02	-8.09695593e+01	-1.78546563e+02	-7.97231938e+01	-1.70460552e+02	-2.67898085e-01	1.16371598e+02
141786714.286	-4.74180511e+00	-1.24819754e+02	-7.87936401e+01	-1.64607276e+02	-7.84288979e+01	-1.73876893e+02	-2.62564278e-01	1.16328509e+02
142072285.714	-4.73185880e+00	-1.24901845e+02	-7.69881917e+01	1.73899485e+02	-7.82140810e+01	-1.66564369e+02	-2.61682585e-01	1.16246647e+02
142357857.143	-4.71932174e+00	-1.24980833e+02	-7.97408572e+01	1.77819698e+02	-7.91707682e+01	-1.71832072e+02	-2.69255623e-01	1.16065838e+02
142643428.571	-4.70379451e+00	-1.25063091e+02	-7.83461135e+01	1.76184498e+02	-8.06490949e+01	1.72579889e+02	-2.60631511e-01	1.15946775e+02
142929000	-4.69596361e+00	-1.25254120e+02	-7.74674432e+01	-1.72564013e+02	-8.07511879e+01	-1.68734779e+02	-2.53275897e-01	1.15659881e+02
143214571.429	-4.68664090e+00	-1.25342221e+02	-7.83505081e+01	1.66258254e+02	-7.81475962e+01	1.77432023e+02	-2.43771664e-01	1.15511614e+02
143500142.857	-4.67414105e+00	-1.25470134e+02	-8.02508490e+01	-1.77330473e+02	-7.79492641e+01	-1.78799478e+02	-2.44862018e-01	1.15435351e+02
143785714.286	-4.64835406e+00	-1.25432047e+02	-7.80387921e+01	1.71065821e+02	-7.94686953e+01	1.72173467e+02	-2.42860592e-01	1.15324976e+02
144071285.714	-4.63428802e+00	-1.25575888e+02	-7.79164946e+01	1.74380790e+02	-7.66538571e+01	1.73386392e+02	-2.47748336e-01	1.15237681e+02
144356857.143	-4.62309686e+00	-1.25660265e+02	-7.71601382e+01	1.66660942e+02	-7.84493753e+01	1.76499014e+02	-2.46016600e-01	1.15082224e+02
144642428.571	-4.61017607e+00	-1.25812138e+02	-7.79987126e+01	1.78527263e+02	-7.90157415e+01	1.76600155e+02	-2.48768939e-01	1.15002781e+02
144928000	-4.60077500e+00	-1.25854732e+02	-7.88256398e+01	1.69352100e+02	-7.81702439e+01	1.74771731e+02	-2.37000230e-01	1.14849844e+02
145213571.429	-4.59022957e+00	-1.25979010e+02	-7.76649152e+01	1.59655504e+02	-8.07724370e+01	1.79539532e+02	-2.39843129e-01	1.14764579e+02
145499142.857	-4.58075835e+00	-1.26033623e+02	-7.83576889e+01	1.72411507e+02	-7.88273378e+01	1.73450017e+02	-2.45906380e-01	1.14628792e+02
145784714.286	-4.57451615e+00	-1.26189383e+02	-7.82765858e+01	1.72361670e+02	-7.89238556e+01	1.68510442e+02	-2.39103939e-01	1.14486904e+02
146070285.714	-4.57063166e+00	-1.26289125e+02	-7.95065684e+01	-1.71791455e+02	-8.05610432e+01	1.71277390e+02	-2.40664363e-01	1.14366735e+02
146355857.143	-4.55377018e+00	-1.26393571e+02	-7.85161293e+01	1.69488959e+02	-7.91286936e+01	-1.78060967e+02	-2.31610589e-01	1.14116357e+02
146641428.571	-4.53196883e+00	-1.26502696e+02	-8.04263304e+01	1.76953155e+02	-7.94383990e+01	1.69499734e+02	-2.25902383e-01	1.14053231e+02
146927000	-4.51256273e+00	-1.26575150e+02	-7.98797790e+01	1.71544452e+02	-8.09411797e+01	-1.79558951e+02	-2.22063284e-01	1.13975102e+02
147212571.429	-4.51560945e+00	-1.26702554e+02	-7.97455674e+01	1.79432918e+02	-7.82771332e+01	1.75223039e+02	-2.12570402e-01	1.13847245e+02
147498142.857	-4.49727623e+00	-1.26661372e+02	-7.98823870e+01	-1.71366534e+02	-8.01425138e+01	1.74131544e+02	-2.06213652e-01	1.13648247e+02
147783714.286	-4.49819203e+00	-1.26758066e+02	-8.11550318e+01	1.57737078e+02	-7.88778281e+01	-1.73876180e+02	-2.14874430e-01	1.13434344e+02
148069285.714	-4.48482126e+00	-1.26855377e+02	-7.66024792e+01	-1.77724035e+02	-7.83226079e+01	1.78138360e+02	-2.03577263e-01	1.13329376e+02
148354857.143	-4.46670600e+00	-1.26970151e+02	-7.75322720e+01	1.75522688e+02	-7.86648532e+01	-1.77345814e+02	-2.05386099e-01	1.13253753e+02
148640428.571	-4.47319110e+00	-1.27106663e+02	-7.92623518e+01	-1.78524687e+02	-7.96414112e+01	1.73352361e+02	-2.00334207e-01	1.13091502e+02
148926000	-4.45337087e+00	-1.27097284e+02	-8.03074031e+01	-1.79343763e+02	-7.93966545e+01	1.74286843e+02	-1.92143769e-01	1.13035608e+02
149211571.429	-4.43601201e+00	-1.27224059e+02	-7.82904674e+01	1.79009163e+02	-7.86607781e+01	1.79774202e+02	-1.87594634e-01	1.12919764e+02
149497142.857	-4.43012983e+00	-1.27359967e+02	-7.92695453e+01	-1.73627567e+02	-7.75282862e+01	1.75544155e+02	-1.78717799e-01	1.12706265e+02
149782714.286	-4.41891204e+00	-1.27484096e+02	-7.68563320e+01	1.78907811e+02	-7.80647091e+01	-1.79965954e+02	-1.71580596e-01	1.12570266e+02
150068285.714	-4.40065543e+00	-1.27578969e+02	-7.80442463e+01	1.72686366e+02	-7.74776062e+01	1.71546599e+02	-1.73677498e-01	1.12468589e+02
150353857.143	-4.39748304e+00	-1.27631828e+02	-7.77848586e+01	1.75314661e+02	-7.75049038e+01	1.78973885e+02	-1.75491599e-01	1.12346834e+02
150639428.571	-4.39606352e+00	-1.27796873e+02	-7.78150942e+01	1.73933695e+02	-7.65735784e+01	1.72047584e+02	-1.78198932e-01	1.12224580e+02
150925000	-4.39734024e+00	-1.27803836e+02	-7.71826066e+01	1.68507790e+02	-7.63014459e+01	1.75157340e+02	-1.73814728e-01	1.12138247e+02
151210571.429	-4.39129634e+00	-1.27907731e+02	-7.75024039e+01	1.65938868e+02	-7.59175199e+01	1.64678514e+02	-1.74514584e-01	1.12034202e+02
151496142.857	-4.37450686e+00	-1.27969662e+02	-7.67909579e+01	1.66703708e+02	-7.60676810e+01	1.66732582e+02	-1.78668329e-01	1.11935262e+02
151781714.286	-4.36575009e+00	-1.28089969e+02	-7.57521861e+01	1.64593723e+02	-7.63800988e+01	1.65951439e+02	-1.79757296e-01	1.11758357e+02
152067285.714	-4.35776929e+00	-1.28070326e+02	-7.67868826e+01	1.64338754e+02	-7.65039717e+01	1.64510252e+02	-1.72955729e-01	1.11645354e+02
152352857.143	-4.33663749e+00	-1.28172190e+02	-7.56377005e+01	1.53214315e+02	-7.66278204e+01	1.51971336e+02	-1.68572267e-01	1.11521082e+02
152638428.571	-4.33733638e+00	-1.28231251e+02	-7.61270639e+01	1.58058879e+02	-7.65907412e+01	1.56940736e+02	-1.69288966e-01	1.11417480e+02
152924000	-4.32519112e+00	-1.28210570e+02	-7.57439639e+01	1.53232595e+02	-7.62237178e+01	1.54234263e+02	-1.69098100e-01	1.11290180e+02
153209571.429	-4.30502727e+00	-1.28374231e+02	-7.58300756e+01	1.49769985e+02	-7.67947184e+01	1.59853372e+02	-1.61085432e-01	1.11178099e+02
153495142.857	-4.30449821e+00	-1.28422527e+02	-7.63076564e+01	1.51079214e+02	-7.73066286e+01	1.60462489e+02	-1.60575280e-01	1.11051575e+02
153780714.286	-4.29691855e+00	-1.28562401e+02	-7.66117064e+01	1.48562470e+02	-7.63162052e+01	1.59263005e+02	-1.44314041e-01	1.10901729e+02
154066285.714	-4.30245354e+00	-1.28673164e+02	-7.52598851e+01	1.49461380e+02	-7.67831129e+01	1.49859645e+02	-1.38644108e-01	1.10708508e+02
154351857.143	-4.28429953e+00	-1.28754592e+02	-7.67182853e+01	1.55688881e+02	-7.80408293e+01	1.50426235e+02	-1.40237478e-01	1.10547732e+02
154637428.571	-4.26992524e+00	-1.28867054e+02	-7.65434180e+01	1.49227413e+02	-7.72412766e+01	1.51430254e+02	-1.52737678e-01	1.10448730e+02
154923000	-4.26229914e+00	-1.28934736e+02	-7.67613546e+01	1.46716735e+02	-7.67938078e+01	1.48197622e+02	-1.56663932e-01	1.10370799e+02
155208571.429	-4.25366101e+00	-1.28966328e+02	-7.54839776e+01	1.48219771e+02	-7.58480223e+01	1.49514107e+02	-1.55038688e-01	1.10125303e+02
155494142.857	-4.25171355e+00	-1.29084282e+02	-7.63081450e+01	1.39512181e+02	-7.76053596e+01	1.49031757e+02	-1.54741505e-01	1.09936965e+02
155779714.286	-4.24244666e+00	-1.29247825e+02	-7.74341844e+01	1.41313570e+02	-7.65616899e+01	1.44866568e+02	-1.45860191e-01	1.09851931e+02
156065285.714	-4.22251909e+00	-1.29314480e+02	-7.64478732e+01	1.49704825e+02	-7.70858674e+01	1.50584012e+02	-1.43743903e-01	1.09849860e+02
156350857.143	-4.20601914e+00	-1.29437466e+02	-7.54995334e+01	1.52244521e+02	-7.65895723e+01	1.49025832e+02	-1.36696749e-01	1.09797074e+02
156636428.571	-4.19474888e+00	-1.29384796e+02	-7.62808285e+01	1.49008578e+02	-7.64723894e+01	1.47331310e+02	-1.47483869e-01	1.09645376e+02
156922000	-4.19290520e+00	-1.29463857e+02	-7.76090713e+01	1.47583199e+02	-7.70619601e+01	1.40246223e+02	-1.43455846e-01	1.09485676e+02
157207571.429	-4.19867380e+00	-1.29549043e+02	-7.71498675e+01	1.43131853e+02	-7.74463419e+01	1.37237628e+02	-1.35813108e-01	1.09353805e+02
157493142.857	-4.18178577e+00	-1.29658662e+02	-7.71435008e+01	1.49162706e+02	-7.72446672e+01	1.36344947e+02	-1.29013773e-01	1.09220887e+02
157778714.286	-4.16461525e+00	-1.29702536e+02	-7.58298287e+01	1.51511458e+02	-7.75623875e+01	1.30490148e+02	-1.33181698e-01	1.09094004e+02
158064285.714	-4.14919375e+00	-1.29743364e+02	-7.73933939e+01	1.45646275e+02	-7.75298954e+01	1.44701637e+02	-1.38644021e-01	1.08965551e+02
158349857.143	-4.14108679e+00	-1.29824261e+02	-7.66179376e+01	1.39697908e+02	-7.65099910e+01	1.42137804e+02	-1.37911612e-01	1.08851457e+02
158635428.571	-4.15254706e+00	-1.29941288e+02	-7.70825834e+01	1.43681860e+02	-7.72876677e+01	1.42315598e+02	-1.34310399e-01	1.08745632e+02
158921000	-4.13298470e+00	-1.30033799e+02	-7.68409363e+01	1.44907906e+02	-7.74957013e+01	1.39249024e+02	-1.36165783e-01	1.08661159e+02
159206571.429	-4.12971529e+00	-1.30080613e+02	-7.69848663e+01	1.45622026e+02	-7.73361673e+01	1.35497675e+02	-1.37060536e-01	1.08567913e+02
159492142.857	-4.11872832e+00	-1.30033189e+02	-7.75263459e+01	1.33933003e+02	-7.68850156e+01	1.42293434e+02	-1.41571256e-01	1.08456974e+02
159777714.286	-4.12673346e+00	-1.30125169e+02	-7.70782203e+01	1.38087095e+02	-7.78239894e+01	1.44749363e+02	-1.41847650e-01	1.08425269e+02
160063285.714	-4.11423884e+00	-1.30308984e+02	-7.67847119e+01	1.39127346e+02	-7.74107238e+01	1.31806731e+02	-1.44422791e-01	1.08377552e+02
160348857.143	-4.09788511e+00	-1.30307915e+02	-7.76346590e+01	1.32779031e+02	-7.83954170e+01	1.32232236e+02	-1.49994393e-01	1.08206018e+02
160634428.571	-4.07991090e+00	-1.30449012e+02	-7.72517712e+01	1.34539087e+02	-7.72587879e+01	1.35304426e+02	-1.50398716e-01	1.08032326e+02
160920000	-4.08851262e+00	-1.30487932e+02	-7.61839506e+01	1.26615562e+02	-7.65349965e+01	1.32440377e+02	-1.54331839e-01	1.07852064e+02
161205571.429	-4.07741096e+00	-1.30515398e+02	-7.80081632e+01	1.30633097e+02	-7.74846054e+01	1.30541620e+02	-1.47221348e-01	1.07715203e+02
161491142.857	-4.05997580e+00	-1.30621074e+02	-7.60660240e+01	1.33599774e+02	-7.76987693e+01	1.33218001e+02	-1.39192329e-01	1.07601304e+02
161776714.286	-4.06360379e+00	-1.30573284e+02	-7.66397887e+01	1.31207861e+02	-7.60775298e+01	1.30863330e+02	-1.35864078e-01	1.07493565e+02
162062285.714	-4.05961726e+00	-1.30751533e+02	-7.67744320e+01	1.30296060e+02	-7.59606626e+01	1.27144717e+02	-1.33941655e-01	1.07443647e+02
162347857.143	-4.05326813e+00	-1.30834737e+02	-7.65261584e+01	1.25216826e+02	-7.80947452e+01	1.28322386e+02	-1.35456552e-01	1.07334733e+02
162633428.571	-4.04193252e+00	-1.30965151e+02	-7.70452452e+01	1.23396007e+02	-7.77818455e+01	1.29314592e+02	-1.37593376e-01	1.07169355e+02
162919000	-4.04278303e+00	-1.31070526e+02	-7.71503586e+01	1.22010303e+02	-7.85428743e+01	1.25914772e+02	-1.25919450e-01	1.07073209e+02
163204571.429	-4.03568208e+00	-1.31021477e+02	-7.73891552e+01	1.26919163e+02	-7.71129609e+01	1.23130228e+02	-1.17655288e-01	1.06912664e+02
163490142.857	-4.02500752e+00	-1.31125014e+02	-7.82852404e+01	1.22198296e+02	-7.77926255e+01	1.19822391e+02	-1.10288974e-01	1.06792793e+02
163775714.286	-4.01882276e+00	-1.31111453e+02	-7.80867825e+01	1.23708862e+02	-7.78214802e+01	1.26648639e+02	-1.11574900e-01	1.06683858e+02
164061285.714	-4.01094648e+00	-1.31188886e+02	-7.81923703e+01	1.14145022e+02	-7.72471615e+01	1.18423175e+02	-1.06673583e-01	1.06582533e+02
164346857.143	-4.00564770e+00	-1.31238738e+02	-7.73756392e+01	1.14501581e+02	-7.74834748e+01	1.21843744e+02	-1.04043312e-01	1.06471018e+02
164632428.571	-3.99983982e+00	-1.31329642e+02	-7.93315909e+01	1.15309030e+02	-7.84271367e+01	1.11441975e+02	-1.05064347e-01	1.06381525e+02
164918000	-3.99703196e+00	-1.31355242e+02	-7.77616951e+01	1.12509388e+02	-7.79714611e+01	1.20260567e+02	-1.04372086e-01	1.06224009e+02
165203571.429	-3.99110491e+00	-1.31362897e+02	-7.76430182e+01	1.12275793e+02	-7.77335868e+01	1.11812590e+02	-1.04030531e-01	1.06031715e+02
165489142.857	-3.99635658e+00	-1.31456969e+02	-7.88052170e+01	1.16665173e+02	-7.86205989e+01	1.09762820e+02	-1.08627631e-01	1.05968315e+02
165774714.286	-3.97542626e+00	-1.31492602e+02	-7.94809517e+01	1.06623629e+02	-7.80686919e+01	1.12552235e+02	-1.16004857e-01	1.05915150e+02
166060285.714	-3.97908245e+00	-1.31513273e+02	-7.80073749e+01	1.18550172e+02	-7.93819398e+01	1.06134166e+02	-1.19073064e-01	1.05789671e+02
166345857.143	-3.97248568e+00	-1.31572977e+02	-8.05843730e+01	9.82370340e+01	-7.96805371e+01	1.11270942e+02	-1.16602951e-01	1.05627517e+02
166631428.571	-3.96137024e+00	-1.31640424e+02	-7.92099901e+01	1.06072265e+02	-7.89416217e+01	1.06736756e+02	-1.13931361e-01	1.05479338e+02
166917000	-3.96072562e+00	-1.31825784e+02	-7.86484778e+01	1.09455127e+02	-7.85169435e+01	1.11373218e+02	-1.13843485e-01	1.05326661e+02
167202571.429	-3.94255805e+00	-1.31784185e+02	-8.03226872e+01	1.00255358e+02	-7.84625009e+01	1.02222204e+02	-1.10939588e-01	1.05226350e+02
167488142.857	-3.94446784e+00	-1.31850448e+02	-7.96444713e+01	1.03416122e+02	-7.94621990e+01	1.08651440e+02	-1.12723230e-01	1.05096700e+02
167773714.286	-3.91773916e+00	-1.31834439e+02	-8.12813332e+01	1.06121680e+02	-7.98497820e+01	1.09929253e+02	-1.08133829e-01	1.04973688e+02
168059285.714	-3.91910851e+00	-1.31997835e+02	-8.13351522e+01	1.06050871e+02	-8.03808859e+01	8.95573228e+01	-1.14948722e-01	1.04893969e+02
168344857.143	-3.91041985e+00	-1.32075089e+02	-8.18067903e+01	9.21797031e+01	-8.17625706e+01	9.88738722e+01	-1.14803468e-01	1.04732236e+02
168630428.571	-3.90503559e+00	-1.32220233e+02	-8.13884153e+01	1.02622241e+02	-8.44339804e+01	9.11417363e+01	-1.14105497e-01	1.04635374e+02
168916000	-3.90355244e+00	-1.32281877e+02	-8.10678231e+01	9.37992442e+01	-8.30572047e+01	9.62648912e+01	-1.21212791e-01	1.04510263e+02
169201571.429	-3.90595431e+00	-1.32302083e+02	-8.52082110e+01	9.72257022e+01	-8.47032891e+01	1.16951527e+02	-1.23723345e-01	1.04400857e+02
169487142.857	-3.89614571e+00	-1.32361909e+02	-8.55681417e+01	1.11878673e+02	-8.22292043e+01	1.00976715e+02	-1.26626246e-01	1.04230669e+02
169772714.286	-3.87351674e+00	-1.32420497e+02	-8.37190439e+01	1.03607594e+02	-8.52715952e+01	1.00296661e+02	-1.27343912e-01	1.04086462e+02
170058285.714	-3.87783784e+00	-1.32440077e+02	-8.78774904e+01	1.17476748e+02	-8.56290031e+01	1.01475751e+02	-1.19228203e-01	1.03997960e+02
170343857.143	-3.86836444e+00	-1.32460769e+02	-8.72781757e+01	1.10629961e+02	-8.93393816e+01	1.03054994e+02	-1.09158656e-01	1.03857077e+02
170629428.571	-3.86960737e+00	-1.32521631e+02	-8.55081977e+01	1.16626976e+02	-8.86088081e+01	1.05747509e+02	-1.17509646e-01	1.03829471e+02
170915000	-3.85386944e+00	-1.32607589e+02	-8.33580931e+01	1.37192997e+02	-8.56211953e+01	1.15271973e+02	-1.20086925e-01	1.03770522e+02
171200571.429	-3.85434643e+00	-1.32669315e+02	-8.48709419e+01	1.17640219e+02	-8.90837851e+01	1.09365458e+02	-1.27641193e-01	1.03711735e+02
171486142.857	-3.84846702e+00	-1.32757594e+02	-8.43776654e+01	1.26816494e+02	-8.59257804e+01	1.28569958e+02	-1.36030227e-01	1.03535072e+02
171771714.286	-3.84240862e+00	-1.32846023e+02	-8.63591157e+01	1.38793439e+02	-8.44360745e+01	1.20232402e+02	-1.36338611e-01	1.03397335e+02
172057285.714	-3.83805139e+00	-1.32852776e+02	-8.81091244e+01	1.41113464e+02	-8.94453960e+01	1.43514162e+02	-1.38800319e-01	1.03327686e+02
172342857.143	-3.81955017e+00	-1.32931090e+02	-8.59169668e+01	1.46070647e+02	-8.64807837e+01	1.61833279e+02	-1.37918996e-01	1.03221810e+02
172628428.571	-3.82458513e+00	-1.33012568e+02	-8.61367927e+01	1.31567276e+02	-8.74418756e+01	1.36762080e+02	-1.45687431e-01	1.03064917e+02
172914000	-3.81848296e+00	-1.33033558e+02	-8.82201284e+01	1.33793549e+02	-8.96091899e+01	1.55807589e+02	-1.51600631e-01	1.02955430e+02
173199571.429	-3.82101555e+00	-1.33047613e+02	-8.21941324e+01	1.21361683e+02	-8.65895820e+01	1.57094782e+02	-1.45068733e-01	1.02774044e+02
173485142.857	-3.80054676e+00	-1.33143727e+02	-8.33982606e+01	1.34869797e+02	-8.83757943e+01	1.64247434e+02	-1.40230194e-01	1.02661802e+02
173770714.286	-3.80670727e+00	-1.33191019e+02	-8.29642247e+01	1.61361551e+02	-8.59471172e+01	1.45089890e+02	-1.50960148e-01	1.02610876e+02
174056285.714	-3.81214924e+00	-1.33279054e+02	-8.54857040e+01	1.53045125e+02	-8.50042713e+01	1.61732094e+02	-1.55887734e-01	1.02514091e+02
174341857.143	-3.81231010e+00	-1.33370256e+02	-8.17906363e+01	1.68551420e+02	-8.31954905e+01	1.62931302e+02	-1.58847402e-01	1.02408060e+02
174627428.571	-3.78737867e+00	-1.33452149e+02	-8.19090696e+01	1.54133503e+02	-8.22427283e+01	1.60246901e+02	-1.55200548e-01	1.02279811e+02
174913000	-3.77927079e+00	-1.33497074e+02	-8.26832929e+01	1.44121313e+02	-8.20980756e+01	1.69156387e+02	-1.51546369e-01	1.02122776e+02
175198571.429	-3.77363154e+00	-1.33550063e+02	-8.03645055e+01	1.55448682e+02	-8.11589911e+01	1.58760370e+02	-1.60107932e-01	1.02057606e+02
175484142.857	-3.76764339e+00	-1.33561306e+02	-8.10736512e+01	1.57061652e+02	-8.01014521e+01	1.63964459e+02	-1.55499597e-01	1.01958962e+02
175769714.286	-3.76284178e+00	-1.33693589e+02	-8.09850792e+01	1.54861336e+02	-8.02621632e+01	1.56270834e+02	-1.61107926e-01	1.01814240e+02
176055285.714	-3.76175318e+00	-1.33681359e+02	-8.05532300e+01	1.71333644e+02	-8.12141077e+01	1.65022222e+02	-1.65322274e-01	1.01663315e+02
176340857.143	-3.76133366e+00	-1.33776047e+02	-8.01887453e+01	1.67424369e+02	-8.16266915e+01	1.52716088e+02	-1.63626360e-01	1.01553165e+02
176626428.571	-3.76423780e+00	-1.33881751e+02	-8.16216117e+01	1.60803873e+02	-8.00365146e+01	1.66128264e+02	-1.67667044e-01	1.01376790e+02
176912000	-3.75215591e+00	-1.33944635e+02	-7.90469384e+01	1.55934780e+02	-7.94355320e+01	1.62610564e+02	-1.67667213e-01	1.01274965e+02
177197571.429	-3.73827437e+00	-1.33991870e+02	-7.99136861e+01	1.56043160e+02	-7.91480854e+01	1.59317983e+02	-1.65119038e-01	1.01165052e+02
177483142.857	-3.73231740e+00	-1.34043982e+02	-7.76331973e+01	1.46063731e+02	-7.95195662e+01	1.48057198e+02	-1.66842906e-01	1.00989687e+02
177768714.286	-3.72726806e+00	-1.34085613e+02	-7.74682132e+01	1.58260155e+02	-7.83413319e+01	1.58517003e+02	-1.66843963e-01	1.00853570e+02
178054285.714	-3.71747069e+00	-1.34152202e+02	-7.94007654e+01	1.57614307e+02	-7.76442531e+01	1.59697003e+02	-1.66066472e-01	1.00705518e+02
178339857.143	-3.71784838e+00	-1.34256293e+02	-7.75714789e+01	1.62748933e+02	-7.72326312e+01	1.50614386e+02	-1.70668160e-01	1.00635462e+02
178625428.571	-3.72152096e+00	-1.34289926e+02	-8.02027515e+01	1.57867320e+02	-7.76470100e+01	1.56892017e+02	-1.82042561e-01	1.00583382e+02
178911000	-3.71484514e+00	-1.34375542e+02	-7.85044036e+01	1.46954992e+02	-7.73644576e+01	1.46944962e+02	-1.80813762e-01	1.00500734e+02
179196571.429	-3.70513570e+00	-1.34447737e+02	-7.66097203e+01	1.41685421e+02	-7.77292002e+01	1.47770258e+02	-1.89152571e-01	1.00261891e+02
179482142.857	-3.70453507e+00	-1.34526382e+02	-7.84705028e+01	1.54257304e+02	-7.88054073e+01	1.47455320e+02	-2.02109910e-01	1.00237057e+02
179767714.286	-3.69614550e+00	-1.34556153e+02	-7.79509868e+01	1.39433892e+02	-7.70873512e+01	1.45461088e+02	-2.02457936e-01	1.00208338e+02
180053285.714	-3.69243136e+00	-1.34650564e+02	-7.67703227e+01	1.44273636e+02	-7.85343116e+01	1.41876572e+02	-2.04642289e-01	1.00092955e+02
180338857.143	-3.68102913e+00	-1.34696372e+02	-7.77444943e+01	1.40037253e+02	-7.70458080e+01	1.45052798e+02	-2.11217109e-01	1.00051449e+02
180624428.571	-3.66886929e+00	-1.34755339e+02	-7.72975100e+01	1.40721937e+02	-7.74119273e+01	1.47493794e+02	-2.07718788e-01	9.98527210e+01
180910000	-3.66984656e+00	-1.34807287e+02	-7.91880671e+01	1.37943003e+02	-7.72236306e+01	1.36985815e+02	-2.13444794e-01	9.97506496e+01
181195571.429	-3.66956672e+00	-1.34898221e+02	-7.70135185e+01	1.35638590e+02	-7.70254987e+01	1.43024498e+02	-2.16938355e-01	9.96103347e+01
181481142.857	-3.67169470e+00	-1.34987838e+02	-7.63984250e+01	1.34935046e+02	-7.74291821e+01	1.36500175e+02	-2.34658451e-01	9.95199741e+01
181766714.286	-3.65938710e+00	-1.35061598e+02	-7.85172206e+01	1.36349808e+02	-7.63351374e+01	1.42940552e+02	-2.21187598e-01	9.92532817e+01
182052285.714	-3.65555593e+00	-1.35162295e+02	-7.72806028e+01	1.34321895e+02	-7.65427430e+01	1.37960263e+02	-2.27590097e-01	9.91760194e+01
182337857.143	-3.64445021e+00	-1.35230946e+02	-7.83424606e+01	1.39916087e+02	-7.69945483e+01	1.39294692e+02	-2.40789486e-01	9.90750404e+01
182623428.571	-3.63921776e+00	-1.35244961e+02	-7.70514397e+01	1.36842756e+02	-7.66410085e+01	1.35022170e+02	-2.39767942e-01	9.89948231e+01
182909000	-3.62226112e+00	-1.35315863e+02	-7.78360772e+01	1.32619248e+02	-7.74856236e+01	1.31593124e+02	-2.36712804e-01	9.88957792e+01
183194571.429	-3.61984358e+00	-1.35384799e+02	-7.92750744e+01	1.35026946e+02	-7.78091986e+01	1.29413127e+02	-2.33723963e-01	9.87034627e+01
183480142.857	-3.61410316e+00	-1.35379388e+02	-7.64568299e+01	1.31695793e+02	-7.66129518e+01	1.26549558e+02	-2.39846829e-01	9.85897303e+01
183765714.286	-3.61182699e+00	-1.35426887e+02	-7.69394852e+01	1.28220548e+02	-7.69212559e+01	1.31713378e+02	-2.41352956e-01	9.84917002e+01
184051285.714	-3.60497555e+00	-1.35479759e+02	-7.58951087e+01	1.29965884e+02	-7.70321884e+01	1.28998693e+02	-2.40573544e-01	9.83958207e+01
184336857.143	-3.59881134e+00	-1.35570195e+02	-7.71138992e+01	1.27777114e+02	-7.64267307e+01	1.32255689e+02	-2.35213258e-01	9.83026606e+01
184622428.571	-3.59795569e+00	-1.35635424e+02	-7.71651586e+01	1.24394855e+02	-7.67881532e+01	1.26583002e+02	-2.29790457e-01	9.82139471e+01
184908000	-3.59793887e+00	-1.35740605e+02	-7.70173032e+01	1.22961080e+02	-7.64026952e+01	1.26069737e+02	-2.43010730e-01	9.80056218e+01
185193571.429	-3.59655894e+00	-1.35737194e+02	-7.65288351e+01	1.28187937e+02	-7.67674473e+01	1.25463299e+02	-2.41190353e-01	9.78052374e+01
185479142.857	-3.59144387e+00	-1.35840848e+02	-7.71154233e+01	1.22159469e+02	-7.75484597e+01	1.23352038e+02	-2.41085200e-01	9.76536533e+01
185764714.286	-3.58978018e+00	-1.35884925e+02	-7.62324420e+01	1.23652678e+02	-7.70342102e+01	1.20417444e+02	-2.49890846e-01	9.75909807e+01
186050285.714	-3.57910156e+00	-1.36005639e+02	-7.66440201e+01	1.16145949e+02	-7.66600126e+01	1.21782603e+02	-2.42475673e-01	9.74815561e+01
186335857.143	-3.57926742e+00	-1.36104391e+02	-7.64499138e+01	1.20043776e+02	-7.62865557e+01	1.22805013e+02	-2.43949686e-01	9.74665667e+01
186621428.571	-3.57162318e+00	-1.36245010e+02	-7.71573671e+01	1.13423261e+02	-7.67494458e+01	1.23314720e+02	-2.39035786e-01	9.72445975e+01
186907000	-3.56643976e+00	-1.36300228e+02	-7.74544747e+01	1.06627148e+02	-7.61717241e+01	1.16821090e+02	-2.47430900e-01	9.71054098e+01
187192571.429	-3.56291327e+00	-1.36366869e+02	-7.75433840e+01	1.17855964e+02	-7.61162345e+01	1.15098964e+02	-2.67296350e-01	9.69367056e+01
187478142.857	-3.55274573e+00	-1.36482723e+02	-7.73588608e+01	1.16208147e+02	-7.64485958e+01	1.15158913e+02	-2.57433087e-01	9.68888615e+01
187763714.286	-3.54813618e+00	-1.36524498e+02	-7.72155359e+01	1.14217731e+02	-7.75959546e+01	1.18413593e+02	-2.55918351e-01	9.66967628e+01
188049285.714	-3.54458190e+00	-1.36566589e+02	-7.75789876e+01	1.10680995e+02	-7.79330334e+01	1.12998870e+02	-2.72912281e-01	9.65354920e+01
188334857.143	-3.53419898e+00	-1.36575694e+02	-7.83201783e+01	1.13896733e+02	-7.71385139e+01	1.16487034e+02	-2.64069514e-01	9.64477263e+01
188620428.571	-3.53274248e+00	-1.36697254e+02	-7.76293174e+01	1.16752903e+02	-7.71191265e+01	1.13484282e+02	-2.75736348e-01	9.63447319e+01
188906000	-3.52947138e+00	-1.36786815e+02	-7.65862931e+01	1.11901774e+02	-7.72912830e+01	1.08161596e+02	-2.66530831e-01	9.61625014e+01
189191571.429	-3.52648903e+00	-1.36902578e+02	-7.84840124e+01	1.13175354e+02	-7.82815247e+01	1.19268570e+02	-2.75566303e-01	9.60954311e+01
189477142.857	-3.51982720e+00	-1.37018459e+02	-7.90327396e+01	1.16670291e+02	-7.79338176e+01	1.13388576e+02	-2.97001040e-01	9.58366053e+01
189762714.286	-3.51137954e+00	-1.37089202e+02	-7.83142307e+01	1.17300781e+02	-7.80760454e+01	1.13577102e+02	-2.99415641e-01	9.57769928e+01
190048285.714	-3.50602152e+00	-1.37158415e+02	-7.74494781e+01	1.15583362e+02	-7.79846791e+01	1.05496302e+02	-2.85480867e-01	9.56510131e+01
190333857.143	-3.50070902e+00	-1.37199268e+02	-7.87281799e+01	1.11633066e+02	-7.70667360e+01	1.10632721e+02	-2.66241923e-01	9.55069530e+01
190619428.571	-3.49625609e+00	-1.37289921e+02	-7.82113530e+01	1.16650007e+02	-7.96158878e+01	1.08556949e+02	-2.87711187e-01	9.51695355e+01
190905000	-3.49160286e+00	-1.37333236e+02	-7.86610400e+01	1.15503167e+02	-7.71359588e+01	1.11069797e+02	-2.70911890e-01	9.51650528e+01
191190571.429	-3.48859911e+00	-1.37454255e+02	-7.82144512e+01	1.11387162e+02	-7.76420870e+01	1.08750729e+02	-2.77896185e-01	9.50245089e+01
191476142.857	-3.48198651e+00	-1.37535855e+02	-7.83326159e+01	1.23888054e+02	-7.71880483e+01	1.03411705e+02	-2.80623654e-01	9.49074213e+01
191761714.286	-3.47501865e+00	-1.37620298e+02	-7.77966753e+01	1.09433561e+02	-7.80256971e+01	1.13583919e+02	-2.90989382e-01	9.47977881e+01
192047285.714	-3.46511035e+00	-1.37716405e+02	-7.85084271e+01	1.06965163e+02	-7.85878141e+01	1.10101739e+02	-2.81017582e-01	9.46109704e+01
192332857.143	-3.45751701e+00	-1.37744984e+02	-7.81118845e+01	1.08690239e+02	-7.79502088e+01	1.08690996e+02	-2.81295940e-01	9.44182647e+01
192618428.571	-3.45286091e+00	-1.37817611e+02	-8.01004418e+01	1.16828845e+02	-7.80930628e+01	1.19793204e+02	-2.70676431e-01	9.43457628e+01
192904000	-3.44771136e+00	-1.37864703e+02	-7.79204365e+01	1.06948310e+02	-7.80289546e+01	1.01553866e+02	-2.77738989e-01	9.42637798e+01
193189571.429	-3.44023431e+00	-1.37955899e+02	-7.91439575e+01	1.10608976e+02	-7.98002848e+01	1.08736383e+02	-2.83085425e-01	9.40665505e+01
193475142.857	-3.43450662e+00	-1.38025484e+02	-7.72135594e+01	1.10656472e+02	-7.79274502e+01	1.05911973e+02	-2.86229621e-01	9.38047410e+01
193760714.286	-3.42946147e+00	-1.38119922e+02	-7.84349518e+01	1.15869686e+02	-7.88539044e+01	1.14229900e+02	-2.82704126e-01	9.36926794e+01
194046285.714	-3.42505377e+00	-1.38210320e+02	-7.84089391e+01	1.09345832e+02	-7.79203447e+01	1.06336469e+02	-2.77612883e-01	9.35817414e+01
194331857.143	-3.41326821e+00	-1.38282288e+02	-7.80853972e+01	1.05443790e+02	-7.84790838e+01	1.11958817e+02	-2.71234148e-01	9.34630610e+01
194617428.571	-3.40294892e+00	-1.38339588e+02	-7.80787136e+01	1.19626957e+02	-7.86430886e+01	1.05961542e+02	-2.73246643e-01	9.33822888e+01
194903000	-3.39385841e+00	-1.38407378e+02	-7.92149893e+01	1.14905015e+02	-7.82022852e+01	1.14536538e+02	-2.73650263e-01	9.32548256e+01
195188571.429	-3.39217249e+00	-1.38524792e+02	-7.78223549e+01	1.08358082e+02	-7.77837914e+01	1.13403780e+02	-2.79654783e-01	9.30677881e+01
195474142.857	-3.38246664e+00	-1.38644702e+02	-7.78406618e+01	1.07398033e+02	-7.88183019e+01	1.07478481e+02	-2.79101580e-01	9.29119261e+01
195759714.286	-3.37643905e+00	-1.38701558e+02	-7.86749752e+01	1.08929996e+02	-7.96224360e+01	1.14064435e+02	-2.88145581e-01	9.28810599e+01
196045285.714	-3.37125178e+00	-1.38763091e+02	-7.79875279e+01	1.01317387e+02	-7.78595036e+01	1.03652897e+02	-2.81749063e-01	9.27095638e+01
196330857.143	-3.36558149e+00	-1.38866347e+02	-7.82484814e+01	1.09005603e+02	-7.84147712e+01	1.06526681e+02	-2.74040271e-01	9.25123912e+01
196616428.571	-3.35801988e+00	-1.38946878e+02	-7.70778496e+01	1.05710988e+02	-7.81439583e+01	1.08999619e+02	-2.76734305e-01	9.23617831e+01
196902000	-3.35473506e+00	-1.39030266e+02	-7.92957220e+01	1.01602264e+02	-7.94143466e+01	9.87428129e+01	-2.84235940e-01	9.22714671e+01
197187571.429	-3.35225242e+00	-1.39125845e+02	-7.96843517e+01	1.10354751e+02	-7.76918804e+01	9.61358561e+01	-2.81386135e-01	9.21815881e+01
197473142.857	-3.34109461e+00	-1.39202055e+02	-7.95280695e+01	1.07856676e+02	-7.99544491e+01	1.07747065e+02	-2.75550457e-01	9.20528765e+01
197758714.286	-3.34210565e+00	-1.39221597e+02	-7.85416061e+01	1.09708457e+02	-7.86290269e+01	1.01289840e+02	-2.77773963e-01	9.19385703e+01
198044285.714	-3.33874937e+00	-1.39313186e+02	-7.75615625e+01	1.04379488e+02	-7.77506601e+01	1.06593585e+02	-2.72543870e-01	9.17309809e+01
198329857.143	-3.32273358e+00	-1.39384950e+02	-8.07352925e+01	1.08346119e+02	-7.80814627e+01	1.09856292e+02	-2.53815439e-01	9.16212575e+01
198615428.571	-3.31414218e+00	-1.39476789e+02	-7.85746575e+01	1.08368598e+02	-7.90440031e+01	1.05512469e+02	-2.59391295e-01	9.15649952e+01
198901000	-3.31312364e+00	-1.39551516e+02	-7.94094506e+01	1.09590377e+02	-7.95593124e+01	1.02738168e+02	-2.55404296e-01	9.13654256e+01
199186571.429	-3.30405077e+00	-1.39557070e+02	-7.81755388e+01	1.13477700e+02	-7.88583328e+01	1.05682247e+02	-2.60964906e-01	9.12053214e+01
199472142.857	-3.29686724e+00	-1.39685146e+02	-8.09507190e+01	1.09141737e+02	-7.94568180e+01	1.07109656e+02	-2.47422485e-01	9.10601795e+01
199757714.286	-3.28369943e+00	-1.39772755e+02	-7.97740500e+01	1.12107181e+02	-7.91093107e+01	1.01068968e+02	-2.64209719e-01	9.09146479e+01
200043285.714	-3.27309387e+00	-1.39850332e+02	-7.98039762e+01	9.83464080e+01	-7.89703511e+01	1.10446798e+02	-2.66887607e-01	9.07820912e+01
200328857.143	-3.27706396e+00	-1.39863652e+02	-8.01193728e+01	1.04996847e+02	-7.88187718e+01	1.08948886e+02	-2.73317281e-01	9.06190094e+01
200614428.571	-3.27285831e+00	-1.39928019e+02	-8.02269373e+01	1.04830374e+02	-8.00472099e+01	1.06011273e+02	-2.86280791e-01	9.05569164e+01
200900000	-3.26819096e+00	-1.39987055e+02	-7.96686544e+01	9.65728803e+01	-8.03430270e+01	1.04390944e+02	-2.81098789e-01	9.04163743e+01
201185571.429	-3.25644903e+00	-1.40027486e+02	-8.02156662e+01	1.11399672e+02	-7.94754358e+01	1.12711119e+02	-2.79109697e-01	9.02228578e+01
201471142.857	-3.26012337e+00	-1.40172041e+02	-8.00742140e+01	1.19037495e+02	-7.85820180e+01	1.12248961e+02	-2.71476414e-01	9.00619972e+01
201756714.286	-3.25736709e+00	-1.40254331e+02	-8.26947947e+01	1.12028048e+02	-7.93468388e+01	1.13348793e+02	-2.57508546e-01	9.00752913e+01
202042285.714	-3.25446053e+00	-1.40360705e+02	-7.88908953e+01	1.14510780e+02	-7.98567789e+01	1.05393407e+02	-2.58959842e-01	8.99058352e+01
202327857.143	-3.24631048e+00	-1.40328735e+02	-7.93655191e+01	1.15725491e+02	-7.86170169e+01	1.15801462e+02	-2.59580315e-01	8.97105342e+01
202613428.571	-3.24366969e+00	-1.40440561e+02	-7.85003911e+01	1.21335136e+02	-8.04970015e+01	1.13658078e+02	-2.60294389e-01	8.96286863e+01
202899000	-3.23577729e+00	-1.40538993e+02	-7.91572147e+01	1.13962843e+02	-8.00284998e+01	1.13079394e+02	-2.48483096e-01	8.95123954e+01
203184571.429	-3.23228387e+00	-1.40589743e+02	-7.94686183e+01	1.10409627e+02	-7.94235034e+01	1.17089336e+02	-2.38161704e-01	8.94443461e+01
203470142.857	-3.22596936e+00	-1.40697312e+02	-7.99155834e+01	1.11692469e+02	-7.83601749e+01	1.17140076e+02	-2.42373295e-01	8.93078529e+01
203755714.286	-3.21581397e+00	-1.40800547e+02	-7.99732735e+01	1.20479603e+02	-7.85549843e+01	1.14845522e+02	-2.40643363e-01	8.92283876e+01
204041285.714	-3.20962002e+00	-1.40739046e+02	-8.13861005e+01	1.17791665e+02	-8.03084245e+01	1.09942626e+02	-2.46531319e-01	8.90022070e+01
204326857.143	-3.20062235e+00	-1.40728135e+02	-7.88812319e+01	1.29464437e+02	-7.96503423e+01	1.13652735e+02	-2.48627434e-01	8.88477459e+01
204612428.571	-3.19524352e+00	-1.40831154e+02	-7.89143569e+01	1.15557678e+02	-7.93729491e+01	1.08414497e+02	-2.48127421e-01	8.86973278e+01
204898000	-3.19494472e+00	-1.40879610e+02	-7.90984807e+01	1.05244135e+02	-7.91873089e+01	1.16955022e+02	-2.40784712e-01	8.85702810e+01
205183571.429	-3.20391099e+00	-1.40976294e+02	-7.74719293e+01	1.19324796e+02	-7.94467325e+01	1.18482926e+02	-2.41616684e-01	8.84364390e+01
205469142.857	-3.20789554e+00	-1.41027249e+02	-7.99469046e+01	1.19461097e+02	-7.96285057e+01	1.15064271e+02	-2.31412772e-01	8.82654453e+01
205754714.286	-3.19778730e+00	-1.41072713e+02	-7.89554387e+01	1.19714653e+02	-8.05320730e+01	1.20030551e+02	-2.28579036e-01	8.81160861e+01
206040285.714	-3.19375172e+00	-1.41168585e+02	-7.85523105e+01	1.19609905e+02	-7.76730508e+01	1.21443509e+02	-2.07665089e-01	8.79653861e+01
206325857.143	-3.18218935e+00	-1.41112321e+02	-7.79358595e+01	1.25941937e+02	-7.82715471e+01	1.17753285e+02	-1.97348898e-01	8.78436171e+01
206611428.571	-3.17469692e+00	-1.41204204e+02	-7.78284687e+01	1.19389287e+02	-7.79238190e+01	1.20962652e+02	-1.96282157e-01	8.77412480e+01
206897000	-3.17026851e+00	-1.41331122e+02	-7.84509731e+01	1.19135269e+02	-7.86492161e+01	1.18554835e+02	-2.01190763e-01	8.76061734e+01
207182571.429	-3.16195292e+00	-1.41369734e+02	-7.85590570e+01	1.25355649e+02	-7.84538813e+01	1.18319992e+02	-1.88122234e-01	8.75017579e+01
207468142.857	-3.16641480e+00	-1.41471194e+02	-7.83562499e+01	1.27299850e+02	-7.77749306e+01	1.15953565e+02	-1.80962435e-01	8.74024412e+01
207753714.286	-3.15604204e+00	-1.41576359e+02	-7.86406753e+01	1.15349769e+02	-7.82611759e+01	1.15435112e+02	-1.70107692e-01	8.72960828e+01
208039285.714	-3.14750261e+00	-1.41597182e+02	-7.86109052e+01	1.24779081e+02	-7.70879270e+01	1.21490340e+02	-1.80991791e-01	8.71332015e+01
208324857.143	-3.12703039e+00	-1.41785784e+02	-7.70760500e+01	1.22000254e+02	-7.67030351e+01	1.16532631e+02	-1.84022373e-01	8.69632233e+01
208610428.571	-3.12096710e+00	-1.41838212e+02	-7.72800742e+01	1.20014737e+02	-7.77824024e+01	1.23087533e+02	-1.86205955e-01	8.68274082e+01
208896000	-3.11967851e+00	-1.41851554e+02	-7.79152649e+01	1.23192893e+02	-7.70851086e+01	1.26773275e+02	-1.87010860e-01	8.66723309e+01
209181571.429	-3.10642386e+00	-1.41909419e+02	-7.79006525e+01	1.23708421e+02	-7.68881173e+01	1.25230257e+02	-1.86503931e-01	8.65955512e+01
209467142.857	-3.10665650e+00	-1.41968711e+02	-7.70172239e+01	1.26706603e+02	-7.87551691e+01	1.13319648e+02	-1.79058778e-01	8.64657465e+01
209752714.286	-3.09724733e+00	-1.42007010e+02	-7.76976682e+01	1.16160501e+02	-7.78555075e+01	1.23987950e+02	-1.82071740e-01	8.63311909e+01
210038285.714	-3.09772926e+00	-1.42042673e+02	-7.61502303e+01	1.32486498e+02	-7.61091759e+01	1.16864782e+02	-1.82150881e-01	8.61347908e+01
210323857.143	-3.08939404e+00	-1.42067329e+02	-7.71202071e+01	1.23171404e+02	-7.68273846e+01	1.23226739e+02	-1.82912696e-01	8.59949919e+01
210609428.571	-3.09127349e+00	-1.42199747e+02	-7.71845376e+01	1.27629721e+02	-7.66560785e+01	1.17171702e+02	-1.73271973e-01	8.59211396e+01
210895000	-3.08336021e+00	-1.42289602e+02	-7.60087394e+01	1.10680796e+02	-7.67315243e+01	1.11939710e+02	-1.66395936e-01	8.58224729e+01
211180571.429	-3.07712311e+00	-1.42309540e+02	-7.61971400e+01	1.24282096e+02	-7.59697606e+01	1.19527915e+02	-1.64089537e-01	8.56535345e+01
211466142.857	-3.06676015e+00	-1.42446804e+02	-7.64717543e+01	1.20831810e+02	-7.74341190e+01	1.12990179e+02	-1.54171839e-01	8.54516874e+01
211751714.286	-3.05681456e+00	-1.42493746e+02	-7.50191450e+01	1.22914321e+02	-7.58617167e+01	1.11463866e+02	-1.48552035e-01	8.54208679e+01
212037285.714	-3.05120941e+00	-1.42526599e+02	-7.64525635e+01	1.17533110e+02	-7.58820686e+01	1.10980022e+02	-1.44420467e-01	8.53435089e+01
212322857.143	-3.04665772e+00	-1.42639042e+02	-7.52313228e+01	1.17602111e+02	-7.58994558e+01	1.15176015e+02	-1.43872486e-01	8.52106836e+01
212608428.571	-3.03863615e+00	-1.42708999e+02	-7.53237166e+01	1.18194425e+02	-7.57120502e+01	1.09536164e+02	-1.38843085e-01	8.50286491e+01
212894000	-3.02490549e+00	-1.42764538e+02	-7.63670839e+01	1.12940633e+02	-7.52880454e+01	1.10690631e+02	-1.35249144e-01	8.48834543e+01
213179571.429	-3.02715445e+00	-1.42800057e+02	-7.60563392e+01	1.16494894e+02	-7.56616438e+01	1.16374098e+02	-1.38886950e-01	8.47837627e+01
213465142.857	-3.01252256e+00	-1.42869384e+02	-7.57868261e+01	1.16949011e+02	-7.57813470e+01	1.16532129e+02	-1.41805532e-01	8.46568879e+01
213750714.286	-3.02294452e+00	-1.42943272e+02	-7.58394240e+01	1.07315363e+02	-7.59446944e+01	1.12081362e+02	-1.46006145e-01	8.44852383e+01
214036285.714	-3.00677595e+00	-1.42954066e+02	-7.49322812e+01	1.10813052e+02	-7.51477948e+01	1.15385560e+02	-1.48209198e-01	8.43207415e+01
214321857.143	-2.99719384e+00	-1.43083419e+02	-7.63137927e+01	1.11996494e+02	-7.50690312e+01	1.11084460e+02	-1.50406692e-01	8.42413680e+01
214607428.571	-3.00038347e+00	-1.43091269e+02	-7.52418037e+01	1.09515100e+02	-7.53708395e+01	1.08953989e+02	-1.38249666e-01	8.41807216e+01
214893000	-2.98253822e+00	-1.43170875e+02	-7.46606489e+01	1.07899456e+02	-7.54616172e+01	1.08691054e+02	-1.32695264e-01	8.41163489e+01
215178571.429	-2.99029149e+00	-1.43238947e+02	-7.64529245e+01	1.06326438e+02	-7.48908241e+01	1.11556309e+02	-1.22944629e-01	8.40333309e+01
215464142.857	-2.98209947e+00	-1.43270446e+02	-7.42764823e+01	1.10267107e+02	-7.50211795e+01	1.08240136e+02	-1.20477314e-01	8.39131777e+01
215749714.286	-2.96446717e+00	-1.43301375e+02	-7.49140410e+01	1.11784507e+02	-7.46267601e+01	1.00940981e+02	-1.25703251e-01	8.37778590e+01
216035285.714	-2.96905938e+00	-1.43344902e+02	-7.45540920e+01	1.07228524e+02	-7.53921801e+01	1.13693497e+02	-1.32895042e-01	8.35994306e+01
216320857.143	-2.96562459e+00	-1.43412024e+02	-7.51325679e+01	1.08338238e+02	-7.42482021e+01	1.05689494e+02	-1.30996824e-01	8.34928061e+01
216606428.571	-2.94909529e+00	-1.43444764e+02	-7.53161730e+01	1.10132714e+02	-7.47912364e+01	1.07453659e+02	-1.32096082e-01	8.33779557e+01
216892000	-2.94018322e+00	-1.43529074e+02	-7.58896802e+01	1.09291261e+02	-7.47738340e+01	1.09720459e+02	-1.38553762e-01	8.32842281e+01
217177571.429	-2.93554034e+00	-1.43634882e+02	-7.45088991e+01	1.08312861e+02	-7.47203664e+01	1.06606736e+02	-1.46102377e-01	8.31681393e+01
217463142.857	-2.94256658e+00	-1.43656509e+02	-7.44641323e+01	1.06335988e+02	-7.49199690e+01	1.04766835e+02	-1.49587319e-01	8.30577846e+01
217748714.286	-2.93438145e+00	-1.43703694e+02	-7.52563703e+01	1.12035640e+02	-7.44966078e+01	1.05201753e+02	-1.52848229e-01	8.29738159e+01
218034285.714	-2.93961933e+00	-1.43774442e+02	-7.45640520e+01	1.08203109e+02	-7.42465000e+01	1.04695200e+02	-1.51919390e-01	8.28153476e+01
218319857.143	-2.92337817e+00	-1.43793537e+02	-7.47202469e+01	1.03590991e+02	-7.47487739e+01	1.04453801e+02	-1.53512561e-01	8.26659550e+01
218605428.571	-2.92524017e+00	-1.43858053e+02	-7.46153518e+01	1.01442553e+02	-7.48735883e+01	1.04222917e+02	-1.56843970e-01	8.25271028e+01
218891000	-2.90523911e+00	-1.43949856e+02	-7.44031697e+01	1.07107933e+02	-7.40820383e+01	1.03268598e+02	-1.63223981e-01	8.23881238e+01
219176571.429	-2.91185703e+00	-1.43951699e+02	-7.48007540e+01	1.04214931e+02	-7.42634561e+01	1.01032214e+02	-1.63197558e-01	8.22800479e+01
219462142.857	-2.89702112e+00	-1.44059627e+02	-7.39426420e+01	1.06345491e+02	-7.46705895e+01	1.00898212e+02	-1.50580651e-01	8.21449700e+01
219747714.286	-2.88462312e+00	-1.44064459e+02	-7.40909586e+01	9.62953690e+01	-7.41222994e+01	1.00195980e+02	-1.37706022e-01	8.20213044e+01
220033285.714	-2.88186136e+00	-1.44203554e+02	-7.42237535e+01	1.05925777e+02	-7.41072561e+01	9.51867388e+01	-1.37048191e-01	8.19093487e+01
220318857.143	-2.87956867e+00	-1.44265897e+02	-7.50473269e+01	1.01784667e+02	-7.40018047e+01	9.76054586e+01	-1.34205929e-01	8.18307789e+01
220604428.571	-2.87832093e+00	-1.44273136e+02	-7.48287456e+01	9.26782132e+01	-7.39481261e+01	9.54758876e+01	-1.26635822e-01	8.17364733e+01
220890000	-2.87831842e+00	-1.44329907e+02	-7.38934371e+01	1.02401967e+02	-7.38233738e+01	9.88043696e+01	-1.22835268e-01	8.16086594e+01
221175571.429	-2.87585327e+00	-1.44342570e+02	-7.39773421e+01	9.87489133e+01	-7.33166583e+01	9.65552618e+01	-1.25267480e-01	8.14401648e+01
221461142.857	-2.87559656e+00	-1.44387886e+02	-7.46311128e+01	9.70813363e+01	-7.38711647e+01	9.41966704e+01	-1.24668827e-01	8.12860095e+01
221746714.286	-2.86185930e+00	-1.44507075e+02	-7.43492658e+01	1.02804032e+02	-7.45843426e+01	9.63022595e+01	-1.26381427e-01	8.10966831e+01
222032285.714	-2.84937364e+00	-1.44543653e+02	-7.41699757e+01	9.60393951e+01	-7.44573166e+01	9.57419927e+01	-1.24859853e-01	8.10079128e+01
222317857.143	-2.86159353e+00	-1.44619039e+02	-7.40990175e+01	9.71133434e+01	-7.34067974e+01	9.60766833e+01	-1.15598270e-01	8.09077033e+01
222603428.571	-2.85199811e+00	-1.44675170e+02	-7.40064325e+01	9.40429489e+01	-7.38034146e+01	9.53185980e+01	-1.06712831e-01	8.07814671e+01
222889000	-2.84987003e+00	-1.44690266e+02	-7.38250034e+01	9.80405225e+01	-7.44260338e+01	8.96008432e+01	-1.08450382e-01	8.06148053e+01
223174571.429	-2.82992844e+00	-1.44781401e+02	-7.37927873e+01	9.54316086e+01	-7.41464333e+01	9.52293785e+01	-1.10475302e-01	8.04510866e+01
223460142.857	-2.84687161e+00	-1.44769682e+02	-7.35207105e+01	9.76966416e+01	-7.37629211e+01	9.46231080e+01	-1.07515986e-01	8.03928086e+01
223745714.286	-2.82611442e+00	-1.44896105e+02	-7.34956099e+01	9.62356883e+01	-7.35318640e+01	9.09614369e+01	-1.14594512e-01	8.03235159e+01
224031285.714	-2.82283012e+00	-1.44858073e+02	-7.35216472e+01	9.49912128e+01	-7.36496461e+01	9.38067166e+01	-1.13149493e-01	8.01869651e+01
224316857.143	-2.82004117e+00	-1.44967344e+02	-7.37152056e+01	9.37838156e+01	-7.33623468e+01	9.29062063e+01	-1.17581740e-01	8.00050721e+01
224602428.571	-2.82117865e+00	-1.44994904e+02	-7.34749957e+01	9.68271496e+01	-7.40932975e+01	9.33971777e+01	-1.18181377e-01	7.98574054e+01
224888000	-2.80664145e+00	-1.45035530e+02	-7.30499258e+01	9.45596304e+01	-7.39356175e+01	8.93824650e+01	-1.15054985e-01	7.96507460e+01
225173571.429	-2.80403451e+00	-1.45163013e+02	-7.37119415e+01	9.45455100e+01	-7.31487070e+01	8.80357819e+01	-1.13888706e-01	7.95451727e+01
225459142.857	-2.80016274e+00	-1.45182914e+02	-7.36960146e+01	9.49022443e+01	-7.33463994e+01	8.94985717e+01	-1.09253308e-01	7.94548899e+01
225744714.286	-2.79616886e+00	-1.45217744e+02	-7.32201767e+01	9.00889680e+01	-7.36892864e+01	9.52994344e+01	-1.15264214e-01	7.94425063e+01
226030285.714	-2.79377711e+00	-1.45248393e+02	-7.39010764e+01	9.50103633e+01	-7.32599871e+01	9.22934368e+01	-1.22489060e-01	7.93376976e+01
226315857.143	-2.78605968e+00	-1.45313380e+02	-7.33526909e+01	9.37578141e+01	-7.38130924e+01	8.84811041e+01	-1.32959783e-01	7.93065538e+01
226601428.571	-2.78164290e+00	-1.45355962e+02	-7.36416024e+01	8.93333920e+01	-7.37998177e+01	8.86428310e+01	-1.29517607e-01	7.91899469e+01
226887000	-2.78752025e+00	-1.45425729e+02	-7.43006642e+01	8.48359314e+01	-7.36785644e+01	8.91936840e+01	-1.29276845e-01	7.90781910e+01
227172571.429	-2.78620193e+00	-1.45452398e+02	-7.33971838e+01	9.07537822e+01	-7.40777065e+01	9.03636169e+01	-1.34634509e-01	7.89565922e+01
227458142.857	-2.77965042e+00	-1.45524856e+02	-7.40255885e+01	9.27035755e+01	-7.34525874e+01	8.84717279e+01	-1.37778914e-01	7.88363674e+01
227743714.286	-2.77908607e+00	-1.45550598e+02	-7.39544049e+01	9.08018421e+01	-7.39177549e+01	8.69141139e+01	-1.36263058e-01	7.86655689e+01
228029285.714	-2.77306808e+00	-1.45634078e+02	-7.30416607e+01	9.23093568e+01	-7.38847704e+01	8.59787385e+01	-1.42982533e-01	7.84587335e+01
228314857.143	-2.77491162e+00	-1.45695658e+02	-7.46218045e+01	8.21679180e+01	-7.42873199e+01	8.80169154e+01	-1.40215331e-01	7.82479827e+01
228600428.571	-2.77172766e+00	-1.45785012e+02	-7.39684439e+01	9.33927057e+01	-7.40052763e+01	8.73306320e+01	-1.38747482e-01	7.81994382e+01
228886000	-2.76411547e+00	-1.45777809e+02	-7.32769236e+01	8.61122954e+01	-7.36926060e+01	8.53100589e+01	-1.35724483e-01	7.81917242e+01
229171571.429	-2.76102879e+00	-1.45860704e+02	-7.36414594e+01	8.70431274e+01	-7.37913831e+01	8.77223133e+01	-1.45283311e-01	7.80227658e+01
229457142.857	-2.76561777e+00	-1.45898698e+02	-7.32771690e+01	8.62654523e+01	-7.39116710e+01	8.60352433e+01	-1.44894883e-01	7.78744044e+01
229742714.286	-2.75758199e+00	-1.45873161e+02	-7.36529421e+01	8.71884376e+01	-7.36584329e+01	8.63536687e+01	-1.53096149e-01	7.77791170e+01
230028285.714	-2.76620590e+00	-1.45963564e+02	-7.43205065e+01	8.76114395e+01	-7.33725848e+01	8.31305283e+01	-1.50962100e-01	7.76455118e+01
230313857.143	-2.74990831e+00	-1.45976690e+02	-7.27727937e+01	8.69998051e+01	-7.35050007e+01	8.26715618e+01	-1.50030463e-01	7.75080576e+01
230599428.571	-2.76402203e+00	-1.46078077e+02	-7.38118294e+01	8.57130076e+01	-7.34943863e+01	8.25789076e+01	-1.51360848e-01	7.74258129e+01
230885000	-2.75183536e+00	-1.46171258e+02	-7.34728746e+01	8.94658303e+01	-7.30288560e+01	8.58010386e+01	-1.47587075e-01	7.72792273e+01
231170571.429	-2.75706698e+00	-1.46194511e+02	-7.26758773e+01	8.36860999e+01	-7.35366170e+01	8.60806646e+01	-1.52916375e-01	7.72167181e+01
231456142.857	-2.75749222e+00	-1.46245450e+02	-7.28352967e+01	8.15234749e+01	-7.29804521e+01	8.69670183e+01	-1.59439277e-01	7.70661591e+01
231741714.286	-2.74614995e+00	-1.46242899e+02	-7.30617461e+01	8.73466794e+01	-7.35817193e+01	8.16315470e+01	-1.50985922e-01	7.69514792e+01
232027285.714	-2.73668640e+00	-1.46340169e+02	-7.31052529e+01	8.70873790e+01	-7.34579823e+01	7.89395235e+01	-1.47698808e-01	7.68356812e+01
232312857.143	-2.74363228e+00	-1.46374942e+02	-7.31713824e+01	8.29939674e+01	-7.23233248e+01	8.18579170e+01	-1.45867806e-01	7.66608665e+01
232598428.571	-2.73577043e+00	-1.46408944e+02	-7.34575858e+01	8.21616300e+01	-7.35404283e+01	8.29246882e+01	-1.46055184e-01	7.65571732e+01
232884000	-2.72776218e+00	-1.46476686e+02	-7.29768696e+01	8.06453568e+01	-7.31967398e+01	8.42378590e+01	-1.48848389e-01	7.63908120e+01
233169571.429	-2.72479511e+00	-1.46512226e+02	-7.27883705e+01	8.20491731e+01	-7.26945058e+01	8.51966620e+01	-1.63959420e-01	7.63202440e+01
233455142.857	-2.72315651e+00	-1.46587691e+02	-7.31197764e+01	8.20803869e+01	-7.31156392e+01	8.21990368e+01	-1.75265379e-01	7.61907572e+01
233740714.286	-2.72132659e+00	-1.46639230e+02	-7.29743697e+01	8.68438748e+01	-7.29536482e+01	8.83274452e+01	-1.74620340e-01	7.60546640e+01
234026285.714	-2.71920015e+00	-1.46690260e+02	-7.25067670e+01	8.29634403e+01	-7.30891445e+01	8.13041100e+01	-1.75663194e-01	7.59097416e+01
234311857.143	-2.71731539e+00	-1.46765894e+02	-7.31544430e+01	8.53970310e+01	-7.27974667e+01	8.00831119e+01	-1.84623151e-01	7.57993847e+01
234597428.571	-2.71315115e+00	-1.46772476e+02	-7.26882556e+01	8.39214005e+01	-7.29160309e+01	8.16912852e+01	-1.86876941e-01	7.57822625e+01
234883000	-2.71065394e+00	-1.46812638e+02	-7.23628309e+01	8.50201017e+01	-7.26377330e+01	8.02133520e+01	-1.94384750e-01	7.57213106e+01
235168571.429	-2.72077211e+00	-1.46865544e+02	-7.25375427e+01	8.32801385e+01	-7.18936267e+01	8.19559985e+01	-1.91663447e-01	7.56491494e+01
235454142.857	-2.71262235e+00	-1.46996796e+02	-7.23519683e+01	7.47769826e+01	-7.23538564e+01	8.15306804e+01	-1.96606381e-01	7.55003252e+01
235739714.286	-2.71854731e+00	-1.47049706e+02	-7.23236904e+01	8.12545635e+01	-7.20192320e+01	8.08697757e+01	-1.92146405e-01	7.53633929e+01
236025285.714	-2.71300972e+00	-1.47134321e+02	-7.28774895e+01	7.85988147e+01	-7.28612410e+01	8.46300200e+01	-1.88990630e-01	7.52909455e+01
236310857.143	-2.70386545e+00	-1.47184775e+02	-7.17721085e+01	8.41291806e+01	-7.22476773e+01	7.60038507e+01	-1.93295140e-01	7.51274315e+01
236596428.571	-2.70186443e+00	-1.47199421e+02	-7.23948234e+01	8.21009371e+01	-7.24232720e+01	8.02103291e+01	-2.01662242e-01	7.50059954e+01
236882000	-2.70025286e+00	-1.47257685e+02	-7.20879212e+01	7.89379010e+01	-7.21745470e+01	7.74877368e+01	-2.00829672e-01	7.48496746e+01
237167571.429	-2.69835637e+00	-1.47265273e+02	-7.17711025e+01	8.01516758e+01	-7.18330050e+01	7.72286948e+01	-2.11577161e-01	7.46901070e+01
237453142.857	-2.70197136e+00	-1.47342090e+02	-7.16770224e+01	7.92897443e+01	-7.20420043e+01	7.98781022e+01	-2.09223053e-01	7.46124030e+01
237738714.286	-2.69947092e+00	-1.47448885e+02	-7.18273509e+01	7.57201915e+01	-7.19205728e+01	7.68823491e+01	-2.13663005e-01	7.44880458e+01
238024285.714	-2.69469376e+00	-1.47455835e+02	-7.19372790e+01	7.84371034e+01	-7.22013044e+01	7.86316644e+01	-2.13468286e-01	7.43840231e+01
238309857.143	-2.69271824e+00	-1.47552898e+02	-7.19257892e+01	7.80496656e+01	-7.18901126e+01	7.67208537e+01	-2.05954339e-01	7.43068930e+01
238595428.571	-2.69363700e+00	-1.47579939e+02	-7.15116874e+01	7.99855508e+01	-7.16498581e+01	7.92660101e+01	-1.95851674e-01	7.41863172e+01
238881000	-2.68480018e+00	-1.47642719e+02	-7.15686069e+01	8.34751988e+01	-7.13989687e+01	7.62667386e+01	-1.98440992e-01	7.40081480e+01
239166571.429	-2.68127045e+00	-1.47655471e+02	-7.14461687e+01	7.96837303e+01	-7.19367274e+01	7.61451456e+01	-2.09057686e-01	7.39601384e+01
239452142.857	-2.67965932e+00	-1.47702476e+02	-7.17972810e+01	7.25308664e+01	-7.14204949e+01	7.59424220e+01	-2.17738370e-01	7.38471425e+01
239737714.286	-2.67767793e+00	-1.47765631e+02	-7.13367969e+01	7.30909602e+01	-7.13256606e+01	7.25098253e+01	-2.16395500e-01	7.37480404e+01
240023285.714	-2.67901359e+00	-1.47818173e+02	-7.19114512e+01	7.20385619e+01	-7.17984306e+01	7.49780742e+01	-2.18548146e-01	7.35945450e+01
240308857.143	-2.67963035e+00	-1.47918229e+02	-7.16912750e+01	7.72720479e+01	-7.11039710e+01	7.55063845e+01	-2.16458586e-01	7.33536062e+01
240594428.571	-2.67529665e+00	-1.47985730e+02	-7.16258543e+01	7.25418010e+01	-7.19999236e+01	7.56311283e+01	-2.16568232e-01	7.32217729e+01
240880000	-2.67383653e+00	-1.48022147e+02	-7.05590812e+01	7.50773390e+01	-7.12821483e+01	7.49940270e+01	-2.18752301e-01	7.31441262e+01
241165571.429	-2.67027609e+00	-1.48020521e+02	-7.07118027e+01	7.26295181e+01	-7.10763139e+01	7.15641904e+01	-2.31144889e-01	7.30337208e+01
241451142.857	-2.66781968e+00	-1.48094560e+02	-7.07705464e+01	7.14014255e+01	-7.11374314e+01	7.31306818e+01	-2.20728057e-01	7.29319417e+01
241736714.286	-2.66125369e+00	-1.48153958e+02	-7.09425408e+01	7.15806605e+01	-7.10098711e+01	6.97941564e+01	-2.18008666e-01	7.27738820e+01
242022285.714	-2.65929960e+00	-1.48226799e+02	-7.11432587e+01	7.40420451e+01	-7.07104351e+01	6.85394729e+01	-2.35741057e-01	7.27241870e+01
242307857.143	-2.66199714e+00	-1.48307155e+02	-7.12314712e+01	7.12868082e+01	-7.10933855e+01	6.94728374e+01	-2.28973662e-01	7.25606281e+01
242593428.571	-2.65723041e+00	-1.48329011e+02	-7.06715899e+01	6.96443657e+01	-7.01253111e+01	7.19843432e+01	-2.27171687e-01	7.24285191e+01
242879000	-2.65671469e+00	-1.48354594e+02	-7.10513389e+01	6.98198942e+01	-7.02803732e+01	7.02735798e+01	-2.27720496e-01	7.22682187e+01
243164571.429	-2.65567126e+00	-1.48413649e+02	-7.00737755e+01	6.79307773e+01	-7.03803350e+01	6.63897250e+01	-2.26873575e-01	7.21247614e+01
243450142.857	-2.65417782e+00	-1.48491990e+02	-7.06693784e+01	6.51581906e+01	-7.03106945e+01	6.67638678e+01	-2.23548767e-01	7.20564416e+01
243735714.286	-2.65005469e+00	-1.48544079e+02	-7.00131843e+01	6.71476028e+01	-7.01323935e+01	6.30384188e+01	-2.31599856e-01	7.19621998e+01
244021285.714	-2.64173726e+00	-1.48612171e+02	-7.01877621e+01	6.95611318e+01	-7.00608579e+01	6.71882199e+01	-2.48632626e-01	7.17735782e+01
244306857.143	-2.64190803e+00	-1.48605112e+02	-7.03274091e+01	6.42632199e+01	-6.95744848e+01	6.68669868e+01	-2.36826090e-01	7.16784764e+01
244592428.571	-2.64036181e+00	-1.48693540e+02	-6.98034216e+01	6.49724684e+01	-7.01401630e+01	6.53304662e+01	-2.46033007e-01	7.15863313e+01
244878000	-2.63815634e+00	-1.48764693e+02	-6.95444484e+01	6.49738822e+01	-7.00121083e+01	6.27353036e+01	-2.58416396e-01	7.14969027e+01
245163571.429	-2.63558216e+00	-1.48827153e+02	-6.91883471e+01	6.30476337e+01	-6.98763718e+01	6.21503579e+01	-2.52515715e-01	7.13646038e+01
245449142.857	-2.63613994e+00	-1.48893693e+02	-6.88800417e+01	5.83222222e+01	-6.98460714e+01	6.03684708e+01	-2.42227880e-01	7.11818400e+01
245734714.286	-2.63133396e+00	-1.48935463e+02	-6.96901009e+01	5.95578739e+01	-6.92863813e+01	5.94060488e+01	-2.60478341e-01	7.09890049e+01
246020285.714	-2.62341751e+00	-1.48962784e+02	-6.94432202e+01	5.97817832e+01	-6.98062028e+01	5.91684663e+01	-2.59322421e-01	7.08722671e+01
246305857.143	-2.62370925e+00	-1.49033870e+02	-6.98318587e+01	5.68846283e+01	-6.94921513e+01	5.93127125e+01	-2.46117500e-01	7.08248061e+01
246591428.571	-2.62333070e+00	-1.49113162e+02	-6.94234172e+01	5.52970784e+01	-6.95871152e+01	5.99655523e+01	-2.60277414e-01	7.06571373e+01
246877000	-2.62831731e+00	-1.49190151e+02	-7.00695176e+01	5.11112042e+01	-6.93373277e+01	5.50324431e+01	-2.62676301e-01	7.04496162e+01
247162571.429	-2.62457716e+00	-1.49271137e+02	-7.00845983e+01	5.50234529e+01	-6.96277469e+01	5.49744951e+01	-2.66743511e-01	7.03614185e+01
247448142.857	-2.62142178e+00	-1.49346305e+02	-6.93915060e+01	5.76253131e+01	-7.00112069e+01	5.20676819e+01	-2.63027110e-01	7.02805029e+01
247733714.286	-2.61295334e+00	-1.49389890e+02	-6.93823301e+01	5.14749953e+01	-6.97339066e+01	5.22511013e+01	-2.72205483e-01	7.00860371e+01
248019285.714	-2.61580275e+00	-1.49395368e+02	-6.99821842e+01	5.09664334e+01	-6.95496373e+01	5.10852483e+01	-2.76956216e-01	6.99260630e+01
248304857.143	-2.61381500e+00	-1.49452751e+02	-6.94423213e+01	5.06119932e+01	-6.97084843e+01	4.70024864e+01	-2.79057225e-01	6.99068594e+01
248590428.571	-2.60788014e+00	-1.49531685e+02	-6.97417067e+01	4.85298271e+01	-6.97388516e+01	4.78275419e+01	-2.75819219e-01	6.96913910e+01
248876000	-2.61172873e+00	-1.49580679e+02	-6.96778323e+01	4.90682531e+01	-6.97920471e+01	4.88563434e+01	-2.66559666e-01	6.95289249e+01
249161571.429	-2.60792527e+00	-1.49671205e+02	-6.97865332e+01	4.96169474e+01	-6.97614049e+01	4.58183405e+01	-2.64740167e-01	6.93803320e+01
249447142.857	-2.60948835e+00	-1.49753432e+02	-7.00956615e+01	4.56241572e+01	-7.00206173e+01	4.69682580e+01	-2.60784268e-01	6.92191784e+01
249732714.286	-2.60549196e+00	-1.49788650e+02	-6.95256132e+01	4.49996582e+01	-6.95706404e+01	4.48105953e+01	-2.65902079e-01	6.90880020e+01
250018285.714	-2.59734646e+00	-1.49886800e+02	-6.97958511e+01	4.16250766e+01	-6.98270416e+01	4.82899872e+01	-2.77262838e-01	6.90073521e+01
250303857.143	-2.59948437e+00	-1.49914426e+02	-6.96881162e+01	4.74006962e+01	-6.96215698e+01	4.40877743e+01	-2.78934199e-01	6.88548913e+01
250589428.571	-2.59937349e+00	-1.49940106e+02	-6.96483865e+01	4.15715497e+01	-6.98569201e+01	4.43924629e+01	-2.78045460e-01	6.86086777e+01
250875000	-2.59613353e+00	-1.50028499e+02	-6.97937452e+01	4.15959413e+01	-6.96840681e+01	4.57090233e+01	-2.89925027e-01	6.85161016e+01
251160571.429	-2.59572487e+00	-1.50101031e+02	-7.05797598e+01	4.44330523e+01	-6.99024531e+01	4.38868693e+01	-2.79881341e-01	6.83704790e+01
251446142.857	-2.59067857e+00	-1.50197249e+02	-7.00493037e+01	3.98403813e+01	-6.96604879e+01	4.42666312e+01	-2.70201525e-01	6.83719085e+01
251731714.286	-2.58993361e+00	-1.50247826e+02	-7.02999521e+01	4.36799247e+01	-7.00448228e+01	4.29924975e+01	-2.58689688e-01	6.81992272e+01
252017285.714	-2.58887825e+00	-1.50314681e+02	-7.03256397e+01	4.70394151e+01	-6.97417174e+01	4.38509978e+01	-2.65896357e-01	6.79777589e+01
252302857.143	-2.57927237e+00	-1.50424732e+02	-7.00120948e+01	4.27635376e+01	-7.00012497e+01	3.98724774e+01	-2.75179783e-01	6.79131362e+01
252588428.571	-2.56885439e+00	-1.50451524e+02	-6.98191948e+01	4.29724130e+01	-6.97555891e+01	4.03624062e+01	-2.76253092e-01	6.78156661e+01
252874000	-2.57542784e+00	-1.50544081e+02	-6.99265369e+01	3.90402419e+01	-6.94422442e+01	4.07277430e+01	-2.62543719e-01	6.76274704e+01
253159571.429	-2.57176444e+00	-1.50593477e+02	-6.95817727e+01	4.26369161e+01	-6.94942835e+01	3.91661415e+01	-2.67321469e-01	6.74513723e+01
253445142.857	-2.57065801e+00	-1.50624551e+02	-7.02983735e+01	3.88912349e+01	-6.97886652e+01	3.97684593e+01	-2.62949403e-01	6.73211292e+01
253730714.286	-2.56600831e+00	-1.50662572e+02	-7.02377350e+01	4.09690103e+01	-6.96306064e+01	3.81385039e+01	-2.55140830e-01	6.72048439e+01
254016285.714	-2.56216766e+00	-1.50714002e+02	-7.06362120e+01	3.52460744e+01	-6.95780746e+01	3.66864119e+01	-2.51476850e-01	6.70790427e+01
254301857.143	-2.55805062e+00	-1.50805769e+02	-7.03594192e+01	3.41751454e+01	-7.01063853e+01	3.95882239e+01	-2.57064025e-01	6.69073947e+01
254587428.571	-2.55806609e+00	-1.50901761e+02	-6.97938731e+01	3.43517332e+01	-6.99894144e+01	3.93496596e+01	-2.71696336e-01	6.68198347e+01
254873000	-2.55268703e+00	-1.50963481e+02	-7.02004912e+01	3.44348862e+01	-7.00512533e+01	3.42190281e+01	-2.69853096e-01	6.66673096e+01
255158571.429	-2.54923118e+00	-1.51067984e+02	-6.99988669e+01	3.60157555e+01	-6.95124598e+01	3.49056030e+01	-2.69698757e-01	6.65453298e+01
255444142.857	-2.54548224e+00	-1.51146532e+02	-7.01646628e+01	3.00938810e+01	-6.97655569e+01	3.58337594e+01	-2.72517431e-01	6.63896507e+01
255729714.286	-2.54240725e+00	-1.51214445e+02	-6.99886037e+01	2.80296553e+01	-6.95730607e+01	3.34498789e+01	-2.72261309e-01	6.62729017e+01
256015285.714	-2.53325588e+00	-1.51281523e+02	-6.95096845e+01	3.19585014e+01	-6.94371131e+01	3.37977328e+01	-2.72048673e-01	6.61506783e+01
256300857.143	-2.53154438e+00	-1.51360502e+02	-7.00909103e+01	3.48552556e+01	-6.91334461e+01	3.24582252e+01	-2.75307586e-01	6.60810318e+01
256586428.571	-2.52641015e+00	-1.51413894e+02	-6.95716899e+01	3.47439618e+01	-6.90625018e+01	3.30732966e+01	-2.73941896e-01	6.59771755e+01
256872000	-2.52525961e+00	-1.51450880e+02	-6.99424338e+01	2.94809438e+01	-6.99485002e+01	3.20514591e+01	-2.69009024e-01	6.58205833e+01
257157571.429	-2.52923465e+00	-1.51480630e+02	-6.94021361e+01	3.05374331e+01	-6.98015353e+01	3.02915550e+01	-2.66277769e-01	6.56141647e+01
257443142.857	-2.52505136e+00	-1.51572192e+02	-7.02765979e+01	3.23713259e+01	-6.91570367e+01	2.98847768e+01	-2.67631351e-01	6.54720296e+01
257728714.286	-2.51873653e+00	-1.51651756e+02	-6.97862698e+01	3.36759559e+01	-6.90169960e+01	3.02827559e+01	-2.63287295e-01	6.54045715e+01
258014285.714	-2.51459600e+00	-1.51665923e+02	-7.00689139e+01	3.08337411e+01	-6.92913761e+01	2.71994758e+01	-2.63804778e-01	6.52990175e+01
258299857.143	-2.51177972e+00	-1.51763586e+02	-6.97545032e+01	2.61923807e+01	-6.93789170e+01	2.97863205e+01	-2.72262731e-01	6.50399356e+01
258585428.571	-2.50683833e+00	-1.51817031e+02	-6.94256389e+01	2.52761625e+01	-6.93636530e+01	2.49369335e+01	-2.67503543e-01	6.49348095e+01
258871000	-2.49669948e+00	-1.51859963e+02	-6.99893500e+01	2.61814717e+01	-6.94025818e+01	2.46010062e+01	-2.51674292e-01	6.48688906e+01
259156571.429	-2.49052959e+00	-1.51863413e+02	-6.95298520e+01	2.60180354e+01	-6.89570498e+01	2.43587107e+01	-2.54069655e-01	6.47656959e+01
259442142.857	-2.49339730e+00	-1.51941271e+02	-6.96529361e+01	2.51598589e+01	-6.84827008e+01	2.03614012e+01	-2.46031691e-01	6.45667970e+01
259727714.286	-2.49547929e+00	-1.52020200e+02	-7.00663225e+01	2.48185784e+01	-6.89513737e+01	2.45961585e+01	-2.49354078e-01	6.44503832e+01
260013285.714	-2.48961282e+00	-1.52081424e+02	-6.98011840e+01	2.12624500e+01	-6.93632456e+01	2.33068776e+01	-2.43381749e-01	6.43261926e+01
260298857.143	-2.49302666e+00	-1.52129612e+02	-6.96727701e+01	2.31481266e+01	-6.91695750e+01	2.02788449e+01	-2.41700463e-01	6.42425679e+01
260584428.571	-2.48566821e+00	-1.52178726e+02	-6.94339453e+01	2.05414978e+01	-6.90337395e+01	1.83834707e+01	-2.32136783e-01	6.41002910e+01
260870000	-2.49118297e+00	-1.52245306e+02	-6.94700161e+01	1.92277782e+01	-6.91066061e+01	1.87623507e+01	-2.15709477e-01	6.38963411e+01
261155571.429	-2.48215316e+00	-1.52279607e+02	-6.93376239e+01	1.95534726e+01	-6.90519916e+01	1.87485571e+01	-2.09367430e-01	6.38120530e+01
261441142.857	-2.48029352e+00	-1.52305827e+02	-6.98287171e+01	1.52432647e+01	-6.91838221e+01	1.48699861e+01	-2.06392000e-01	6.37175789e+01
261726714.286	-2.47521629e+00	-1.52361757e+02	-6.95111371e+01	1.59315877e+01	-6.87338889e+01	1.41057732e+01	-2.01048471e-01	6.36301826e+01
262012285.714	-2.47747731e+00	-1.52398728e+02	-6.99868947e+01	1.55864726e+01	-6.93279929e+01	1.54115737e+01	-2.02623050e-01	6.35466151e+01
262297857.143	-2.47606428e+00	-1.52448669e+02	-6.95150683e+01	1.29817474e+01	-6.94699768e+01	1.12516978e+01	-2.11804653e-01	6.34023668e+01
262583428.571	-2.47291212e+00	-1.52502147e+02	-7.00841659e+01	8.40407834e+00	-6.93311572e+01	1.07278374e+01	-2.10103231e-01	6.32400341e+01
262869000	-2.46467051e+00	-1.52553934e+02	-7.00807545e+01	1.43340535e+01	-6.94654220e+01	1.24031468e+01	-2.09213852e-01	6.31301060e+01
263154571.429	-2.46454699e+00	-1.52590599e+02	-6.98869896e+01	1.54547852e+01	-6.95518675e+01	8.01447756e+00	-2.05022202e-01	6.29727373e+01
263440142.857	-2.46013841e+00	-1.52638964e+02	-7.03019371e+01	1.01958129e+01	-6.97184948e+01	7.71070109e+00	-1.96714821e-01	6.27920173e+01
263725714.286	-2.45813920e+00	-1.52687774e+02	-7.00698318e+01	6.59887255e+00	-6.94261341e+01	8.76945155e+00	-1.99592064e-01	6.26472717e+01
264011285.714	-2.45655316e+00	-1.52703806e+02	-7.08861399e+01	1.43405652e+01	-6.99597617e+01	7.18232511e+00	-2.05095192e-01	6.24916497e+01
264296857.143	-2.45391376e+00	-1.52736258e+02	-7.02590289e+01	8.29634361e+00	-6.96318000e+01	4.94539615e+00	-2.05117658e-01	6.23712839e+01
264582428.571	-2.45520254e+00	-1.52823203e+02	-7.01703023e+01	1.03144000e+01	-6.97382175e+01	6.83119326e+00	-1.97938712e-01	6.22654033e+01
264868000	-2.45370361e+00	-1.52871151e+02	-7.02370016e+01	4.71625871e+00	-6.96920495e+01	5.62126436e+00	-1.88248944e-01	6.21432158e+01
265153571.429	-2.45088698e+00	-1.53003347e+02	-7.00056375e+01	2.50134187e+00	-7.05010303e+01	2.82206039e+00	-1.87615033e-01	6.20613740e+01
265439142.857	-2.44536552e+00	-1.53020977e+02	-7.04671542e+01	3.75263808e+00	-7.01517839e+01	3.49532315e+00	-1.96968235e-01	6.19466577e+01
265724714.286	-2.43885109e+00	-1.53090787e+02	-7.04319100e+01	2.03635344e+00	-7.00596722e+01	2.80964810e+00	-1.86845731e-01	6.18660692e+01
266010285.714	-2.44118687e+00	-1.53141336e+02	-7.06124577e+01	3.51005440e+00	-7.02475238e+01	2.30134866e+00	-1.82404146e-01	6.17924756e+01
266295857.143	-2.43787420e+00	-1.53133663e+02	-7.04355818e+01	3.73264808e+00	-7.05316183e+01	2.27110059e+00	-1.75005045e-01	6.16874501e+01
266581428.571	-2.43200596e+00	-1.53211077e+02	-7.10579924e+01	3.50703238e+00	-7.02799226e+01	2.44058883e+00	-1.73846082e-01	6.15650423e+01
266867000	-2.42385037e+00	-1.53266296e+02	-7.07108810e+01	3.53544803e+00	-7.01708236e+01	-1.05721167e+00	-1.72827932e-01	6.14140058e+01
267152571.429	-2.41990927e+00	-1.53376411e+02	-7.10786859e+01	5.37017630e-01	-7.03198655e+01	-1.49436258e+00	-1.69927930e-01	6.12658740e+01
267438142.857	-2.41099398e+00	-1.53425464e+02	-7.10192544e+01	1.67617246e+00	-7.06874862e+01	-1.85504055e+00	-1.69078272e-01	6.11110233e+01
267723714.286	-2.41226914e+00	-1.53445279e+02	-7.15357678e+01	4.61286846e-01	-7.03796787e+01	-1.59425846e+00	-1.70426171e-01	6.09913111e+01
268009285.714	-2.41555521e+00	-1.53566117e+02	-7.11462237e+01	4.73204567e+00	-7.12187117e+01	-2.75729346e+00	-1.66849492e-01	6.08749113e+01
268294857.143	-2.42449895e+00	-1.53579665e+02	-7.12506636e+01	-1.62152824e-01	-7.12698644e+01	-2.80347237e+00	-1.64804114e-01	6.07757034e+01
268580428.571	-2.41821227e+00	-1.53542411e+02	-7.19013276e+01	-2.80545999e+00	-7.15273492e+01	-1.38929044e+00	-1.63334423e-01	6.07108830e+01
268866000	-2.41318153e+00	-1.53626087e+02	-7.16002739e+01	3.84379428e+00	-7.12485395e+01	-3.95658970e+00	-1.59560636e-01	6.06011133e+01
269151571.429	-2.40868492e+00	-1.53685786e+02	-7.17381566e+01	1.43348794e-01	-7.11150480e+01	-4.00127581e+00	-1.55805401e-01	6.04522920e+01
269437142.857	-2.40813197e+00	-1.53776681e+02	-7.17789238e+01	4.41384711e-01	-7.10664991e+01	-4.47629498e+00	-1.52336348e-01	6.03429238e+01
269722714.286	-2.39847420e+00	-1.53851066e+02	-7.17531597e+01	4.48824247e-01	-7.16171690e+01	-4.50375243e+00	-1.51104607e-01	6.02638832e+01
270008285.714	-2.40191078e+00	-1.53874278e+02	-7.14335701e+01	-2.22235800e+00	-7.14139893e+01	-6.34280546e+00	-1.53351047e-01	6.01847788e+01
270293857.143	-2.39225068e+00	-1.53912658e+02	-7.22795900e+01	1.30887396e+00	-7.12645478e+01	-5.53839178e+00	-1.43177173e-01	6.00944712e+01
270579428.571	-2.38549249e+00	-1.53923128e+02	-7.20332170e+01	-5.05352832e+00	-7.15293229e+01	-2.91033943e+00	-1.39717446e-01	5.99819677e+01
270865000	-2.38466536e+00	-1.53959379e+02	-7.23834307e+01	7.10112112e-01	-7.16559195e+01	-6.62862929e+00	-1.40714276e-01	5.98287004e+01
271150571.429	-2.36746816e+00	-1.54043327e+02	-7.15612547e+01	-4.18183219e+00	-7.19759715e+01	-7.76390029e+00	-1.44127702e-01	5.96461305e+01
271436142.857	-2.37057264e+00	-1.54114904e+02	-7.20830801e+01	-1.04670329e+00	-7.23351258e+01	-4.23393580e+00	-1.38911066e-01	5.95311424e+01
271721714.286	-2.36372576e+00	-1.54141368e+02	-7.25256539e+01	-2.87610415e+00	-7.17477740e+01	-5.74532754e+00	-1.34560551e-01	5.94350474e+01
272007285.714	-2.36664973e+00	-1.54250429e+02	-7.22952576e+01	-2.47383478e+00	-7.22737625e+01	-6.25444758e+00	-1.33992430e-01	5.93244720e+01
272292857.143	-2.36294049e+00	-1.54297339e+02	-7.18514157e+01	-2.98976974e-01	-7.21167762e+01	-8.19346714e+00	-1.35350544e-01	5.91901536e+01
272578428.571	-2.34967213e+00	-1.54373100e+02	-7.21642520e+01	-1.27106427e+00	-7.21437815e+01	-5.35848083e+00	-1.32222194e-01	5.90694366e+01
272864000	-2.35281910e+00	-1.54389565e+02	-7.18167197e+01	-1.24045849e+00	-7.18025864e+01	-4.76277676e+00	-1.29252505e-01	5.90216390e+01
273149571.429	-2.35160434e+00	-1.54402776e+02	-7.23313381e+01	-2.98176259e+00	-7.20143619e+01	-5.62576814e+00	-1.30786725e-01	5.89563403e+01
273435142.857	-2.33830278e+00	-1.54467380e+02	-7.21119737e+01	-2.03397549e-01	-7.20650349e+01	-6.41903139e+00	-1.34294346e-01	5.88223518e+01
273720714.286	-2.33797385e+00	-1.54601580e+02	-7.28244185e+01	-2.42852208e+00	-7.20812780e+01	-4.38508711e+00	-1.35279781e-01	5.86371852e+01
274006285.714	-2.33644742e+00	-1.54659305e+02	-7.24844576e+01	-2.34003153e+00	-7.21238680e+01	-6.25675641e+00	-1.32524445e-01	5.85050898e+01
274291857.143	-2.33183089e+00	-1.54661559e+02	-7.20067923e+01	-3.84054840e+00	-7.21146747e+01	-5.41954155e+00	-1.20646652e-01	5.83617519e+01
274577428.571	-2.33296727e+00	-1.54756967e+02	-7.24127713e+01	-1.02192874e+00	-7.24235503e+01	-6.01154597e+00	-1.14261370e-01	5.82632960e+01
274863000	-2.32918913e+00	-1.54763484e+02	-7.27558874e+01	-7.46994523e-01	-7.20799335e+01	-6.57547895e+00	-1.26506653e-01	5.81204906e+01
275148571.429	-2.32287613e+00	-1.54819154e+02	-7.21200722e+01	6.92028653e-01	-7.21532274e+01	-1.00517442e+01	-1.34821855e-01	5.80002669e+01
275434142.857	-2.31238778e+00	-1.54856501e+02	-7.22961884e+01	-2.56291107e+00	-7.18499034e+01	-5.62198623e+00	-1.36180482e-01	5.79298578e+01
275719714.286	-2.31199474e+00	-1.54895299e+02	-7.28901426e+01	-2.84176510e-01	-7.19265327e+01	-8.21379756e+00	-1.26160009e-01	5.78408099e+01
276005285.714	-2.31405893e+00	-1.54967202e+02	-7.19799782e+01	6.09745171e-01	-7.20554866e+01	-8.21235334e+00	-1.30708591e-01	5.77364619e+01
276290857.143	-2.32125113e+00	-1.55003109e+02	-7.16631491e+01	-2.85003243e+00	-7.23809495e+01	-8.93494661e+00	-1.34977725e-01	5.76334337e+01
276576428.571	-2.31415445e+00	-1.55094294e+02	-7.24849489e+01	-2.73411540e+00	-7.19625024e+01	-8.67331916e+00	-1.38075181e-01	5.74858050e+01
276862000	-2.30847089e+00	-1.55070440e+02	-7.16786443e+01	-6.33590584e+00	-7.21415817e+01	-9.92932063e+00	-1.42533270e-01	5.73994386e+01
277147571.429	-2.31414878e+00	-1.55174043e+02	-7.25077110e+01	-4.76824947e+00	-7.20584576e+01	-1.24260638e+01	-1.41859608e-01	5.72541824e+01
277433142.857	-2.30025131e+00	-1.55211146e+02	-7.19169402e+01	-6.83377691e+00	-7.19297560e+01	-1.25654862e+01	-1.44524138e-01	5.71308917e+01
277718714.286	-2.30610240e+00	-1.55269656e+02	-7.20647988e+01	-6.34544902e+00	-7.15407979e+01	-9.78695022e+00	-1.48006876e-01	5.69810861e+01
278004285.714	-2.29684786e+00	-1.55341601e+02	-7.20594701e+01	-7.97991976e+00	-7.22534811e+01	-1.20720925e+01	-1.41067283e-01	5.68742792e+01
278289857.143	-2.28356790e+00	-1.55365660e+02	-7.15446974e+01	-1.08160630e+01	-7.20036836e+01	-1.22618758e+01	-1.34995255e-01	5.68208163e+01
278575428.571	-2.28214291e+00	-1.55412799e+02	-7.18449565e+01	-7.07032009e+00	-7.16805243e+01	-1.44132270e+01	-1.31231414e-01	5.67007412e+01
278861000	-2.28214698e+00	-1.55480859e+02	-7.23422198e+01	-8.62288917e+00	-7.19146623e+01	-1.56081175e+01	-1.24833241e-01	5.65613458e+01
279146571.429	-2.27374107e+00	-1.55459519e+02	-7.17952934e+01	-1.34239267e+01	-7.21232155e+01	-1.65665658e+01	-1.19028416e-01	5.64308546e+01
279432142.857	-2.27530290e+00	-1.55549409e+02	-7.17552173e+01	-8.32522671e+00	-7.22987017e+01	-1.85775597e+01	-1.16226922e-01	5.62920967e+01
279717714.286	-2.26766407e+00	-1.55569326e+02	-7.24915536e+01	-1.19906306e+01	-7.24323225e+01	-1.74192902e+01	-1.17758410e-01	5.61535696e+01
280003285.714	-2.26523340e+00	-1.55619675e+02	-7.20081370e+01	-8.17731976e+00	-7.25998197e+01	-1.76136779e+01	-1.13841862e-01	5.59523703e+01
280288857.143	-2.26786864e+00	-1.55689476e+02	-7.16334656e+01	-1.19739336e+01	-7.28822345e+01	-1.75759898e+01	-1.12656362e-01	5.57421463e+01
280574428.571	-2.26329591e+00	-1.55718694e+02	-7.23001257e+01	-1.33990192e+01	-7.20756839e+01	-2.00006153e+01	-1.16505721e-01	5.56608454e+01
280860000	-2.26924365e+00	-1.55780798e+02	-7.29691825e+01	-1.54090548e+01	-7.33105888e+01	-1.70690341e+01	-1.12180947e-01	5.55573032e+01
281145571.429	-2.26329485e+00	-1.55806416e+02	-7.24865234e+01	-1.34764703e+01	-7.31633118e+01	-1.95746555e+01	-1.12478842e-01	5.55160629e+01
281431142.857	-2.25267702e+00	-1.55852435e+02	-7.25409527e+01	-1.20434130e+01	-7.30546086e+01	-2.11694987e+01	-1.04569527e-01	5.54709046e+01
281716714.286	-2.25984217e+00	-1.55895630e+02	-7.26265066e+01	-1.50667975e+01	-7.38325122e+01	-2.48413192e+01	-1.10513347e-01	5.54045773e+01
282002285.714	-2.26535499e+00	-1.55962774e+02	-7.29953595e+01	-1.41206611e+01	-7.33608993e+01	-1.76448911e+01	-1.14060191e-01	5.53649445e+01
282287857.143	-2.26359976e+00	-1.55977846e+02	-7.23421307e+01	-1.49549892e+01	-7.37793001e+01	-2.29138252e+01	-1.13183943e-01	5.52158411e+01
282573428.571	-2.25831548e+00	-1.56114221e+02	-7.26127801e+01	-1.29191252e+01	-7.38710371e+01	-2.00930194e+01	-1.19815316e-01	5.50776416e+01
282859000	-2.25558239e+00	-1.56111419e+02	-7.29377188e+01	-1.31822207e+01	-7.38874666e+01	-1.93536271e+01	-1.20605301e-01	5.49403958e+01
283144571.429	-2.25544734e+00	-1.56170640e+02	-7.29005628e+01	-1.27080673e+01	-7.45524299e+01	-1.78471502e+01	-1.21530545e-01	5.48513969e+01
283430142.857	-2.24738535e+00	-1.56264276e+02	-7.23165493e+01	-1.41450656e+01	-7.44948992e+01	-1.39837303e+01	-1.22673357e-01	5.47539150e+01
283715714.286	-2.25189886e+00	-1.56292220e+02	-7.31075474e+01	-1.37122918e+01	-7.36827452e+01	-1.93004174e+01	-1.24846264e-01	5.46240239e+01
284001285.714	-2.24858571e+00	-1.56302743e+02	-7.18650607e+01	-1.42884049e+01	-7.43355626e+01	-1.46473368e+01	-1.22164739e-01	5.44626465e+01
284286857.143	-2.25587668e+00	-1.56310681e+02	-7.31292066e+01	-1.63502587e+01	-7.43260659e+01	-1.66610631e+01	-1.20882454e-01	5.44151033e+01
284572428.571	-2.24067542e+00	-1.56326671e+02	-7.23418154e+01	-1.54783992e+01	-7.48288864e+01	-1.24819386e+01	-1.18720608e-01	5.42748861e+01
284858000	-2.23937438e+00	-1.56330882e+02	-7.25017822e+01	-1.15151385e+01	-7.42020616e+01	-1.38131929e+01	-1.19284252e-01	5.41347150e+01
285143571.429	-2.24043153e+00	-1.56474595e+02	-7.27018623e+01	-1.17953536e+01	-7.41525932e+01	-1.32014209e+01	-1.29120282e-01	5.40586387e+01
285429142.857	-2.23394599e+00	-1.56551757e+02	-7.29619354e+01	-1.22168680e+01	-7.43066678e+01	-1.17181538e+01	-1.34327921e-01	5.38716379e+01
285714714.286	-2.23029642e+00	-1.56600935e+02	-7.20129985e+01	-1.31021223e+01	-7.39963557e+01	-8.62395698e+00	-1.31766411e-01	5.37595065e+01
286000285.714	-2.23346722e+00	-1.56587819e+02	-7.22666971e+01	-9.49962360e+00	-7.42034535e+01	-8.74390335e+00	-1.24325065e-01	5.36478420e+01
286285857.143	-2.21963359e+00	-1.56686864e+02	-7.20958646e+01	-1.36111738e+01	-7.34029435e+01	-1.03729815e+01	-1.25947828e-01	5.35283887e+01
286571428.571	-2.21631200e+00	-1.56688240e+02	-7.21318562e+01	-1.85011809e+01	-7.34602921e+01	-7.80440531e+00	-1.31606718e-01	5.34590826e+01
286857000	-2.21714194e+00	-1.56713312e+02	-7.22622461e+01	-1.82919666e+01	-7.29551103e+01	-8.09952179e+00	-1.37668276e-01	5.33379019e+01
287142571.429	-2.21380802e+00	-1.56731363e+02	-7.16845876e+01	-1.52332165e+01	-7.34142002e+01	-1.11898982e+01	-1.31949996e-01	5.32232511e+01
287428142.857	-2.21947144e+00	-1.56817762e+02	-7.16114802e+01	-1.54711866e+01	-7.29647792e+01	-9.35774913e+00	-1.27744420e-01	5.30956462e+01
287713714.286	-2.21927797e+00	-1.56846734e+02	-7.22351212e+01	-1.44950382e+01	-7.32156008e+01	-1.42361427e+01	-1.31250885e-01	5.29043529e+01
287999285.714	-2.22170139e+00	-1.56900637e+02	-7.12655540e+01	-2.25033619e+01	-7.30580632e+01	-1.43535243e+01	-1.33733169e-01	5.27723117e+01
288284857.143	-2.22215353e+00	-1.56908155e+02	-7.12179578e+01	-1.74661647e+01	-7.24369258e+01	-9.43274734e+00	-1.26571600e-01	5.26927739e+01
288570428.571	-2.21696663e+00	-1.56969602e+02	-7.16643024e+01	-1.81511831e+01	-7.22853503e+01	-1.38693943e+01	-1.25585404e-01	5.25892522e+01
288856000	-2.21926420e+00	-1.56982648e+02	-7.13943279e+01	-2.18653802e+01	-7.21940800e+01	-1.50861235e+01	-1.41686315e-01	5.24783653e+01
289141571.429	-2.21455084e+00	-1.57091666e+02	-7.11166982e+01	-2.14402443e+01	-7.13155801e+01	-1.57804226e+01	-1.43978416e-01	5.23955837e+01
289427142.857	-2.21703817e+00	-1.57075546e+02	-7.09082279e+01	-2.22611028e+01	-7.22624419e+01	-2.21434300e+01	-1.50949441e-01	5.22380803e+01
289712714.286	-2.20806456e+00	-1.57116227e+02	-7.16604216e+01	-2.67734735e+01	-7.16051007e+01	-1.63975612e+01	-1.54941747e-01	5.22021574e+01
289998285.714	-2.21511454e+00	-1.57191086e+02	-7.09379177e+01	-2.74209204e+01	-7.16576264e+01	-2.09476179e+01	-1.63688035e-01	5.21368512e+01
290283857.143	-2.21849247e+00	-1.57225786e+02	-7.10480968e+01	-2.90384744e+01	-7.14265847e+01	-2.14816054e+01	-1.63230399e-01	5.20167912e+01
290569428.571	-2.21154695e+00	-1.57316469e+02	-7.12992033e+01	-3.22111254e+01	-7.13269459e+01	-2.20331863e+01	-1.52240135e-01	5.19509293e+01
290855000	-2.21009057e+00	-1.57318754e+02	-7.10527771e+01	-3.14151540e+01	-7.14308403e+01	-2.23055933e+01	-1.60214309e-01	5.18368007e+01
291140571.429	-2.20562723e+00	-1.57310082e+02	-7.09091350e+01	-3.01883634e+01	-7.13467939e+01	-2.59862235e+01	-1.69892907e-01	5.16547576e+01
291426142.857	-2.20348015e+00	-1.57365364e+02	-7.17082866e+01	-3.34335047e+01	-7.15678087e+01	-2.64251139e+01	-1.69425295e-01	5.15994292e+01
291711714.286	-2.21786279e+00	-1.57441450e+02	-7.15851668e+01	-3.35929083e+01	-7.17573221e+01	-2.94028856e+01	-1.77048665e-01	5.14606595e+01
291997285.714	-2.20747547e+00	-1.57530926e+02	-7.15589694e+01	-3.33339817e+01	-7.21216171e+01	-2.67931907e+01	-1.70818605e-01	5.13488222e+01
292282857.143	-2.20866220e+00	-1.57608490e+02	-7.23023648e+01	-3.94180618e+01	-7.21801696e+01	-3.07768261e+01	-1.77820647e-01	5.12258118e+01
292568428.571	-2.20626719e+00	-1.57644491e+02	-7.23068399e+01	-3.91477035e+01	-7.18443642e+01	-3.06583474e+01	-1.66755420e-01	5.10942121e+01
292854000	-2.20676628e+00	-1.57676942e+02	-7.11948270e+01	-3.79246136e+01	-7.18809108e+01	-3.19641126e+01	-1.81370570e-01	5.09458307e+01
293139571.429	-2.21391314e+00	-1.57747848e+02	-7.17522899e+01	-4.34847455e+01	-7.12945656e+01	-3.67425559e+01	-1.77770166e-01	5.09084201e+01
293425142.857	-2.20554892e+00	-1.57795725e+02	-7.20192416e+01	-4.06439231e+01	-7.20445096e+01	-3.44818205e+01	-1.78428584e-01	5.08222134e+01
293710714.286	-2.20559905e+00	-1.57851560e+02	-7.24778114e+01	-4.75804649e+01	-7.22123355e+01	-3.28386966e+01	-1.73189609e-01	5.06526965e+01
293996285.714	-2.20344915e+00	-1.57835350e+02	-7.22393543e+01	-4.31565276e+01	-7.17597308e+01	-4.30219776e+01	-1.73317663e-01	5.04809101e+01
294281857.143	-2.20464827e+00	-1.57883143e+02	-7.33482096e+01	-4.35148291e+01	-7.20769524e+01	-3.74914449e+01	-1.79845807e-01	5.03410765e+01
294567428.571	-2.21086119e+00	-1.57925241e+02	-7.18617313e+01	-4.64163431e+01	-7.27455981e+01	-3.68432831e+01	-1.91338406e-01	5.02370853e+01
294853000	-2.20895920e+00	-1.57980448e+02	-7.22899037e+01	-4.91462460e+01	-7.26876283e+01	-4.08169542e+01	-1.77094072e-01	5.00850354e+01
295138571.429	-2.20657865e+00	-1.58012953e+02	-7.33606121e+01	-4.32813291e+01	-7.22239039e+01	-4.10785937e+01	-1.76869536e-01	5.00595050e+01
295424142.857	-2.20674627e+00	-1.58082288e+02	-7.32768624e+01	-4.08981893e+01	-7.28974300e+01	-4.00640352e+01	-1.85511272e-01	4.98300722e+01
295709714.286	-2.20388520e+00	-1.58113403e+02	-7.36503875e+01	-5.04121884e+01	-7.32132159e+01	-4.26515302e+01	-1.85411147e-01	4.96616799e+01
295995285.714	-2.21109638e+00	-1.58187065e+02	-7.45624144e+01	-4.49277989e+01	-7.28453713e+01	-4.42514426e+01	-1.91912186e-01	4.95598304e+01
296280857.143	-2.21456032e+00	-1.58213808e+02	-7.25104010e+01	-4.41989025e+01	-7.27361720e+01	-4.61220430e+01	-2.01668849e-01	4.94609394e+01
296566428.571	-2.21360210e+00	-1.58283344e+02	-7.49431801e+01	-5.49228757e+01	-7.33197652e+01	-4.28033721e+01	-1.93480461e-01	4.93665048e+01
296852000	-2.21533080e+00	-1.58373317e+02	-7.38408899e+01	-4.32331305e+01	-7.28037714e+01	-4.69639970e+01	-1.86462296e-01	4.92194457e+01
297137571.429	-2.21154483e+00	-1.58421017e+02	-7.33183240e+01	-4.22733715e+01	-7.29021469e+01	-4.79648704e+01	-1.83456622e-01	4.91112850e+01
297423142.857	-2.20754004e+00	-1.58414013e+02	-7.35541654e+01	-4.34080083e+01	-7.33528706e+01	-5.03711971e+01	-1.82403676e-01	4.90074536e+01
297708714.286	-2.20955749e+00	-1.58482000e+02	-7.25325644e+01	-5.10288606e+01	-7.34308621e+01	-4.94857228e+01	-1.88055606e-01	4.88954090e+01
297994285.714	-2.20197701e+00	-1.58509518e+02	-7.38142429e+01	-4.60218501e+01	-7.35957339e+01	-5.14675526e+01	-1.89987026e-01	4.86474956e+01
298279857.143	-2.20705681e+00	-1.58557859e+02	-7.34202413e+01	-5.25328961e+01	-7.31804619e+01	-4.90205836e+01	-1.92250231e-01	4.85138365e+01
298565428.571	-2.20137913e+00	-1.58609182e+02	-7.41650203e+01	-5.23500775e+01	-7.37651243e+01	-4.98428495e+01	-2.09930338e-01	4.84146044e+01
298851000	-2.19897419e+00	-1.58664693e+02	-7.38886711e+01	-5.75751731e+01	-7.40811233e+01	-5.22064901e+01	-2.11004681e-01	4.83768553e+01
299136571.429	-2.19559673e+00	-1.58704830e+02	-7.40961102e+01	-5.75315554e+01	-7.46893142e+01	-5.24082425e+01	-2.18753511e-01	4.82208893e+01
299422142.857	-2.19672323e+00	-1.58737154e+02	-7.47029273e+01	-4.53483461e+01	-7.32952639e+01	-5.45580616e+01	-2.05340268e-01	4.80876918e+01
299707714.286	-2.19278258e+00	-1.58789215e+02	-7.37586763e+01	-5.76727787e+01	-7.50677761e+01	-5.47667156e+01	-1.98836435e-01	4.79736113e+01
299993285.714	-2.19116952e+00	-1.58818846e+02	-7.39915903e+01	-5.75840334e+01	-7.42401308e+01	-5.78369468e+01	-2.13313754e-01	4.78845882e+01
300278857.143	-2.19024876e+00	-1.58858203e+02	-7.48201921e+01	-5.37763179e+01	-7.43914977e+01	-6.03684299e+01	-2.10505902e-01	4.77309565e+01
300564428.571	-2.19118088e+00	-1.58922640e+02	-7.53743841e+01	-5.82091507e+01	-7.56415546e+01	-5.68610393e+01	-2.18566138e-01	4.76462534e+01
300850000	-2.18976796e+00	-1.58971528e+02	-7.59601401e+01	-6.10286235e+01	-7.50311584e+01	-5.67664152e+01	-2.24256731e-01	4.73710508e+01
301135571.429	-2.18839529e+00	-1.59048448e+02	-7.55461828e+01	-6.09904455e+01	-7.50107433e+01	-5.70959389e+01	-2.10932036e-01	4.73149551e+01
301421142.857	-2.18278675e+00	-1.59090904e+02	-7.62834314e+01	-5.10411327e+01	-7.57553921e+01	-5.85093692e+01	-2.21687424e-01	4.72018630e+01
301706714.286	-2.18263463e+00	-1.59151017e+02	-7.64604868e+01	-5.19132754e+01	-7.56233646e+01	-5.84979518e+01	-2.15968305e-01	4.71092352e+01
301992285.714	-2.18106750e+00	-1.59159797e+02	-7.50973535e+01	-5.67726249e+01	-7.58133007e+01	-5.97412244e+01	-2.20713507e-01	4.69019439e+01
302277857.143	-2.18363174e+00	-1.59205901e+02	-7.64205693e+01	-5.42233681e+01	-7.53609182e+01	-5.10599431e+01	-2.15042873e-01	4.67782384e+01
302563428.571	-2.17698246e+00	-1.59255941e+02	-7.62199537e+01	-5.73319444e+01	-7.65280533e+01	-5.99965874e+01	-2.20017118e-01	4.66022829e+01
302849000	-2.17820090e+00	-1.59306215e+02	-7.61102977e+01	-5.75632759e+01	-7.67878214e+01	-6.09308896e+01	-2.19074222e-01	4.64696634e+01
303134571.429	-2.17928803e+00	-1.59358771e+02	-7.70471217e+01	-5.12945849e+01	-7.66565542e+01	-5.87042467e+01	-2.13286303e-01	4.63841081e+01
303420142.857	-2.18042057e+00	-1.59398121e+02	-7.87057781e+01	-5.21411416e+01	-7.64306140e+01	-5.53201639e+01	-2.24594989e-01	4.62031964e+01
303705714.286	-2.17909997e+00	-1.59447693e+02	-7.70426400e+01	-5.69242675e+01	-7.71686118e+01	-5.20180940e+01	-2.25958909e-01	4.60726252e+01
303991285.714	-2.17599434e+00	-1.59508684e+02	-7.80939511e+01	-5.46607914e+01	-7.77806933e+01	-5.50120007e+01	-2.34003147e-01	4.59737758e+01
304276857.143	-2.17632691e+00	-1.59583278e+02	-7.69846784e+01	-5.61442172e+01	-7.65610128e+01	-5.11639491e+01	-2.44612546e-01	4.58176685e+01
304562428.571	-2.17254825e+00	-1.59629701e+02	-7.73543681e+01	-5.44818354e+01	-7.72369679e+01	-5.03237330e+01	-2.45580439e-01	4.56317319e+01
304848000	-2.17098612e+00	-1.59670059e+02	-7.77889961e+01	-5.20468068e+01	-7.65406346e+01	-5.01454194e+01	-2.41661739e-01	4.55231505e+01
305133571.429	-2.17124872e+00	-1.59687279e+02	-7.71069854e+01	-5.66213315e+01	-7.71165086e+01	-4.98419128e+01	-2.36433008e-01	4.53378682e+01
305419142.857	-2.17549709e+00	-1.59754452e+02	-7.63575283e+01	-4.37374429e+01	-7.79015373e+01	-5.53560342e+01	-2.41599559e-01	4.52391266e+01
305704714.286	-2.16608817e+00	-1.59826682e+02	-7.67149169e+01	-5.73380396e+01	-7.69761569e+01	-4.90469148e+01	-2.39060991e-01	4.50106014e+01
305990285.714	-2.16023451e+00	-1.59899960e+02	-7.73896390e+01	-4.73620353e+01	-7.71000730e+01	-5.12762414e+01	-2.45460897e-01	4.48730632e+01
306275857.143	-2.15886637e+00	-1.59950928e+02	-7.74371390e+01	-4.41726333e+01	-7.67568689e+01	-5.45335631e+01	-2.53804903e-01	4.47667459e+01
306561428.571	-2.16124518e+00	-1.60005827e+02	-7.77379726e+01	-5.58870434e+01	-7.79088303e+01	-4.65597561e+01	-2.47798547e-01	4.46439455e+01
306847000	-2.16011717e+00	-1.60051620e+02	-7.65635012e+01	-5.22011181e+01	-7.67715781e+01	-4.98340610e+01	-2.59689510e-01	4.45840531e+01
307132571.429	-2.16392803e+00	-1.60078095e+02	-7.73039602e+01	-5.25791273e+01	-7.66281974e+01	-5.06806072e+01	-2.52485194e-01	4.44101442e+01
307418142.857	-2.16145413e+00	-1.60165422e+02	-7.74867257e+01	-4.93569141e+01	-7.69498801e+01	-5.08206090e+01	-2.50223311e-01	4.42939036e+01
307703714.286	-2.15559861e+00	-1.60229009e+02	-7.59882335e+01	-4.74609406e+01	-7.76472052e+01	-5.19147844e+01	-2.60959394e-01	4.41036395e+01
307989285.714	-2.15442337e+00	-1.60295618e+02	-7.66034197e+01	-5.49443301e+01	-7.65501063e+01	-5.25359118e+01	-2.68759113e-01	4.39638898e+01
308274857.143	-2.15544220e+00	-1.60348661e+02	-7.66987174e+01	-4.71278941e+01	-7.56541292e+01	-5.20584334e+01	-2.74936436e-01	4.38905792e+01
308560428.571	-2.15963898e+00	-1.60408952e+02	-7.68735221e+01	-5.29194662e+01	-7.67176088e+01	-5.07243647e+01	-2.65976907e-01	4.36801336e+01
308846000	-2.15351424e+00	-1.60469798e+02	-7.73282444e+01	-5.17658983e+01	-7.74850128e+01	-5.92708228e+01	-2.63008667e-01	4.34678798e+01
309131571.429	-2.14995842e+00	-1.60494537e+02	-7.65786700e+01	-6.08896132e+01	-7.66713450e+01	-5.78448456e+01	-2.54674368e-01	4.34558019e+01
309417142.857	-2.15202713e+00	-1.60554868e+02	-7.84290882e+01	-6.06867450e+01	-7.72848176e+01	-5.92709488e+01	-2.63687811e-01	4.32889942e+01
309702714.286	-2.15504990e+00	-1.60620861e+02	-7.69900549e+01	-6.04187973e+01	-7.76247120e+01	-5.71354224e+01	-2.62188451e-01	4.31439270e+01
309988285.714	-2.15659857e+00	-1.60670789e+02	-7.66622270e+01	-6.14813865e+01	-7.75156487e+01	-5.72523959e+01	-2.72380214e-01	4.30299171e+01
310273857.143	-2.14887787e+00	-1.60736993e+02	-7.84265866e+01	-6.23178336e+01	-7.80713453e+01	-6.11252449e+01	-2.59631763e-01	4.28577224e+01
310559428.571	-2.14472984e+00	-1.60800003e+02	-7.76942324e+01	-7.19832602e+01	-7.69850475e+01	-6.24174845e+01	-2.53601539e-01	4.26236680e+01
310845000	-2.14314350e+00	-1.60892436e+02	-7.66349839e+01	-6.91891912e+01	-7.71927680e+01	-6.64268394e+01	-2.55652805e-01	4.24959683e+01
311130571.429	-2.14285589e+00	-1.60942984e+02	-7.81415824e+01	-6.65208685e+01	-7.83697245e+01	-6.84322625e+01	-2.61702547e-01	4.22954986e+01
311416142.857	-2.14095343e+00	-1.60989721e+02	-7.85568242e+01	-6.45187925e+01	-7.81120568e+01	-6.43944867e+01	-2.78332248e-01	4.21707851e+01
311701714.286	-2.13948839e+00	-1.61027461e+02	-7.88122136e+01	-7.01924000e+01	-7.85274302e+01	-6.75870014e+01	-2.71864166e-01	4.21378872e+01
311987285.714	-2.13698064e+00	-1.61089151e+02	-7.99654164e+01	-5.43673629e+01	-7.80729311e+01	-6.18292076e+01	-2.73537827e-01	4.19369607e+01
312272857.143	-2.13806882e+00	-1.61123448e+02	-8.14209631e+01	-7.19290640e+01	-7.82238829e+01	-5.84427627e+01	-2.63992820e-01	4.17939942e+01
312558428.571	-2.13596864e+00	-1.61187049e+02	-7.99870696e+01	-5.18438523e+01	-7.88879339e+01	-6.21685611e+01	-2.60477795e-01	4.16393590e+01
312844000	-2.13492164e+00	-1.61287436e+02	-7.95071085e+01	-6.01456656e+01	-7.94138356e+01	-6.29793484e+01	-2.60914885e-01	4.15153295e+01
313129571.429	-2.13560344e+00	-1.61353903e+02	-8.08551050e+01	-6.06348009e+01	-7.90780688e+01	-6.74091730e+01	-2.63017311e-01	4.13533448e+01
313415142.857	-2.13487083e+00	-1.61457851e+02	-7.98430089e+01	-6.17084020e+01	-7.98505817e+01	-6.09251881e+01	-2.52366353e-01	4.12866463e+01
313700714.286	-2.12498507e+00	-1.61520263e+02	-8.05243682e+01	-5.86415091e+01	-7.96446574e+01	-6.35741292e+01	-2.47015593e-01	4.11068093e+01
313986285.714	-2.12689558e+00	-1.61506468e+02	-7.95723163e+01	-6.54260471e+01	-7.91692700e+01	-6.74149979e+01	-2.48941119e-01	4.10329973e+01
314271857.143	-2.12077652e+00	-1.61547397e+02	-8.14800275e+01	-5.78945167e+01	-7.96748305e+01	-6.24325646e+01	-2.56905390e-01	4.08639649e+01
314557428.571	-2.12086616e+00	-1.61622813e+02	-8.14377662e+01	-6.10123257e+01	-7.96158691e+01	-6.65353751e+01	-2.52487953e-01	4.07655245e+01
314843000	-2.11731980e+00	-1.61682876e+02	-8.20743523e+01	-6.37991487e+01	-8.06796802e+01	-6.40110770e+01	-2.43436243e-01	4.05678262e+01
315128571.429	-2.11546701e+00	-1.61751148e+02	-8.00398343e+01	-6.71725270e+01	-8.00859379e+01	-6.43111314e+01	-2.46840888e-01	4.04368532e+01
315414142.857	-2.11611183e+00	-1.61796201e+02	-8.05972806e+01	-6.41045268e+01	-8.00550176e+01	-7.44287792e+01	-2.33408643e-01	4.03053476e+01
315699714.286	-2.10842180e+00	-1.61877513e+02	-7.98251569e+01	-5.57880176e+01	-8.12665789e+01	-4.92736779e+01	-2.28998161e-01	4.01621234e+01
315985285.714	-2.10830030e+00	-1.61962545e+02	-8.11430786e+01	-7.25422205e+01	-8.07675610e+01	-6.37565453e+01	-2.17197514e-01	3.99636079e+01
316270857.143	-2.10197777e+00	-1.62028726e+02	-8.00269022e+01	-4.38357379e+01	-8.12957809e+01	-6.22201963e+01	-2.10494461e-01	3.98232066e+01
316556428.571	-2.09994669e+00	-1.62093899e+02	-8.16929194e+01	-7.40673549e+01	-8.04483515e+01	-5.94751529e+01	-2.12183327e-01	3.96933555e+01
316842000	-2.09799136e+00	-1.62118430e+02	-8.17264623e+01	-6.41564552e+01	-8.01694346e+01	-6.84135670e+01	-2.03253929e-01	3.96066697e+01
317127571.429	-2.09541380e+00	-1.62181069e+02	-8.25969877e+01	-6.18037530e+01	-8.08932830e+01	-7.21693449e+01	-2.09996961e-01	3.95113642e+01
317413142.857	-2.09532953e+00	-1.62209421e+02	-8.28520314e+01	-7.51478504e+01	-8.09734303e+01	-6.42291756e+01	-2.23172666e-01	3.93522434e+01
317698714.286	-2.09338610e+00	-1.62287231e+02	-8.09517397e+01	-7.57751918e+01	-8.18892397e+01	-6.77594267e+01	-2.28440699e-01	3.92438991e+01
317984285.714	-2.09230073e+00	-1.62335775e+02	-8.21104181e+01	-5.80376918e+01	-8.20100269e+01	-6.82024625e+01	-2.16962458e-01	3.91495812e+01
318269857.143	-2.09396823e+00	-1.62366289e+02	-8.21655410e+01	-7.94497746e+01	-8.16377443e+01	-7.76687176e+01	-2.11434014e-01	3.89804656e+01
318555428.571	-2.08618597e+00	-1.62397445e+02	-8.37187222e+01	-8.77348061e+01	-8.31644245e+01	-7.37764027e+01	-2.04748773e-01	3.88322007e+01
318841000	-2.08416425e+00	-1.62437145e+02	-8.45025767e+01	-7.04556192e+01	-8.09612553e+01	-7.82306953e+01	-2.03769450e-01	3.87124377e+01
319126571.429	-2.08012315e+00	-1.62510320e+02	-8.60679187e+01	-7.67907054e+01	-8.28027336e+01	-7.67895325e+01	-2.03610664e-01	3.85446985e+01
319412142.857	-2.08381609e+00	-1.62542365e+02	-8.17709097e+01	-7.95425292e+01	-8.16897084e+01	-7.86407530e+01	-1.99781863e-01	3.83960370e+01
319697714.286	-2.08035124e+00	-1.62596918e+02	-8.51121750e+01	-8.63983189e+01	-8.31590880e+01	-7.77182706e+01	-2.00848624e-01	3.82451321e+01
319983285.714	-2.07434312e+00	-1.62674814e+02	-8.28101679e+01	-9.04294111e+01	-8.58006021e+01	-7.96616945e+01	-2.05096775e-01	3.81965029e+01
320268857.143	-2.07270240e+00	-1.62700350e+02	-8.67044744e+01	-6.77900637e+01	-8.44412457e+01	-8.60747576e+01	-2.02832444e-01	3.80532735e+01
320554428.571	-2.07171450e+00	-1.62752316e+02	-8.61686999e+01	-8.08708508e+01	-8.60998208e+01	-8.41075794e+01	-2.05442116e-01	3.79382671e+01
320840000	-2.06952618e+00	-1.62764732e+02	-8.84436020e+01	-6.84281257e+01	-8.56515067e+01	-7.35527966e+01	-2.02084869e-01	3.78428291e+01
321125571.429	-2.06481934e+00	-1.62793264e+02	-8.89841495e+01	-7.34514198e+01	-8.95555088e+01	-7.22701415e+01	-1.99032732e-01	3.76889139e+01
321411142.857	-2.06600630e+00	-1.62822053e+02	-8.82815598e+01	-6.13304275e+01	-9.05073351e+01	-5.44842435e+01	-1.91877629e-01	3.75418132e+01
321696714.286	-2.05989132e+00	-1.62877205e+02	-8.94944804e+01	-3.79112705e+01	-8.99283163e+01	-8.04872073e+01	-1.94894487e-01	3.73783050e+01
321982285.714	-2.06605730e+00	-1.62959560e+02	-9.20804942e+01	-8.96583783e+01	-8.91020760e+01	-8.34853256e+01	-1.96056049e-01	3.72033246e+01
322267857.143	-2.06628832e+00	-1.63017911e+02	-9.54916498e+01	-7.78889800e+01	-8.97575618e+01	-8.92825046e+01	-1.88544245e-01	3.70781647e+01
322553428.571	-2.06502130e+00	-1.63072863e+02	-9.45977791e+01	-5.12654985e+01	-9.34799901e+01	-8.68507595e+01	-1.84897161e-01	3.69911506e+01
322839000	-2.06355543e+00	-1.63075550e+02	-8.96413159e+01	-1.23436238e+02	-9.27178528e+01	-8.26342872e+01	-1.82997311e-01	3.68775823e+01
323124571.429	-2.06485943e+00	-1.63149848e+02	-9.48248508e+01	-2.51827299e+01	-9.62237975e+01	-8.40240680e+01	-1.80208947e-01	3.67258764e+01
323410142.857	-2.06009639e+00	-1.63179244e+02	-9.25556649e+01	-4.60779995e+00	-9.45317460e+01	-3.55320083e+01	-1.76289022e-01	3.65956092e+01
323695714.286	-2.07144921e+00	-1.63225810e+02	-1.25741589e+02	1.72402312e+01	-9.41638686e+01	-4.46971639e+01	-1.72478651e-01	3.65365548e+01
323981285.714	-2.06197006e+00	-1.63295802e+02	-9.54465504e+01	-7.08866216e-01	-9.58440762e+01	-1.67227165e+01	-1.69700762e-01	3.64743445e+01
324266857.143	-2.06418961e+00	-1.63325955e+02	-9.99063511e+01	-1.57396061e+01	-9.46784223e+01	2.03304016e+01	-1.63941748e-01	3.63795683e+01
324552428.571	-2.05349309e+00	-1.63294656e+02	-1.09002413e+02	1.11032156e+02	-9.63114202e+01	4.05347356e+01	-1.61345006e-01	3.62951235e+01
324838000	-2.05533017e+00	-1.63378921e+02	-9.68104792e+01	5.62619760e+01	-9.24363877e+01	2.26072223e+01	-1.61435634e-01	3.62120818e+01
325123571.429	-2.05576913e+00	-1.63447569e+02	-9.37222178e+01	4.03211245e+01	-9.60881412e+01	9.60108295e+00	-1.57826261e-01	3.61025153e+01
325409142.857	-2.05644227e+00	-1.63493656e+02	-9.13308146e+01	8.89497625e+01	-9.41269285e+01	2.57414666e+01	-1.57710254e-01	3.59759372e+01
325694714.286	-2.05008113e+00	-1.63575038e+02	-9.17128660e+01	7.79564972e+01	-8.97743329e+01	4.73056964e+01	-1.58724802e-01	3.58087857e+01
325980285.714	-2.04454963e+00	-1.63606640e+02	-8.85719606e+01	4.61616418e+01	-9.48465944e+01	6.09753532e+01	-1.55631973e-01	3.56469533e+01
326265857.143	-2.03823938e+00	-1.63657926e+02	-8.77868675e+01	6.96635511e+01	-9.33155228e+01	3.91505918e+01	-1.57275937e-01	3.55506275e+01
326551428.571	-2.04676822e+00	-1.63698050e+02	-9.26760581e+01	6.44541105e+01	-8.88064377e+01	4.77916805e+01	-1.57309665e-01	3.54176135e+01
326837000	-2.04385077e+00	-1.63752276e+02	-8.48071411e+01	6.31872299e+01	-8.86030434e+01	5.42803751e+01	-1.57523254e-01	3.52999867e+01
327122571.429	-2.04433210e+00	-1.63806902e+02	-8.54880620e+01	5.84888921e+01	-8.71114101e+01	4.99360651e+01	-1.57505463e-01	3.52015783e+01
327408142.857	-2.03239168e+00	-1.63835908e+02	-8.56396357e+01	6.07396953e+01	-8.76118948e+01	7.61680435e+01	-1.55509504e-01	3.50862686e+01
327693714.286	-2.02953095e+00	-1.63871867e+02	-8.43981684e+01	5.06205092e+01	-8.59342479e+01	6.69768098e+01	-1.49226424e-01	3.49966214e+01
327979285.714	-2.03341093e+00	-1.63942111e+02	-8.41279073e+01	5.97493515e+01	-8.46434018e+01	6.23172145e+01	-1.46800908e-01	3.48632825e+01
328264857.143	-2.02863904e+00	-1.63968154e+02	-8.04984273e+01	6.17790267e+01	-8.41886360e+01	5.13329422e+01	-1.49873199e-01	3.47429513e+01
328550428.571	-2.03357774e+00	-1.63978015e+02	-8.16556852e+01	5.39258397e+01	-8.41565560e+01	6.02012301e+01	-1.48345924e-01	3.46270502e+01
328836000	-2.02306900e+00	-1.64060906e+02	-8.23180842e+01	5.39221249e+01	-8.15512945e+01	5.40571798e+01	-1.48380208e-01	3.44193446e+01
329121571.429	-2.02213181e+00	-1.64115012e+02	-8.19768210e+01	4.98796700e+01	-8.09212713e+01	6.22487170e+01	-1.51196683e-01	3.42342772e+01
329407142.857	-2.01703238e+00	-1.64129501e+02	-7.92308199e+01	5.79315163e+01	-8.09755472e+01	5.24437120e+01	-1.47551802e-01	3.41093934e+01
329692714.286	-2.01864490e+00	-1.64111489e+02	-7.97132944e+01	5.63402488e+01	-8.04758951e+01	5.60026529e+01	-1.41267650e-01	3.40312701e+01
329978285.714	-2.02192347e+00	-1.64221450e+02	-7.92641754e+01	5.79602853e+01	-7.95898374e+01	5.93303333e+01	-1.36108259e-01	3.39215713e+01
330263857.143	-2.00762064e+00	-1.64297506e+02	-7.82997953e+01	4.87735322e+01	-7.96570641e+01	4.35853272e+01	-1.34756487e-01	3.38144758e+01
330549428.571	-2.01310459e+00	-1.64336259e+02	-7.85746054e+01	5.46898260e+01	-8.02333102e+01	5.19356472e+01	-1.35180625e-01	3.37462277e+01
330835000	-2.01150180e+00	-1.64394657e+02	-7.88129654e+01	4.87114953e+01	-7.92852639e+01	4.68758364e+01	-1.38417475e-01	3.36657660e+01
331120571.429	-2.00622668e+00	-1.64430596e+02	-7.73079026e+01	5.49996929e+01	-7.90102539e+01	4.46322599e+01	-1.39506447e-01	3.35467651e+01
331406142.857	-2.00163992e+00	-1.64503764e+02	-7.69748750e+01	5.26513685e+01	-7.90148065e+01	5.20426515e+01	-1.45894292e-01	3.33872677e+01
331691714.286	-1.99354176e+00	-1.64548455e+02	-7.73668437e+01	5.11631792e+01	-7.84013227e+01	4.44938013e+01	-1.55929126e-01	3.32061528e+01
331977285.714	-1.99654783e+00	-1.64561950e+02	-7.80426473e+01	4.84307693e+01	-7.77803181e+01	4.84406375e+01	-1.48676060e-01	3.30475523e+01
332262857.143	-1.99496750e+00	-1.64634453e+02	-7.73710985e+01	4.51541124e+01	-7.77375644e+01	4.18373369e+01	-1.43972815e-01	3.29321764e+01
332548428.571	-1.99449162e+00	-1.64651982e+02	-7.59482830e+01	4.87299221e+01	-7.68978750e+01	4.46336766e+01	-1.41964150e-01	3.27527595e+01
332834000	-1.99246629e+00	-1.64724198e+02	-7.60281354e+01	4.52888077e+01	-7.60177709e+01	4.61153142e+01	-1.45089135e-01	3.26362474e+01
333119571.429	-1.98235078e+00	-1.64750708e+02	-7.53426391e+01	4.02254505e+01	-7.64814269e+01	4.32096467e+01	-1.47066006e-01	3.25425724e+01
333405142.857	-1.98463421e+00	-1.64832723e+02	-7.62111604e+01	4.57131287e+01	-7.59398320e+01	4.09752359e+01	-1.49000080e-01	3.24899491e+01
333690714.286	-1.97876353e+00	-1.64855862e+02	-7.43128611e+01	3.81626031e+01	-7.57260490e+01	3.46549294e+01	-1.48603057e-01	3.24056978e+01
333976285.714	-1.97495243e+00	-1.64905174e+02	-7.42582359e+01	3.50130659e+01	-7.56091683e+01	3.88550517e+01	-1.49116871e-01	3.22691734e+01
334261857.143	-1.97408410e+00	-1.64966444e+02	-7.41550433e+01	3.39910794e+01	-7.54691508e+01	3.36136180e+01	-1.52553019e-01	3.21396124e+01
334547428.571	-1.97384342e+00	-1.65020997e+02	-7.47544351e+01	3.41748312e+01	-7.49442486e+01	3.97228573e+01	-1.51804519e-01	3.19926375e+01
334833000	-1.97406055e+00	-1.65003618e+02	-7.44020460e+01	3.02551207e+01	-7.46441578e+01	3.18968400e+01	-1.60307137e-01	3.18582894e+01
335118571.429	-1.97477536e+00	-1.65076883e+02	-7.43906078e+01	3.69121375e+01	-7.57539086e+01	3.24523285e+01	-1.66580596e-01	3.17308209e+01
335404142.857	-1.96950030e+00	-1.65140954e+02	-7.42181720e+01	3.02663005e+01	-7.49630036e+01	3.53154057e+01	-1.70063397e-01	3.15461919e+01
335689714.286	-1.97428049e+00	-1.65188561e+02	-7.39470343e+01	2.63794768e+01	-7.47123561e+01	3.25700012e+01	-1.60925058e-01	3.14177624e+01
335975285.714	-1.96530074e+00	-1.65205355e+02	-7.36378389e+01	3.00689658e+01	-7.50011080e+01	2.89019067e+01	-1.61389319e-01	3.13427240e+01
336260857.143	-1.96288269e+00	-1.65218010e+02	-7.31937679e+01	2.49055777e+01	-7.44378105e+01	2.97512036e+01	-1.60498773e-01	3.12839659e+01
336546428.571	-1.96087346e+00	-1.65339324e+02	-7.35999778e+01	2.79424939e+01	-7.38396013e+01	2.32186634e+01	-1.61439074e-01	3.12262924e+01
336832000	-1.95652118e+00	-1.65350866e+02	-7.33127479e+01	2.89612320e+01	-7.39205775e+01	2.55614816e+01	-1.65081096e-01	3.11928681e+01
337117571.429	-1.95913003e+00	-1.65335859e+02	-7.34737738e+01	2.29157118e+01	-7.33151478e+01	2.55091875e+01	-1.67988028e-01	3.11258207e+01
337403142.857	-1.96026761e+00	-1.65368424e+02	-7.31553529e+01	2.17921491e+01	-7.35864093e+01	2.28784866e+01	-1.63306718e-01	3.09405556e+01
337688714.286	-1.95943248e+00	-1.65437708e+02	-7.29196609e+01	2.39130793e+01	-7.33115827e+01	2.51690600e+01	-1.52079972e-01	3.08062538e+01
337974285.714	-1.95646798e+00	-1.65520253e+02	-7.28586265e+01	2.23812785e+01	-7.30984332e+01	2.56148137e+01	-1.50026536e-01	3.06448283e+01
338259857.143	-1.95475540e+00	-1.65541255e+02	-7.22817286e+01	2.19202183e+01	-7.37397278e+01	2.52061927e+01	-1.41166217e-01	3.05223835e+01
338545428.571	-1.95271781e+00	-1.65531356e+02	-7.22626959e+01	2.25856032e+01	-7.33728264e+01	2.08960820e+01	-1.43664310e-01	3.03623647e+01
338831000	-1.95941333e+00	-1.65605020e+02	-7.29353851e+01	2.33496669e+01	-7.27266164e+01	1.94594530e+01	-1.37304093e-01	3.02560037e+01
339116571.429	-1.95741131e+00	-1.65581077e+02	-7.35838307e+01	1.90132796e+01	-7.28804262e+01	1.80145946e+01	-1.40891519e-01	3.01447914e+01
339402142.857	-1.94705155e+00	-1.65622263e+02	-7.19739890e+01	1.65382536e+01	-7.21108456e+01	2.00846811e+01	-1.34953546e-01	3.00342726e+01
339687714.286	-1.94353342e+00	-1.65706778e+02	-7.21120327e+01	1.31275461e+01	-7.24840094e+01	1.72933190e+01	-1.38709782e-01	2.98790077e+01
339973285.714	-1.93685853e+00	-1.65698902e+02	-7.24695968e+01	1.45474932e+01	-7.16518364e+01	1.99626329e+01	-1.36164909e-01	2.97990193e+01
340258857.143	-1.93689512e+00	-1.65788576e+02	-7.21950072e+01	1.21600196e+01	-7.25115979e+01	1.21068927e+01	-1.38042888e-01	2.96546456e+01
340544428.571	-1.93568066e+00	-1.65775284e+02	-7.10816115e+01	1.52573408e+01	-7.20788211e+01	1.46874502e+01	-1.39268968e-01	2.95625339e+01
340830000	-1.93801135e+00	-1.65817097e+02	-7.20892010e+01	1.20576034e+01	-7.17497570e+01	1.24176748e+01	-1.42834713e-01	2.95044423e+01
341115571.429	-1.93567799e+00	-1.65873658e+02	-7.18449412e+01	9.16415439e+00	-7.10841286e+01	1.38702086e+01	-1.41028026e-01	2.93571980e+01
341401142.857	-1.94637605e+00	-1.65887943e+02	-7.15229030e+01	1.37207835e+01	-7.14673061e+01	4.59145323e+00	-1.44826599e-01	2.92512197e+01
341686714.286	-1.94223813e+00	-1.65935540e+02	-7.12969351e+01	1.04637937e+01	-7.16206232e+01	7.48559485e+00	-1.51667067e-01	2.91961158e+01
341972285.714	-1.94331082e+00	-1.65921829e+02	-7.15918819e+01	8.13044539e+00	-7.13587169e+01	8.17073410e+00	-1.54979765e-01	2.90887677e+01
342257857.143	-1.94717429e+00	-1.65998500e+02	-7.23964100e+01	1.12919934e+01	-7.16356192e+01	4.38743958e+00	-1.38534841e-01	2.89172275e+01
342543428.571	-1.94302447e+00	-1.66106440e+02	-7.21517745e+01	3.21134784e+00	-7.21540463e+01	2.83136185e+00	-1.38674659e-01	2.87953096e+01
342829000	-1.94329585e+00	-1.66077450e+02	-7.14860291e+01	3.52685477e+00	-7.14146422e+01	6.58254270e+00	-1.34700981e-01	2.86178719e+01
343114571.429	-1.94005479e+00	-1.66111781e+02	-7.13775208e+01	1.12427359e+01	-7.17560132e+01	5.96933378e+00	-1.33872679e-01	2.84317580e+01
343400142.857	-1.92809616e+00	-1.66102561e+02	-7.21463511e+01	5.59752039e+00	-7.19691015e+01	2.05960916e+00	-1.30481108e-01	2.83429244e+01
343685714.286	-1.93497823e+00	-1.66147028e+02	-7.21057685e+01	2.79741522e+00	-7.15426870e+01	2.71814267e+00	-1.29990273e-01	2.82381012e+01
343971285.714	-1.93953461e+00	-1.66224788e+02	-7.19323747e+01	7.64521012e+00	-7.13194965e+01	5.30769633e+00	-1.24476119e-01	2.81682655e+01
344256857.143	-1.93944646e+00	-1.66257187e+02	-7.14712789e+01	3.91045465e+00	-7.10399941e+01	3.44507937e+00	-1.28200986e-01	2.80282931e+01
344542428.571	-1.93318616e+00	-1.66265317e+02	-7.12285042e+01	4.56173540e+00	-7.16044678e+01	1.80452390e+00	-1.30542595e-01	2.78574337e+01
344828000	-1.92957505e+00	-1.66314725e+02	-7.12527986e+01	9.56544785e+00	-7.17497192e+01	3.00453461e+00	-1.40939012e-01	2.77200249e+01
345113571.429	-1.93108383e+00	-1.66339652e+02	-7.14001211e+01	7.33590794e+00	-7.16677709e+01	1.26729273e+00	-1.42349112e-01	2.77378256e+01
345399142.857	-1.93394382e+00	-1.66444470e+02	-7.13405335e+01	1.80158911e+00	-7.10872533e+01	4.92051636e+00	-1.49129661e-01	2.76361502e+01
345684714.286	-1.91784205e+00	-1.66433962e+02	-7.15292111e+01	3.98827797e+00	-7.16925357e+01	1.19643246e+00	-1.53273954e-01	2.75009106e+01
345970285.714	-1.92229578e+00	-1.66442377e+02	-7.19151206e+01	1.79101040e+00	-7.14793404e+01	1.65031038e+00	-1.66080385e-01	2.74650519e+01
346255857.143	-1.92825606e+00	-1.66516568e+02	-7.16460828e+01	1.73100296e+00	-7.12213063e+01	-4.08032573e-01	-1.56963279e-01	2.73752475e+01
346541428.571	-1.92183944e+00	-1.66518127e+02	-7.11656069e+01	1.75974088e+00	-7.13796472e+01	2.85470026e+00	-1.55001263e-01	2.72811311e+01
346827000	-1.92186284e+00	-1.66575195e+02	-7.12213122e+01	4.09214943e-01	-7.11999124e+01	-1.56986445e+00	-1.58256666e-01	2.71413307e+01
347112571.429	-1.92866914e+00	-1.66554777e+02	-7.08112396e+01	2.20148051e+00	-7.11224425e+01	3.39761268e+00	-1.60311602e-01	2.70436743e+01
347398142.857	-1.92617904e+00	-1.66632604e+02	-7.11427023e+01	2.07240124e+00	-7.08775340e+01	4.51622579e-01	-1.59198766e-01	2.68863820e+01
347683714.286	-1.91974969e+00	-1.66674431e+02	-7.06081320e+01	-1.44427243e+00	-7.10058686e+01	3.83168156e+00	-1.66874013e-01	2.68162850e+01
347969285.714	-1.92026076e+00	-1.66678300e+02	-7.04533663e+01	2.60559210e+00	-7.06385482e+01	-1.77031002e+00	-1.69067834e-01	2.66745667e+01
348254857.143	-1.92425813e+00	-1.66674016e+02	-7.07510665e+01	-1.15972810e+00	-7.05265139e+01	-6.05369486e-01	-1.70984221e-01	2.65513061e+01
348540428.571	-1.92538189e+00	-1.66732686e+02	-7.10437379e+01	5.16150986e-01	-7.05786273e+01	2.79436520e+00	-1.75779630e-01	2.64144025e+01
348826000	-1.92795955e+00	-1.66758438e+02	-7.10209437e+01	4.08266378e+00	-7.08935204e+01	-5.65502482e-01	-1.74153459e-01	2.63154972e+01
349111571.429	-1.92823245e+00	-1.66787155e+02	-7.06710825e+01	2.52747209e+00	-7.02168479e+01	2.20953607e+00	-1.68106083e-01	2.62447865e+01
349397142.857	-1.92775285e+00	-1.66770994e+02	-7.09196914e+01	2.45814584e+00	-7.01479811e+01	1.99765627e+00	-1.68010431e-01	2.60983146e+01
349682714.286	-1.92131078e+00	-1.66869245e+02	-7.09239363e+01	1.04510598e+00	-7.06711958e+01	-7.05259180e-01	-1.62039738e-01	2.60042026e+01
349968285.714	-1.92575556e+00	-1.66906692e+02	-7.03677007e+01	7.38468992e-01	-7.01958547e+01	1.08209469e+00	-1.68783905e-01	2.58309478e+01
350253857.143	-1.92415794e+00	-1.66930185e+02	-6.98065321e+01	7.86096942e-01	-6.98790350e+01	1.94309237e+00	-1.67705609e-01	2.57270232e+01
350539428.571	-1.92286886e+00	-1.66960551e+02	-6.97106744e+01	4.69277217e-01	-6.97240948e+01	-1.13088713e+00	-1.72742049e-01	2.55802330e+01
350825000	-1.92710289e+00	-1.66946273e+02	-6.91095262e+01	7.45481800e-01	-6.94182912e+01	-2.12608030e+00	-1.80848449e-01	2.53987098e+01
351110571.429	-1.92729253e+00	-1.66984236e+02	-6.98276433e+01	2.59410042e+00	-6.93473471e+01	-2.23743050e+00	-1.76255910e-01	2.53053712e+01
351396142.857	-1.92647806e+00	-1.67033344e+02	-6.89337958e+01	-2.69313031e-03	-6.94918031e+01	-2.31672967e+00	-1.75998754e-01	2.51431445e+01
351681714.286	-1.92591799e+00	-1.67038175e+02	-6.94409439e+01	-6.08120809e-01	-6.89168638e+01	-3.68269966e+00	-1.72601837e-01	2.50867901e+01
351967285.714	-1.93518467e+00	-1.67065020e+02	-6.83086762e+01	-1.84807882e+00	-6.89374004e+01	-5.30344220e+00	-1.79751918e-01	2.49575355e+01
352252857.143	-1.93806843e+00	-1.67092930e+02	-6.87308486e+01	-3.91064594e+00	-6.89315495e+01	-2.03822781e+00	-1.74899829e-01	2.48414147e+01
352538428.571	-1.93613679e+00	-1.67122150e+02	-6.84282600e+01	-7.12175282e+00	-6.90607302e+01	-5.71567697e+00	-1.75070075e-01	2.47352910e+01
352824000	-1.93175534e+00	-1.67188107e+02	-6.84847283e+01	-4.91588735e+00	-6.86452503e+01	-5.95828250e+00	-1.75603426e-01	2.45934013e+01
353109571.429	-1.93691605e+00	-1.67195616e+02	-6.81559999e+01	-3.19059613e+00	-6.85566580e+01	-6.17820798e+00	-1.79364694e-01	2.44457230e+01
353395142.857	-1.93278053e+00	-1.67246354e+02	-6.78674053e+01	-6.97553733e+00	-6.84193968e+01	-6.19625960e+00	-1.76932113e-01	2.43204603e+01
353680714.286	-1.92903233e+00	-1.67256172e+02	-6.83204842e+01	-6.57295655e+00	-6.82550600e+01	-8.95350654e+00	-1.68947196e-01	2.41466932e+01
353966285.714	-1.93385565e+00	-1.67281881e+02	-6.81395449e+01	-6.62110941e+00	-6.80645664e+01	-6.75579200e+00	-1.70236352e-01	2.41292190e+01
354251857.143	-1.93688174e+00	-1.67338487e+02	-6.79231602e+01	-8.03982247e+00	-6.80007831e+01	-9.29684225e+00	-1.81281520e-01	2.39847825e+01
354537428.571	-1.94343022e+00	-1.67361391e+02	-6.80398992e+01	-8.43071384e+00	-6.79391718e+01	-1.17706901e+01	-1.79564160e-01	2.38513514e+01
354823000	-1.93961610e+00	-1.67383035e+02	-6.80850353e+01	-1.08813093e+01	-6.78515408e+01	-1.17536938e+01	-1.89535026e-01	2.37255431e+01
355108571.429	-1.94705700e+00	-1.67436699e+02	-6.79021152e+01	-1.19348809e+01	-6.75275963e+01	-1.21328108e+01	-1.92487615e-01	2.35735048e+01
355394142.857	-1.94192723e+00	-1.67449270e+02	-6.78195633e+01	-1.32798020e+01	-6.77612589e+01	-1.26578519e+01	-1.82342583e-01	2.35252629e+01
355679714.286	-1.93859080e+00	-1.67509483e+02	-6.73906796e+01	-1.50714765e+01	-6.75845513e+01	-1.35046796e+01	-1.80528938e-01	2.34149217e+01
355965285.714	-1.94170872e+00	-1.67526717e+02	-6.71191116e+01	-1.13840376e+01	-6.74790025e+01	-1.28126683e+01	-1.77159288e-01	2.32869878e+01
356250857.143	-1.94191692e+00	-1.67561348e+02	-6.72901038e+01	-1.30616602e+01	-6.71667156e+01	-1.44838007e+01	-1.83245633e-01	2.31173544e+01
356536428.571	-1.94239171e+00	-1.67606430e+02	-6.73981675e+01	-1.17336603e+01	-6.73555521e+01	-1.49743022e+01	-1.92468558e-01	2.30300351e+01
356822000	-1.94192004e+00	-1.67648826e+02	-6.76063041e+01	-1.64843194e+01	-6.72984108e+01	-1.63288088e+01	-1.91695495e-01	2.28675431e+01
357107571.429	-1.94249214e+00	-1.67661185e+02	-6.70666198e+01	-1.75173692e+01	-6.73071997e+01	-1.74731312e+01	-1.92795850e-01	2.27487015e+01
357393142.857	-1.94350496e+00	-1.67717968e+02	-6.68937301e+01	-1.70542054e+01	-6.71321566e+01	-1.94610371e+01	-1.85330994e-01	2.26440681e+01
357678714.286	-1.94113120e+00	-1.67752509e+02	-6.68260417e+01	-1.81094291e+01	-6.72011149e+01	-1.90304542e+01	-1.86924112e-01	2.25518726e+01
357964285.714	-1.94538763e+00	-1.67797195e+02	-6.69005552e+01	-2.00364995e+01	-6.68795141e+01	-2.12307918e+01	-1.85881039e-01	2.23549619e+01
358249857.143	-1.94380789e+00	-1.67806489e+02	-6.70475447e+01	-1.89628317e+01	-6.71877059e+01	-2.24069132e+01	-1.96870635e-01	2.22914413e+01
358535428.571	-1.94396817e+00	-1.67873008e+02	-6.67335680e+01	-2.12542466e+01	-6.72560806e+01	-2.22897938e+01	-1.93646004e-01	2.21088756e+01
358821000	-1.94775812e+00	-1.67868948e+02	-6.64575795e+01	-2.42066597e+01	-6.67758402e+01	-2.30467110e+01	-1.96016368e-01	2.20087134e+01
359106571.429	-1.94789372e+00	-1.67927549e+02	-6.66430392e+01	-2.14080017e+01	-6.66271327e+01	-2.34675601e+01	-1.99760404e-01	2.18682102e+01
359392142.857	-1.94806174e+00	-1.67950227e+02	-6.63929436e+01	-2.59589433e+01	-6.69583621e+01	-2.27130229e+01	-1.93540133e-01	2.17045164e+01
359677714.286	-1.94914520e+00	-1.67977896e+02	-6.65655739e+01	-2.49811619e+01	-6.67382822e+01	-2.29002501e+01	-1.93600321e-01	2.16096576e+01
359963285.714	-1.94544009e+00	-1.67977004e+02	-6.64325221e+01	-2.46168499e+01	-6.66545607e+01	-2.68161200e+01	-1.87931614e-01	2.15389406e+01
360248857.143	-1.94465025e+00	-1.68016187e+02	-6.63869172e+01	-2.51977679e+01	-6.65278460e+01	-2.61900567e+01	-1.91013003e-01	2.13557114e+01
360534428.571	-1.94252749e+00	-1.68037419e+02	-6.63703929e+01	-2.44640155e+01	-6.63981411e+01	-2.71703535e+01	-1.93447375e-01	2.12384794e+01
360820000	-1.94247012e+00	-1.68093815e+02	-6.64284407e+01	-2.77316783e+01	-6.61149960e+01	-2.62239499e+01	-1.91619349e-01	2.11393664e+01
361105571.429	-1.94677424e+00	-1.68114324e+02	-6.60719807e+01	-2.65825402e+01	-6.63477259e+01	-2.78686341e+01	-1.97592437e-01	2.09257965e+01
361391142.857	-1.94578359e+00	-1.68148391e+02	-6.62318362e+01	-2.86375785e+01	-6.63318060e+01	-2.98819524e+01	-2.05030884e-01	2.07488492e+01
361676714.286	-1.94704690e+00	-1.68173832e+02	-6.58504947e+01	-3.04126408e+01	-6.60721957e+01	-3.00306598e+01	-1.96397342e-01	2.06291336e+01
361962285.714	-1.94019175e+00	-1.68198824e+02	-6.61910262e+01	-2.99598997e+01	-6.60073756e+01	-3.28330292e+01	-2.05264993e-01	2.04910090e+01
362247857.143	-1.94043481e+00	-1.68214705e+02	-6.59752875e+01	-3.29784758e+01	-6.62012426e+01	-3.16162822e+01	-2.12501429e-01	2.04148758e+01
362533428.571	-1.94031568e+00	-1.68250260e+02	-6.61298774e+01	-3.36495221e+01	-6.61630110e+01	-3.21152559e+01	-2.10376279e-01	2.03022252e+01
362819000	-1.94564821e+00	-1.68296790e+02	-6.62067784e+01	-3.50220692e+01	-6.59308507e+01	-3.47368997e+01	-2.14807796e-01	2.01240724e+01
363104571.429	-1.94237165e+00	-1.68353380e+02	-6.60164066e+01	-3.38359328e+01	-6.60537343e+01	-3.60306726e+01	-2.19370970e-01	1.99946589e+01
363390142.857	-1.94296218e+00	-1.68372527e+02	-6.57879572e+01	-3.59805211e+01	-6.57642966e+01	-3.58746942e+01	-2.27473809e-01	1.99113661e+01
363675714.286	-1.94245739e+00	-1.68375933e+02	-6.61127906e+01	-3.46415878e+01	-6.57457220e+01	-3.74006683e+01	-2.27941004e-01	1.97573280e+01
363961285.714	-1.94444681e+00	-1.68425687e+02	-6.59069234e+01	-3.67985257e+01	-6.59548785e+01	-3.71766092e+01	-2.24802219e-01	1.96318647e+01
364246857.143	-1.94231328e+00	-1.68482891e+02	-6.60589405e+01	-3.92401056e+01	-6.59657504e+01	-3.78581331e+01	-2.28122123e-01	1.95724756e+01
364532428.571	-1.94037668e+00	-1.68508748e+02	-6.59479386e+01	-4.02634073e+01	-6.60457826e+01	-3.93433418e+01	-2.17503007e-01	1.94075634e+01
364818000	-1.94065781e+00	-1.68537329e+02	-6.58240713e+01	-4.19085731e+01	-6.59335885e+01	-4.26793516e+01	-2.28723904e-01	1.91984465e+01
365103571.429	-1.93849329e+00	-1.68569359e+02	-6.57854796e+01	-4.28597283e+01	-6.59052208e+01	-4.24915394e+01	-2.33459079e-01	1.90724619e+01
365389142.857	-1.94036358e+00	-1.68615382e+02	-6.58333050e+01	-4.27132836e+01	-6.60892402e+01	-4.30736956e+01	-2.36887201e-01	1.89273595e+01
365674714.286	-1.94281353e+00	-1.68679171e+02	-6.59089470e+01	-4.37568851e+01	-6.58112698e+01	-4.22923222e+01	-2.36066860e-01	1.88307904e+01
365960285.714	-1.94447916e+00	-1.68705277e+02	-6.58913045e+01	-4.60344380e+01	-6.60803654e+01	-4.33976224e+01	-2.34736661e-01	1.87110052e+01
366245857.143	-1.94124947e+00	-1.68714388e+02	-6.62191593e+01	-4.39156405e+01	-6.58893744e+01	-4.28506166e+01	-2.33730052e-01	1.85515602e+01
366531428.571	-1.93834695e+00	-1.68735337e+02	-6.59406241e+01	-4.52988121e+01	-6.57321913e+01	-4.59971977e+01	-2.28380039e-01	1.84591101e+01
366817000	-1.93490842e+00	-1.68801352e+02	-6.60527656e+01	-4.52158499e+01	-6.62149816e+01	-4.63024130e+01	-2.34315794e-01	1.83058787e+01
367102571.429	-1.93564769e+00	-1.68846122e+02	-6.61724481e+01	-4.61389649e+01	-6.60947207e+01	-4.68618738e+01	-2.45396576e-01	1.81835191e+01
367388142.857	-1.93827503e+00	-1.68858360e+02	-6.60330037e+01	-4.96072359e+01	-6.59943550e+01	-4.51434499e+01	-2.37863446e-01	1.79908032e+01
367673714.286	-1.93896517e+00	-1.68873429e+02	-6.61452946e+01	-4.70346879e+01	-6.65544358e+01	-4.92773910e+01	-2.33657479e-01	1.78599883e+01
367959285.714	-1.93469847e+00	-1.68932143e+02	-6.62065538e+01	-4.95608463e+01	-6.61324393e+01	-4.63297585e+01	-2.33371223e-01	1.77458534e+01
368244857.143	-1.93841380e+00	-1.68986296e+02	-6.65363308e+01	-4.69924829e+01	-6.61165713e+01	-4.87474137e+01	-2.26656553e-01	1.75734877e+01
368530428.571	-1.93466400e+00	-1.69047611e+02	-6.65481467e+01	-4.66195922e+01	-6.64569524e+01	-4.85439406e+01	-2.30549807e-01	1.74545355e+01
368816000	-1.93001874e+00	-1.69104573e+02	-6.64627980e+01	-5.02520282e+01	-6.61435464e+01	-4.98141410e+01	-2.28746500e-01	1.73240441e+01
369101571.429	-1.92821902e+00	-1.69152280e+02	-6.64762825e+01	-4.92470088e+01	-6.63054041e+01	-4.95840592e+01	-2.32715657e-01	1.71766089e+01
369387142.857	-1.92642424e+00	-1.69180258e+02	-6.64986784e+01	-5.07116135e+01	-6.64096876e+01	-4.98507225e+01	-2.26288547e-01	1.70302915e+01
369672714.286	-1.92123336e+00	-1.69200471e+02	-6.66149161e+01	-4.97506764e+01	-6.60694176e+01	-5.07903651e+01	-2.18286760e-01	1.69021118e+01
369958285.714	-1.92054474e+00	-1.69263247e+02	-6.62213669e+01	-4.93036170e+01	-6.61374965e+01	-4.99980955e+01	-2.24771218e-01	1.67655497e+01
370243857.143	-1.92238166e+00	-1.69288960e+02	-6.62925534e+01	-4.90267352e+01	-6.63683363e+01	-5.12092652e+01	-2.30326472e-01	1.66136810e+01
370529428.571	-1.92230107e+00	-1.69320975e+02	-6.65370598e+01	-5.05855816e+01	-6.61354844e+01	-5.14828534e+01	-2.12609238e-01	1.64459023e+01
370815000	-1.92344296e+00	-1.69392394e+02	-6.62260440e+01	-5.17672039e+01	-6.63131589e+01	-5.22948760e+01	-2.07852852e-01	1.63518704e+01
371100571.429	-1.91886791e+00	-1.69432811e+02	-6.64776610e+01	-5.21743263e+01	-6.57404544e+01	-5.08159196e+01	-2.09630180e-01	1.62324790e+01
371386142.857	-1.91914006e+00	-1.69458126e+02	-6.59211308e+01	-5.03698292e+01	-6.56609686e+01	-5.19675724e+01	-2.05263225e-01	1.61256378e+01
371671714.286	-1.91700838e+00	-1.69493518e+02	-6.59921609e+01	-5.20280175e+01	-6.58640985e+01	-5.14421694e+01	-1.98340985e-01	1.60050048e+01
371957285.714	-1.91702467e+00	-1.69560919e+02	-6.60688434e+01	-5.18453595e+01	-6.57278291e+01	-5.28798184e+01	-1.98816499e-01	1.58547439e+01
372242857.143	-1.91498192e+00	-1.69617762e+02	-6.59643518e+01	-5.25642940e+01	-6.58199278e+01	-5.18554707e+01	-1.98750795e-01	1.57380106e+01
372528428.571	-1.91652973e+00	-1.69644935e+02	-6.59599925e+01	-5.20628967e+01	-6.56262709e+01	-5.39712692e+01	-1.94067296e-01	1.55933085e+01
372814000	-1.91777350e+00	-1.69655744e+02	-6.59342686e+01	-5.23111104e+01	-6.57680452e+01	-5.37621550e+01	-1.95860708e-01	1.54163030e+01
373099571.429	-1.91961742e+00	-1.69682797e+02	-6.58321549e+01	-5.30602872e+01	-6.55641411e+01	-5.32285576e+01	-2.01631841e-01	1.52984897e+01
373385142.857	-1.91606566e+00	-1.69744301e+02	-6.56787647e+01	-5.40397870e+01	-6.54691853e+01	-5.57807932e+01	-1.99909401e-01	1.52197140e+01
373670714.286	-1.91693416e+00	-1.69819402e+02	-6.56333979e+01	-5.53410033e+01	-6.54539065e+01	-5.50826976e+01	-1.97656872e-01	1.50603653e+01
373956285.714	-1.91235561e+00	-1.69867166e+02	-6.57215151e+01	-5.62898860e+01	-6.55014073e+01	-5.53871318e+01	-1.97162444e-01	1.48924230e+01
374241857.143	-1.91037267e+00	-1.69896119e+02	-6.56001524e+01	-5.55646290e+01	-6.54191924e+01	-5.51192732e+01	-1.99779230e-01	1.47667941e+01
374527428.571	-1.90409541e+00	-1.69976037e+02	-6.56451405e+01	-5.49766428e+01	-6.53504607e+01	-5.69425777e+01	-1.99373198e-01	1.45886272e+01
374813000	-1.90517198e+00	-1.70052287e+02	-6.53061314e+01	-5.66478624e+01	-6.51994942e+01	-5.70282997e+01	-2.00743554e-01	1.44437274e+01
375098571.429	-1.90664779e+00	-1.70052424e+02	-6.54089745e+01	-5.68195312e+01	-6.50612860e+01	-5.84731778e+01	-1.97987985e-01	1.44218798e+01
375384142.857	-1.90236628e+00	-1.70125512e+02	-6.55634554e+01	-5.74030818e+01	-6.52099972e+01	-5.96876823e+01	-1.92596225e-01	1.42793764e+01
375669714.286	-1.90175240e+00	-1.70135244e+02	-6.52712016e+01	-5.92100277e+01	-6.51270508e+01	-5.85519207e+01	-1.92304271e-01	1.41836713e+01
375955285.714	-1.90348394e+00	-1.70197795e+02	-6.53143064e+01	-5.95965816e+01	-6.50603162e+01	-6.08133726e+01	-1.90763169e-01	1.40659187e+01
376240857.143	-1.89584752e+00	-1.70229179e+02	-6.49796681e+01	-6.04014118e+01	-6.48710992e+01	-6.14840892e+01	-1.86347876e-01	1.39317200e+01
376526428.571	-1.89326915e+00	-1.70321158e+02	-6.52572296e+01	-6.25769432e+01	-6.49840830e+01	-6.15080785e+01	-1.84363590e-01	1.37952530e+01
376812000	-1.89105414e+00	-1.70360857e+02	-6.51737971e+01	-6.08273976e+01	-6.48175114e+01	-6.24293240e+01	-1.82152212e-01	1.36315830e+01
377097571.429	-1.89057246e+00	-1.70407761e+02	-6.49894562e+01	-6.23138205e+01	-6.48277050e+01	-6.22988171e+01	-1.76009468e-01	1.35218669e+01
377383142.857	-1.88494142e+00	-1.70469009e+02	-6.49036939e+01	-6.38109239e+01	-6.48149426e+01	-6.48345053e+01	-1.74069698e-01	1.33891161e+01
377668714.286	-1.88432519e+00	-1.70521440e+02	-6.50207313e+01	-6.40546386e+01	-6.48364284e+01	-6.52077012e+01	-1.82573810e-01	1.32405316e+01
377954285.714	-1.88406195e+00	-1.70567519e+02	-6.50022741e+01	-6.41930439e+01	-6.49037191e+01	-6.67718368e+01	-1.83392200e-01	1.31242202e+01
378239857.143	-1.87979638e+00	-1.70619021e+02	-6.50954896e+01	-6.64697416e+01	-6.48074938e+01	-6.64335718e+01	-1.81593141e-01	1.30455975e+01
378525428.571	-1.87839658e+00	-1.70618608e+02	-6.52144328e+01	-6.48416797e+01	-6.49571643e+01	-6.63202693e+01	-1.78138054e-01	1.29415447e+01
378811000	-1.87521595e+00	-1.70664595e+02	-6.52110859e+01	-6.74322213e+01	-6.48804840e+01	-6.78235573e+01	-1.72486500e-01	1.28583548e+01
379096571.429	-1.88030301e+00	-1.70742509e+02	-6.48415353e+01	-6.85842183e+01	-6.49372124e+01	-6.78852265e+01	-1.69300099e-01	1.27074982e+01
379382142.857	-1.87778668e+00	-1.70791189e+02	-6.50680231e+01	-6.76675126e+01	-6.49211614e+01	-6.90918736e+01	-1.70397462e-01	1.26085140e+01
379667714.286	-1.87255657e+00	-1.70820609e+02	-6.53395262e+01	-6.86112630e+01	-6.48534341e+01	-7.01367170e+01	-1.65414439e-01	1.25020166e+01
379953285.714	-1.86867149e+00	-1.70828401e+02	-6.53412628e+01	-6.93924794e+01	-6.49762842e+01	-7.02915806e+01	-1.66991919e-01	1.23947186e+01
380238857.143	-1.86634453e+00	-1.70864316e+02	-6.51403135e+01	-6.91459121e+01	-6.51714330e+01	-7.09198959e+01	-1.59842782e-01	1.23238781e+01
380524428.571	-1.86603170e+00	-1.70853886e+02	-6.52922233e+01	-6.87146298e+01	-6.51476295e+01	-6.99195134e+01	-1.58934362e-01	1.21624943e+01
380810000	-1.86568624e+00	-1.70928082e+02	-6.51618414e+01	-6.97173920e+01	-6.50112779e+01	-7.16945855e+01	-1.59671440e-01	1.20337404e+01
381095571.429	-1.86059725e+00	-1.70952355e+02	-6.49801709e+01	-7.03551797e+01	-6.49408667e+01	-7.27241901e+01	-1.56451380e-01	1.18735697e+01
381381142.857	-1.85838071e+00	-1.70968439e+02	-6.49085473e+01	-7.07023436e+01	-6.52053828e+01	-7.25314509e+01	-1.52073216e-01	1.17613487e+01
381666714.286	-1.85538412e+00	-1.71038421e+02	-6.51159284e+01	-7.10177792e+01	-6.49390434e+01	-7.23715857e+01	-1.56022569e-01	1.16339026e+01
381952285.714	-1.85558751e+00	-1.71078325e+02	-6.48296444e+01	-7.12798401e+01	-6.48414988e+01	-7.26802909e+01	-1.56507912e-01	1.15470240e+01
382237857.143	-1.85943344e+00	-1.71116326e+02	-6.50588645e+01	-7.33590079e+01	-6.48193092e+01	-7.36471704e+01	-1.55805470e-01	1.14405954e+01
382523428.571	-1.85932449e+00	-1.71123025e+02	-6.48626225e+01	-7.33923085e+01	-6.47350618e+01	-7.33931747e+01	-1.55195910e-01	1.13341892e+01
382809000	-1.86145146e+00	-1.71182994e+02	-6.48391120e+01	-7.27138333e+01	-6.46089682e+01	-7.55295272e+01	-1.58955867e-01	1.12165153e+01
383094571.429	-1.86014423e+00	-1.71220265e+02	-6.50180736e+01	-7.25491914e+01	-6.47275669e+01	-7.40654783e+01	-1.60139112e-01	1.10886193e+01
383380142.857	-1.85994303e+00	-1.71214977e+02	-6.49588950e+01	-7.37928396e+01	-6.45902723e+01	-7.46835428e+01	-1.57271349e-01	1.09171870e+01
383665714.286	-1.85284576e+00	-1.71256141e+02	-6.49459102e+01	-7.43464291e+01	-6.44736881e+01	-7.53103355e+01	-1.56314789e-01	1.08030784e+01
383951285.714	-1.85197501e+00	-1.71276398e+02	-6.46682669e+01	-7.50677836e+01	-6.46881913e+01	-7.56935074e+01	-1.52952649e-01	1.06662369e+01
384236857.143	-1.85281981e+00	-1.71346120e+02	-6.45402540e+01	-7.65795661e+01	-6.45731081e+01	-7.70181802e+01	-1.51922957e-01	1.05616772e+01
384522428.571	-1.85039173e+00	-1.71385403e+02	-6.48262044e+01	-7.64909839e+01	-6.44888187e+01	-7.73701517e+01	-1.52531290e-01	1.04404314e+01
384808000	-1.85368089e+00	-1.71436473e+02	-6.47527659e+01	-7.69413635e+01	-6.43744267e+01	-7.79438538e+01	-1.51722292e-01	1.03281473e+01
385093571.429	-1.85494025e+00	-1.71494270e+02	-6.46118036e+01	-7.71133200e+01	-6.44364627e+01	-7.83046250e+01	-1.49944361e-01	1.02306804e+01
385379142.857	-1.84617244e+00	-1.71542991e+02	-6.44207847e+01	-7.78265029e+01	-6.44379077e+01	-7.90694740e+01	-1.47447279e-01	1.01088824e+01
385664714.286	-1.83962496e+00	-1.71556394e+02	-6.44732979e+01	-7.97054925e+01	-6.42315473e+01	-8.05110175e+01	-1.45053994e-01	9.99970526e+00
385950285.714	-1.84120196e+00	-1.71556602e+02	-6.44033963e+01	-7.86995910e+01	-6.43748733e+01	-8.13481387e+01	-1.46320116e-01	9.90430623e+00
386235857.143	-1.83567081e+00	-1.71614928e+02	-6.44947812e+01	-8.02534500e+01	-6.43879262e+01	-8.12251179e+01	-1.45595206e-01	9.73584246e+00
386521428.571	-1.83716016e+00	-1.71650237e+02	-6.45801540e+01	-8.20902732e+01	-6.42263833e+01	-8.12020962e+01	-1.47206214e-01	9.60550260e+00
386807000	-1.83648918e+00	-1.71701007e+02	-6.43473538e+01	-8.29513329e+01	-6.42705730e+01	-8.31294516e+01	-1.50361138e-01	9.47023504e+00
387092571.429	-1.83952873e+00	-1.71765685e+02	-6.42002071e+01	-8.34877410e+01	-6.41751071e+01	-8.31901242e+01	-1.50533021e-01	9.29112403e+00
387378142.857	-1.83692637e+00	-1.71801151e+02	-6.42249568e+01	-8.31887889e+01	-6.40951977e+01	-8.37466829e+01	-1.53869885e-01	9.09932598e+00
387663714.286	-1.83252107e+00	-1.71811935e+02	-6.43292807e+01	-8.36282418e+01	-6.40408106e+01	-8.35821458e+01	-1.58723925e-01	8.89931230e+00
387949285.714	-1.83257623e+00	-1.71886521e+02	-6.44406237e+01	-8.49112403e+01	-6.39959690e+01	-8.63449487e+01	-1.57805120e-01	8.87167029e+00
388234857.143	-1.82723462e+00	-1.71942463e+02	-6.44632933e+01	-8.56088158e+01	-6.41877991e+01	-8.61032935e+01	-1.58004107e-01	8.83249304e+00
388520428.571	-1.82305040e+00	-1.72030600e+02	-6.44117663e+01	-8.55248029e+01	-6.40037954e+01	-8.62332059e+01	-1.55907487e-01	8.74089914e+00
388806000	-1.82370570e+00	-1.71987462e+02	-6.44229526e+01	-8.74287157e+01	-6.40958812e+01	-8.70413657e+01	-1.56840561e-01	8.61795437e+00
389091571.429	-1.82113342e+00	-1.72024928e+02	-6.43202535e+01	-8.82244320e+01	-6.43072833e+01	-8.85212154e+01	-1.54605683e-01	8.49929785e+00
389377142.857	-1.81628308e+00	-1.72098288e+02	-6.41227585e+01	-8.84077197e+01	-6.41695592e+01	-8.95195031e+01	-1.55613329e-01	8.33758795e+00
389662714.286	-1.82649350e+00	-1.72131001e+02	-6.42527984e+01	-8.97161467e+01	-6.41778946e+01	-8.88858932e+01	-1.57961153e-01	8.18692206e+00
389948285.714	-1.81606298e+00	-1.72225508e+02	-6.41533940e+01	-8.91232930e+01	-6.42207353e+01	-9.20490500e+01	-1.44712222e-01	8.02151529e+00
390233857.143	-1.81920309e+00	-1.72244456e+02	-6.42622370e+01	-9.17131850e+01	-6.42301066e+01	-9.00592787e+01	-1.43970304e-01	7.82668577e+00
390519428.571	-1.81331398e+00	-1.72256790e+02	-6.40679038e+01	-9.05669848e+01	-6.41979454e+01	-9.05461757e+01	-1.42104679e-01	7.72217151e+00
390805000	-1.81334327e+00	-1.72268429e+02	-6.42605512e+01	-9.08671937e+01	-6.41264283e+01	-9.17734510e+01	-1.40924261e-01	7.60272825e+00
391090571.429	-1.81262428e+00	-1.72302922e+02	-6.42154899e+01	-9.31764545e+01	-6.41156480e+01	-9.34616852e+01	-1.42424607e-01	7.53424907e+00
391376142.857	-1.80673209e+00	-1.72389439e+02	-6.41314603e+01	-9.22434051e+01	-6.41551353e+01	-9.34196305e+01	-1.46319041e-01	7.47306917e+00
391661714.286	-1.80675279e+00	-1.72452894e+02	-6.41620569e+01	-9.47411451e+01	-6.36674876e+01	-9.14471641e+01	-1.49307878e-01	7.43398349e+00
391947285.714	-1.80966444e+00	-1.72470432e+02	-6.43453687e+01	-9.61512231e+01	-6.41351064e+01	-9.60031019e+01	-1.53715202e-01	7.36832601e+00
392232857.143	-1.80666510e+00	-1.72513437e+02	-6.43794586e+01	-9.62095704e+01	-6.40053658e+01	-9.78708434e+01	-1.58122705e-01	7.32765798e+00
392518428.571	-1.80517839e+00	-1.72518867e+02	-6.44873991e+01	-9.62580254e+01	-6.40629025e+01	-9.61342054e+01	-1.60693446e-01	7.20242541e+00
392804000	-1.81066258e+00	-1.72621409e+02	-6.46442160e+01	-9.74968509e+01	-6.40148251e+01	-9.63560950e+01	-1.62784125e-01	7.01189021e+00
393089571.429	-1.80138609e+00	-1.72618629e+02	-6.43360929e+01	-9.75272612e+01	-6.40978444e+01	-9.78746974e+01	-1.66009779e-01	6.92920901e+00
393375142.857	-1.79326779e+00	-1.72657343e+02	-6.45022346e+01	-9.63440530e+01	-6.42433812e+01	-9.70300281e+01	-1.67337622e-01	6.79846836e+00
393660714.286	-1.79286268e+00	-1.72714037e+02	-6.45657574e+01	-9.69057180e+01	-6.42707969e+01	-9.70487752e+01	-1.69263910e-01	6.65897362e+00
393946285.714	-1.79259300e+00	-1.72726536e+02	-6.44122253e+01	-9.79646764e+01	-6.42039877e+01	-9.92720238e+01	-1.72565893e-01	6.55345565e+00
394231857.143	-1.79244610e+00	-1.72762608e+02	-6.43229263e+01	-9.92784492e+01	-6.42327351e+01	-9.80925737e+01	-1.69119023e-01	6.43005081e+00
394517428.571	-1.78721435e+00	-1.72848953e+02	-6.44058404e+01	-9.90140493e+01	-6.42353232e+01	-1.00220512e+02	-1.74753507e-01	6.34380833e+00
394803000	-1.79276113e+00	-1.72862382e+02	-6.44629079e+01	-9.85001012e+01	-6.40481657e+01	-9.94649911e+01	-1.71918211e-01	6.27465738e+00
395088571.429	-1.78390289e+00	-1.72871275e+02	-6.43640443e+01	-1.01509762e+02	-6.41789634e+01	-9.99617643e+01	-1.74519562e-01	6.14376453e+00
395374142.857	-1.78313047e+00	-1.72853396e+02	-6.47047394e+01	-1.00994823e+02	-6.40923840e+01	-1.02188594e+02	-1.70726603e-01	5.98702214e+00
395659714.286	-1.78562861e+00	-1.72888152e+02	-6.44526283e+01	-1.01339404e+02	-6.44340680e+01	-1.01170012e+02	-1.67142396e-01	5.86817924e+00
395945285.714	-1.78532950e+00	-1.72921114e+02	-6.45281811e+01	-1.01824000e+02	-6.42257027e+01	-1.02780081e+02	-1.63904687e-01	5.69016098e+00
396230857.143	-1.78130349e+00	-1.72986881e+02	-6.43840620e+01	-1.02344825e+02	-6.39362544e+01	-1.02831935e+02	-1.61629107e-01	5.55438025e+00
396516428.571	-1.78116297e+00	-1.73040683e+02	-6.45285954e+01	-1.03986228e+02	-6.38297763e+01	-1.04210967e+02	-1.52337755e-01	5.39985110e+00
396802000	-1.77850390e+00	-1.73058672e+02	-6.45082775e+01	-1.03117262e+02	-6.41104336e+01	-1.04312362e+02	-1.52703151e-01	5.31379376e+00
397087571.429	-1.77834159e+00	-1.73077304e+02	-6.44830532e+01	-1.01844126e+02	-6.38025841e+01	-1.02875675e+02	-1.44899297e-01	5.11601073e+00
397373142.857	-1.77031904e+00	-1.73122552e+02	-6.42045834e+01	-1.04771792e+02	-6.40190115e+01	-1.06428683e+02	-1.44047908e-01	5.02181313e+00
397658714.286	-1.76910008e+00	-1.73150801e+02	-6.43970902e+01	-1.03705137e+02	-6.39608552e+01	-1.06929759e+02	-1.52000948e-01	4.87697124e+00
397944285.714	-1.76289297e+00	-1.73185726e+02	-6.40213068e+01	-1.04622465e+02	-6.42015986e+01	-1.06093974e+02	-1.37876398e-01	4.68004997e+00
398229857.143	-1.76256017e+00	-1.73216586e+02	-6.42776137e+01	-1.04869922e+02	-6.40300491e+01	-1.06969731e+02	-1.44174163e-01	4.54228493e+00
398515428.571	-1.76322344e+00	-1.73244948e+02	-6.44013671e+01	-1.06892888e+02	-6.42045422e+01	-1.06317484e+02	-1.43636120e-01	4.41767817e+00
398801000	-1.76036429e+00	-1.73311817e+02	-6.45252700e+01	-1.06400079e+02	-6.40183122e+01	-1.07330156e+02	-1.42361491e-01	4.31829618e+00
399086571.429	-1.76665102e+00	-1.73333187e+02	-6.44998627e+01	-1.08097048e+02	-6.41000076e+01	-1.09704839e+02	-1.39281280e-01	4.19371780e+00
399372142.857	-1.76812308e+00	-1.73397381e+02	-6.44245164e+01	-1.06466628e+02	-6.42107309e+01	-1.09572558e+02	-1.31935668e-01	4.04970769e+00
399657714.286	-1.76768399e+00	-1.73476794e+02	-6.44094275e+01	-1.09934352e+02	-6.41848332e+01	-1.11302898e+02	-1.37596860e-01	4.00357806e+00
399943285.714	-1.76489260e+00	-1.73497308e+02	-6.43999286e+01	-1.08660201e+02	-6.41270446e+01	-1.11290689e+02	-1.39861152e-01	3.87762017e+00
400228857.143	-1.77423055e+00	-1.73497857e+02	-6.43890749e+01	-1.09015344e+02	-6.42499106e+01	-1.10240787e+02	-1.41851814e-01	3.78594401e+00
400514428.571	-1.76870408e+00	-1.73540931e+02	-6.45448288e+01	-1.09544794e+02	-6.43596726e+01	-1.10862627e+02	-1.52546630e-01	3.76227062e+00
400800000	-1.77315327e+00	-1.73578283e+02	-6.43309667e+01	-1.11904783e+02	-6.40613185e+01	-1.11716526e+02	-1.54526770e-01	3.62739483e+00
401085571.429	-1.76852707e+00	-1.73497874e+02	-6.41562229e+01	-1.11013798e+02	-6.41136593e+01	-1.12772038e+02	-1.53761936e-01	3.53201396e+00
401371142.857	-1.77119922e+00	-1.73561925e+02	-6.46038012e+01	-1.11966152e+02	-6.40849812e+01	-1.13929256e+02	-1.55122180e-01	3.36818428e+00
401656714.286	-1.78006395e+00	-1.73625398e+02	-6.43317064e+01	-1.13641745e+02	-6.43100533e+01	-1.14024688e+02	-1.56344007e-01	3.25572702e+00
401942285.714	-1.77527079e+00	-1.73677959e+02	-6.42063078e+01	-1.11098000e+02	-6.41484277e+01	-1.11993514e+02	-1.69219401e-01	3.18966211e+00
402227857.143	-1.76848724e+00	-1.73695386e+02	-6.45216515e+01	-1.13901390e+02	-6.42871608e+01	-1.13872589e+02	-1.62370888e-01	3.05207095e+00
402513428.571	-1.76887810e+00	-1.73713643e+02	-6.44325534e+01	-1.13632478e+02	-6.40276141e+01	-1.16713035e+02	-1.64011861e-01	2.95035961e+00
402799000	-1.76662874e+00	-1.73742992e+02	-6.45458596e+01	-1.13780769e+02	-6.42090620e+01	-1.14696336e+02	-1.66988176e-01	2.74826794e+00
403084571.429	-1.76248353e+00	-1.73741689e+02	-6.45770652e+01	-1.14996968e+02	-6.40833339e+01	-1.17838711e+02	-1.72308792e-01	2.63684026e+00
403370142.857	-1.76336887e+00	-1.73808837e+02	-6.46184029e+01	-1.14237433e+02	-6.42286025e+01	-1.14869065e+02	-1.77861076e-01	2.47452337e+00
403655714.286	-1.75759422e+00	-1.73858230e+02	-6.47169006e+01	-1.16661176e+02	-6.41799429e+01	-1.17793249e+02	-1.67624401e-01	2.37376117e+00
403941285.714	-1.76161689e+00	-1.73832288e+02	-6.48246705e+01	-1.14047290e+02	-6.41185435e+01	-1.17629073e+02	-1.68061710e-01	2.21818630e+00
404226857.143	-1.75751104e+00	-1.73920004e+02	-6.43873749e+01	-1.16113674e+02	-6.41513911e+01	-1.17262439e+02	-1.67068856e-01	2.13126840e+00
404512428.571	-1.75422065e+00	-1.73962219e+02	-6.47680019e+01	-1.18077858e+02	-6.39244239e+01	-1.17232631e+02	-1.82392715e-01	1.99560969e+00
404798000	-1.75302439e+00	-1.74031167e+02	-6.45835477e+01	-1.19775108e+02	-6.40087257e+01	-1.19482333e+02	-1.72507047e-01	1.88472909e+00
405083571.429	-1.75898652e+00	-1.74026433e+02	-6.42262780e+01	-1.20072021e+02	-6.43695596e+01	-1.19381427e+02	-1.68125234e-01	1.65882873e+00
405369142.857	-1.75900887e+00	-1.74019444e+02	-6.44156936e+01	-1.19021767e+02	-6.42420471e+01	-1.20937495e+02	-1.75768747e-01	1.55668917e+00
405654714.286	-1.75763954e+00	-1.74064140e+02	-6.42751755e+01	-1.19199484e+02	-6.42359552e+01	-1.20845232e+02	-1.65199230e-01	1.38609190e+00
405940285.714	-1.76241648e+00	-1.74104230e+02	-6.47048968e+01	-1.16119277e+02	-6.41729452e+01	-1.20365913e+02	-1.63165612e-01	1.37155604e+00
406225857.143	-1.76712718e+00	-1.74137957e+02	-6.43522880e+01	-1.19283016e+02	-6.42833800e+01	-1.21001388e+02	-1.70794473e-01	1.31634479e+00
406511428.571	-1.75980412e+00	-1.74173524e+02	-6.45835183e+01	-1.20128042e+02	-6.40715984e+01	-1.21000524e+02	-1.64893727e-01	1.14640345e+00
406797000	-1.75911711e+00	-1.74167841e+02	-6.42861188e+01	-1.21313036e+02	-6.42327573e+01	-1.22345405e+02	-1.67415907e-01	9.13871083e-01
407082571.429	-1.76405677e+00	-1.74194288e+02	-6.47311402e+01	-1.21369613e+02	-6.42199397e+01	-1.23166828e+02	-1.69324569e-01	7.64075853e-01
407368142.857	-1.75273824e+00	-1.74237764e+02	-6.48421838e+01	-1.23642611e+02	-6.39710596e+01	-1.22179598e+02	-1.78962114e-01	6.25012919e-01
407653714.286	-1.75738621e+00	-1.74260173e+02	-6.46105990e+01	-1.22234577e+02	-6.42191570e+01	-1.23090066e+02	-1.74371656e-01	4.79881511e-01
407939285.714	-1.74943066e+00	-1.74312668e+02	-6.47089344e+01	-1.23061834e+02	-6.41625995e+01	-1.24321912e+02	-1.76032386e-01	3.83769136e-01
408224857.143	-1.75693503e+00	-1.74358544e+02	-6.45061858e+01	-1.22402709e+02	-6.40084074e+01	-1.24638897e+02	-1.75290686e-01	3.58612256e-01
408510428.571	-1.76026096e+00	-1.74352962e+02	-6.43527221e+01	-1.24145614e+02	-6.40031526e+01	-1.25369676e+02	-1.83213523e-01	1.63999056e-01
408796000	-1.75682511e+00	-1.74408077e+02	-6.41555361e+01	-1.23523004e+02	-6.41797132e+01	-1.25101132e+02	-1.78741521e-01	1.79040346e-02
409081571.429	-1.75064688e+00	-1.74492470e+02	-6.42659085e+01	-1.25607569e+02	-6.36528775e+01	-1.26486273e+02	-1.84429672e-01	-1.11524043e-01
409367142.857	-1.75293540e+00	-1.74476426e+02	-6.42143246e+01	-1.26859754e+02	-6.39021019e+01	-1.27447790e+02	-1.84658825e-01	-3.18054861e-01
409652714.286	-1.75443640e+00	-1.74482292e+02	-6.45425913e+01	-1.22826393e+02	-6.37436034e+01	-1.27350348e+02	-1.81882811e-01	-4.24732229e-01
409938285.714	-1.75271781e+00	-1.74512007e+02	-6.44799711e+01	-1.28887000e+02	-6.36057973e+01	-1.28363298e+02	-1.85707650e-01	-5.61744320e-01
410223857.143	-1.75597901e+00	-1.74519062e+02	-6.42890490e+01	-1.26494760e+02	-6.38269228e+01	-1.30280065e+02	-1.91589244e-01	-6.60233962e-01
410509428.571	-1.76071967e+00	-1.74555930e+02	-6.42323664e+01	-1.27879050e+02	-6.37437079e+01	-1.30408207e+02	-1.85209126e-01	-8.03467002e-01
410795000	-1.75875024e+00	-1.74598089e+02	-6.40315735e+01	-1.29458049e+02	-6.39266591e+01	-1.30087035e+02	-1.80002514e-01	-9.08148629e-01
411080571.429	-1.76497933e+00	-1.74645149e+02	-6.42729851e+01	-1.29125453e+02	-6.40703600e+01	-1.32000669e+02	-1.83463635e-01	-1.11220044e+00
411366142.857	-1.76603679e+00	-1.74690429e+02	-6.40314827e+01	-1.32015938e+02	-6.38810381e+01	-1.33517091e+02	-1.85204622e-01	-1.23299663e+00
411651714.286	-1.76364706e+00	-1.74709695e+02	-6.45398241e+01	-1.30567735e+02	-6.39269714e+01	-1.33426398e+02	-1.87336527e-01	-1.31516474e+00
411937285.714	-1.75802963e+00	-1.74688385e+02	-6.42598871e+01	-1.33321153e+02	-6.40851065e+01	-1.34576286e+02	-1.85202904e-01	-1.43191835e+00
412222857.143	-1.75849386e+00	-1.74716624e+02	-6.43113257e+01	-1.33414492e+02	-6.38784682e+01	-1.34783820e+02	-1.85209377e-01	-1.58735010e+00
412508428.571	-1.76344122e+00	-1.74736927e+02	-6.44706698e+01	-1.31887301e+02	-6.40279619e+01	-1.36762442e+02	-1.84241053e-01	-1.67382879e+00
412794000	-1.76413072e+00	-1.74786260e+02	-6.43036910e+01	-1.33436838e+02	-6.41059319e+01	-1.37378759e+02	-1.88678263e-01	-1.81011611e+00
413079571.429	-1.76615712e+00	-1.74808202e+02	-6.44855855e+01	-1.36626907e+02	-6.40938052e+01	-1.37304562e+02	-1.86686966e-01	-1.92882956e+00
413365142.857	-1.76453538e+00	-1.74841559e+02	-6.43480304e+01	-1.35656319e+02	-6.38547720e+01	-1.38081714e+02	-1.93535896e-01	-2.15377479e+00
413650714.286	-1.76695298e+00	-1.74881785e+02	-6.43554171e+01	-1.34264087e+02	-6.41170207e+01	-1.39461934e+02	-1.91315684e-01	-2.23110435e+00
413936285.714	-1.76846708e+00	-1.74893195e+02	-6.44337343e+01	-1.36324959e+02	-6.39635759e+01	-1.41125950e+02	-1.87702503e-01	-2.35949517e+00
414221857.143	-1.76959084e+00	-1.74889649e+02	-6.46510069e+01	-1.35509382e+02	-6.40427158e+01	-1.39526250e+02	-1.75234724e-01	-2.51326197e+00
414507428.571	-1.77058465e+00	-1.74966673e+02	-6.44883592e+01	-1.38020396e+02	-6.40816189e+01	-1.41052106e+02	-1.85460181e-01	-2.65576463e+00
414793000	-1.77106804e+00	-1.74997694e+02	-6.45394666e+01	-1.38090701e+02	-6.42245689e+01	-1.42749524e+02	-1.87355518e-01	-2.76865440e+00
415078571.429	-1.77064076e+00	-1.75053609e+02	-6.47717085e+01	-1.38300466e+02	-6.43015397e+01	-1.43295533e+02	-1.87843904e-01	-2.93179718e+00
415364142.857	-1.77297219e+00	-1.75067501e+02	-6.49386887e+01	-1.39814728e+02	-6.44047665e+01	-1.43277524e+02	-1.90965585e-01	-3.05685833e+00
415649714.286	-1.77763434e+00	-1.75114503e+02	-6.45674833e+01	-1.42149497e+02	-6.44484253e+01	-1.44264329e+02	-1.92717908e-01	-3.15932969e+00
415935285.714	-1.77945138e+00	-1.75105345e+02	-6.49980583e+01	-1.39840369e+02	-6.44582005e+01	-1.44300937e+02	-1.92311220e-01	-3.32495170e+00
416220857.143	-1.78184143e+00	-1.75174957e+02	-6.49879151e+01	-1.40933298e+02	-6.45520304e+01	-1.45037279e+02	-1.93020812e-01	-3.44597269e+00
416506428.571	-1.78011584e+00	-1.75192488e+02	-6.49648910e+01	-1.40395775e+02	-6.43931341e+01	-1.44957054e+02	-1.74395168e-01	-3.57287871e+00
416792000	-1.78524660e+00	-1.75225060e+02	-6.47119379e+01	-1.40924638e+02	-6.45035643e+01	-1.45206201e+02	-1.89040055e-01	-3.71098743e+00
417077571.429	-1.78828405e+00	-1.75270252e+02	-6.52448327e+01	-1.41736868e+02	-6.45343594e+01	-1.45649955e+02	-2.00775625e-01	-3.84432511e+00
417363142.857	-1.78178691e+00	-1.75281948e+02	-6.48958144e+01	-1.44695122e+02	-6.46324043e+01	-1.46961729e+02	-2.13859114e-01	-3.96084944e+00
417648714.286	-1.78459245e+00	-1.75306340e+02	-6.49824150e+01	-1.45463398e+02	-6.50142047e+01	-1.47625275e+02	-1.94585616e-01	-4.10202397e+00
417934285.714	-1.78443819e+00	-1.75351915e+02	-6.51752510e+01	-1.43962564e+02	-6.46077432e+01	-1.49364353e+02	-1.89760718e-01	-4.25059829e+00
418219857.143	-1.78548720e+00	-1.75410503e+02	-6.50868179e+01	-1.43870866e+02	-6.48574241e+01	-1.49591214e+02	-1.90097426e-01	-4.37947002e+00
418505428.571	-1.78042621e+00	-1.75457337e+02	-6.51783246e+01	-1.45162737e+02	-6.50160916e+01	-1.51035929e+02	-1.89156658e-01	-4.52241296e+00
418791000	-1.78545083e+00	-1.75470004e+02	-6.53869118e+01	-1.45201268e+02	-6.49064460e+01	-1.49911309e+02	-1.87405380e-01	-4.69066807e+00
419076571.429	-1.78183497e+00	-1.75493639e+02	-6.50948809e+01	-1.44309153e+02	-6.49770602e+01	-1.49786429e+02	-1.79167103e-01	-4.79566426e+00
419362142.857	-1.78523630e+00	-1.75545696e+02	-6.51985315e+01	-1.47600294e+02	-6.49090432e+01	-1.51846019e+02	-1.86673488e-01	-4.92069602e+00
419647714.286	-1.78249810e+00	-1.75545747e+02	-6.52616111e+01	-1.45181438e+02	-6.52277079e+01	-1.50657604e+02	-1.90132997e-01	-5.08084348e+00
419933285.714	-1.78131911e+00	-1.75561168e+02	-6.52129716e+01	-1.47338846e+02	-6.49955364e+01	-1.51142484e+02	-1.81428057e-01	-5.22042337e+00
420218857.143	-1.78074312e+00	-1.75582428e+02	-6.56733526e+01	-1.48012024e+02	-6.51836744e+01	-1.53269172e+02	-1.91952575e-01	-5.33173950e+00
420504428.571	-1.78319421e+00	-1.75629275e+02	-6.52731502e+01	-1.45991490e+02	-6.51539558e+01	-1.52604387e+02	-1.86808800e-01	-5.49455500e+00
420790000	-1.78704761e+00	-1.75649152e+02	-6.52190526e+01	-1.49062083e+02	-6.49237374e+01	-1.53698154e+02	-1.96183003e-01	-5.61440591e+00
421075571.429	-1.79122628e+00	-1.75662627e+02	-6.54313418e+01	-1.48012771e+02	-6.54400550e+01	-1.53787330e+02	-1.95266597e-01	-5.72206769e+00
421361142.857	-1.79498352e+00	-1.75732217e+02	-6.53083885e+01	-1.50337493e+02	-6.51780421e+01	-1.53066286e+02	-2.06074071e-01	-5.83563546e+00
421646714.286	-1.79054174e+00	-1.75762371e+02	-6.59221997e+01	-1.48817023e+02	-6.51624719e+01	-1.55481499e+02	-2.04875601e-01	-6.03948560e+00
421932285.714	-1.78951631e+00	-1.75794945e+02	-6.57207225e+01	-1.50228217e+02	-6.53609062e+01	-1.53600007e+02	-2.04604105e-01	-6.15847591e+00
422217857.143	-1.79111215e+00	-1.75836226e+02	-6.54643769e+01	-1.50102104e+02	-6.53254163e+01	-1.54996209e+02	-2.06005895e-01	-6.30234510e+00
422503428.571	-1.78987137e+00	-1.75856705e+02	-6.54859017e+01	-1.51857524e+02	-6.53738638e+01	-1.56743904e+02	-2.11603041e-01	-6.44570074e+00
422789000	-1.79180476e+00	-1.75881276e+02	-6.54266987e+01	-1.51461605e+02	-6.53549850e+01	-1.56365984e+02	-2.16453509e-01	-6.57742077e+00
423074571.429	-1.79568434e+00	-1.75901459e+02	-6.56108446e+01	-1.51835857e+02	-6.55465991e+01	-1.57243379e+02	-2.14964737e-01	-6.73473951e+00
423360142.857	-1.78921726e+00	-1.75921054e+02	-6.59391154e+01	-1.54575173e+02	-6.55708884e+01	-1.57613223e+02	-2.26662251e-01	-6.83402243e+00
423645714.286	-1.79074646e+00	-1.75974225e+02	-6.59443459e+01	-1.52116809e+02	-6.56117173e+01	-1.57481515e+02	-2.18586589e-01	-6.99328412e+00
423931285.714	-1.79381252e+00	-1.75981729e+02	-6.57672889e+01	-1.52209831e+02	-6.55192256e+01	-1.58571992e+02	-2.14963072e-01	-7.14650678e+00
424216857.143	-1.79638507e+00	-1.76027569e+02	-6.60009828e+01	-1.56110361e+02	-6.58236237e+01	-1.60371345e+02	-2.18396835e-01	-7.27008433e+00
424502428.571	-1.80053722e+00	-1.76086932e+02	-6.59368201e+01	-1.56093794e+02	-6.58666592e+01	-1.59306361e+02	-2.16711523e-01	-7.45138619e+00
424788000	-1.80443157e+00	-1.76143828e+02	-6.60798456e+01	-1.54658958e+02	-6.58077853e+01	-1.59617790e+02	-2.09748455e-01	-7.56707672e+00
425073571.429	-1.80279846e+00	-1.76168968e+02	-6.59915000e+01	-1.56947448e+02	-6.60464809e+01	-1.61746484e+02	-2.07411321e-01	-7.69359078e+00
425359142.857	-1.80088355e+00	-1.76171659e+02	-6.60574286e+01	-1.56943114e+02	-6.61057019e+01	-1.61301555e+02	-2.03239928e-01	-7.79736585e+00
425644714.286	-1.80143519e+00	-1.76204263e+02	-6.60996169e+01	-1.56235858e+02	-6.57846242e+01	-1.61372698e+02	-1.93113893e-01	-7.93028534e+00
425930285.714	-1.80115912e+00	-1.76259487e+02	-6.58981127e+01	-1.56816882e+02	-6.61516908e+01	-1.62631748e+02	-1.91374716e-01	-8.12248917e+00
426215857.143	-1.80684821e+00	-1.76287759e+02	-6.62509952e+01	-1.55281129e+02	-6.60890206e+01	-1.62627491e+02	-1.85327613e-01	-8.21598673e+00
426501428.571	-1.80961965e+00	-1.76318677e+02	-6.59815643e+01	-1.57284212e+02	-6.63474718e+01	-1.62005508e+02	-1.85369303e-01	-8.37549174e+00
426787000	-1.80904218e+00	-1.76359365e+02	-6.64480199e+01	-1.55629593e+02	-6.62291843e+01	-1.62463232e+02	-1.81497902e-01	-8.48952074e+00
427072571.429	-1.81099886e+00	-1.76397213e+02	-6.63906370e+01	-1.58530275e+02	-6.61586539e+01	-1.62787204e+02	-1.78290670e-01	-8.59965770e+00
427358142.857	-1.81180745e+00	-1.76438717e+02	-6.63804718e+01	-1.56660836e+02	-6.64505019e+01	-1.61830248e+02	-1.83502982e-01	-8.76796426e+00
427643714.286	-1.81126116e+00	-1.76470942e+02	-6.64690775e+01	-1.56422774e+02	-6.62150298e+01	-1.62372386e+02	-1.78734275e-01	-8.90644546e+00
427929285.714	-1.81216663e+00	-1.76519694e+02	-6.62299721e+01	-1.59042294e+02	-6.64343366e+01	-1.64223479e+02	-1.77870141e-01	-9.00219846e+00
428214857.143	-1.81437271e+00	-1.76561187e+02	-6.64404387e+01	-1.59398585e+02	-6.66453519e+01	-1.65489231e+02	-1.71279195e-01	-9.16431679e+00
428500428.571	-1.81214669e+00	-1.76577915e+02	-6.65383357e+01	-1.59069427e+02	-6.64248461e+01	-1.64193023e+02	-1.79583215e-01	-9.30628226e+00
428786000	-1.81082577e+00	-1.76620404e+02	-6.63822728e+01	-1.59698995e+02	-6.65230690e+01	-1.64507691e+02	-1.84487176e-01	-9.44517742e+00
429071571.429	-1.81434329e+00	-1.76666239e+02	-6.63791456e+01	-1.58735719e+02	-6.65425133e+01	-1.65063243e+02	-1.85095638e-01	-9.57580309e+00
429357142.857	-1.81629748e+00	-1.76714995e+02	-6.65183559e+01	-1.60784919e+02	-6.66637851e+01	-1.65656725e+02	-1.78546037e-01	-9.72048429e+00
429642714.286	-1.81605401e+00	-1.76770955e+02	-6.64673070e+01	-1.59133188e+02	-6.66353475e+01	-1.66551645e+02	-1.82477723e-01	-9.85772067e+00
429928285.714	-1.81592293e+00	-1.76808471e+02	-6.64354190e+01	-1.62046927e+02	-6.69245851e+01	-1.65246194e+02	-1.86181236e-01	-9.97505109e+00
430213857.143	-1.81727503e+00	-1.76870414e+02	-6.63411435e+01	-1.61668612e+02	-6.69022591e+01	-1.67379082e+02	-1.86095638e-01	-1.01090635e+01
430499428.571	-1.81561203e+00	-1.76875732e+02	-6.63988803e+01	-1.59864815e+02	-6.67334345e+01	-1.65199493e+02	-1.81356016e-01	-1.02080223e+01
430785000	-1.81585975e+00	-1.76914371e+02	-6.66949590e+01	-1.62430472e+02	-6.67038627e+01	-1.66296441e+02	-1.79209775e-01	-1.03201615e+01
431070571.429	-1.82222833e+00	-1.76929472e+02	-6.65689869e+01	-1.62563183e+02	-6.68329225e+01	-1.67275358e+02	-1.76035930e-01	-1.04600195e+01
431356142.857	-1.82128853e+00	-1.76947569e+02	-6.67530943e+01	-1.61840316e+02	-6.67305075e+01	-1.67151282e+02	-1.71426395e-01	-1.05399061e+01
431641714.286	-1.82387824e+00	-1.76992153e+02	-6.64111418e+01	-1.62766113e+02	-6.70349215e+01	-1.67532357e+02	-1.69520816e-01	-1.07009582e+01
431927285.714	-1.82568333e+00	-1.77021602e+02	-6.67505278e+01	-1.63383315e+02	-6.71539613e+01	-1.66119561e+02	-1.66974278e-01	-1.08206760e+01
432212857.143	-1.82878679e+00	-1.77099234e+02	-6.64465027e+01	-1.63972352e+02	-6.71330338e+01	-1.67597041e+02	-1.68974243e-01	-1.09752256e+01
432498428.571	-1.82583469e+00	-1.77116042e+02	-6.67424446e+01	-1.66106922e+02	-6.70908904e+01	-1.67224889e+02	-1.68772144e-01	-1.11432461e+01
432784000	-1.82852276e+00	-1.77156388e+02	-6.66029681e+01	-1.64298709e+02	-6.71960516e+01	-1.67901041e+02	-1.66533429e-01	-1.12700848e+01
433069571.429	-1.82860716e+00	-1.77176688e+02	-6.68253967e+01	-1.66288222e+02	-6.72907147e+01	-1.68845502e+02	-1.66545932e-01	-1.13852487e+01
433355142.857	-1.82913243e+00	-1.77195691e+02	-6.65703192e+01	-1.65005854e+02	-6.69595177e+01	-1.69493226e+02	-1.62401423e-01	-1.15313621e+01
433640714.286	-1.83586684e+00	-1.77262252e+02	-6.68528657e+01	-1.65251908e+02	-6.71683538e+01	-1.68909938e+02	-1.66628354e-01	-1.16444096e+01
433926285.714	-1.83200922e+00	-1.77323714e+02	-6.68635477e+01	-1.65632043e+02	-6.71084058e+01	-1.69581875e+02	-1.68323540e-01	-1.17614730e+01
434211857.143	-1.83109577e+00	-1.77337736e+02	-6.69501896e+01	-1.67562915e+02	-6.72086590e+01	-1.71288871e+02	-1.63830446e-01	-1.18638029e+01
434497428.571	-1.83226110e+00	-1.77408376e+02	-6.69299039e+01	-1.67005252e+02	-6.72545863e+01	-1.71047749e+02	-1.55913768e-01	-1.19528753e+01
434783000	-1.82848318e+00	-1.77428625e+02	-6.72270762e+01	-1.67800882e+02	-6.74775511e+01	-1.71375317e+02	-1.56240771e-01	-1.20350256e+01
435068571.429	-1.83255443e+00	-1.77470857e+02	-6.71853311e+01	-1.69521489e+02	-6.74883123e+01	-1.71253287e+02	-1.54891708e-01	-1.20961798e+01
435354142.857	-1.83094076e+00	-1.77523092e+02	-6.68977502e+01	-1.69512259e+02	-6.74403359e+01	-1.73807915e+02	-1.53161681e-01	-1.22163555e+01
435639714.286	-1.83086744e+00	-1.77557340e+02	-6.71007853e+01	-1.69663721e+02	-6.72660094e+01	-1.72492539e+02	-1.54298336e-01	-1.23734869e+01
435925285.714	-1.82943554e+00	-1.77599931e+02	-6.70599198e+01	-1.70696657e+02	-6.75885839e+01	-1.73860538e+02	-1.54456372e-01	-1.25604100e+01
436210857.143	-1.83016480e+00	-1.77675537e+02	-6.72446836e+01	-1.70207728e+02	-6.75216214e+01	-1.73156702e+02	-1.53068616e-01	-1.26570978e+01
436496428.571	-1.82855570e+00	-1.77691212e+02	-6.71684751e+01	-1.72127865e+02	-6.76471802e+01	-1.74945256e+02	-1.53475139e-01	-1.27655728e+01
436782000	-1.82544030e+00	-1.77726425e+02	-6.73216646e+01	-1.70952603e+02	-6.76751655e+01	-1.74709975e+02	-1.54970592e-01	-1.28982268e+01
437067571.429	-1.82953717e+00	-1.77778193e+02	-6.74113754e+01	-1.70479981e+02	-6.77238078e+01	-1.76305572e+02	-1.55022570e-01	-1.30187584e+01
437353142.857	-1.83390949e+00	-1.77811911e+02	-6.75795420e+01	-1.72281110e+02	-6.78466351e+01	-1.76135849e+02	-1.58338153e-01	-1.31101442e+01
437638714.286	-1.83276811e+00	-1.77869052e+02	-6.74374485e+01	-1.74520298e+02	-6.76750712e+01	-1.76541488e+02	-1.61849125e-01	-1.32467280e+01
437924285.714	-1.83176188e+00	-1.77937952e+02	-6.76064866e+01	-1.71417822e+02	-6.79403662e+01	-1.77579643e+02	-1.62471769e-01	-1.33413717e+01
438209857.143	-1.83124526e+00	-1.77991872e+02	-6.79134439e+01	-1.75267718e+02	-6.81632038e+01	-1.78039537e+02	-1.63860483e-01	-1.34220713e+01
438495428.571	-1.83513744e+00	-1.78009405e+02	-6.76567463e+01	-1.76762529e+02	-6.82947243e+01	-1.77561373e+02	-1.64529767e-01	-1.35764657e+01
438781000	-1.82477010e+00	-1.78037943e+02	-6.80638525e+01	-1.73714754e+02	-6.85355482e+01	-1.77581840e+02	-1.66541800e-01	-1.37508359e+01
439066571.429	-1.82738357e+00	-1.78044591e+02	-6.81354105e+01	-1.76584817e+02	-6.84297964e+01	-1.77527494e+02	-1.63877209e-01	-1.38768254e+01
439352142.857	-1.82465258e+00	-1.78109734e+02	-6.85680790e+01	-1.75271838e+02	-6.83762212e+01	-1.78400698e+02	-1.56691247e-01	-1.40076798e+01
439637714.286	-1.82733773e+00	-1.78121606e+02	-6.81584414e+01	-1.75694302e+02	-6.87608709e+01	-1.79434957e+02	-1.50307272e-01	-1.41320897e+01
439923285.714	-1.82572965e+00	-1.78133483e+02	-6.88351793e+01	-1.73755375e+02	-6.91850696e+01	-1.77983970e+02	-1.48198442e-01	-1.42437500e+01
440208857.143	-1.83013123e+00	-1.78147355e+02	-6.83911867e+01	-1.75423371e+02	-6.89984321e+01	-1.78836257e+02	-1.50990249e-01	-1.43354845e+01
440494428.571	-1.82590543e+00	-1.78190590e+02	-6.90849699e+01	-1.75197657e+02	-6.94458960e+01	-1.77750911e+02	-1.46775847e-01	-1.44488829e+01
440780000	-1.82841921e+00	-1.78236690e+02	-6.90217790e+01	-1.74950268e+02	-6.95549329e+01	-1.78192881e+02	-1.47979469e-01	-1.45344383e+01
441065571.429	-1.82784829e+00	-1.78249383e+02	-6.91196066e+01	-1.74925368e+02	-6.93168522e+01	-1.78338170e+02	-1.43090696e-01	-1.46530559e+01
441351142.857	-1.82870652e+00	-1.78319344e+02	-6.89431826e+01	-1.78251427e+02	-6.96248925e+01	-1.76305220e+02	-1.51418009e-01	-1.48010349e+01
441636714.286	-1.83445780e+00	-1.78341743e+02	-6.89018461e+01	-1.74495546e+02	-6.93731356e+01	-1.75287731e+02	-1.57619212e-01	-1.49724889e+01
441922285.714	-1.83124451e+00	-1.78379704e+02	-6.93502143e+01	-1.74153683e+02	-6.96918402e+01	-1.76047401e+02	-1.60994975e-01	-1.51225449e+01
442207857.143	-1.82747957e+00	-1.78424732e+02	-6.90903941e+01	-1.72375981e+02	-6.98475700e+01	-1.74237108e+02	-1.66442670e-01	-1.52396991e+01
442493428.571	-1.83330854e+00	-1.78469053e+02	-6.94961827e+01	-1.71576119e+02	-6.97046044e+01	-1.73728069e+02	-1.58949961e-01	-1.53525527e+01
442779000	-1.83293067e+00	-1.78523633e+02	-6.93198799e+01	-1.69989260e+02	-7.00220216e+01	-1.74312325e+02	-1.59389527e-01	-1.54444877e+01
443064571.429	-1.83317796e+00	-1.78555589e+02	-6.92208075e+01	-1.69744151e+02	-6.97561698e+01	-1.74780173e+02	-1.59798466e-01	-1.55168261e+01
443350142.857	-1.82845720e+00	-1.78542475e+02	-6.91733244e+01	-1.70273399e+02	-7.00969910e+01	-1.72585951e+02	-1.65110222e-01	-1.56227719e+01
443635714.286	-1.83593884e+00	-1.78584808e+02	-6.99105968e+01	-1.70045474e+02	-7.00986727e+01	-1.72357880e+02	-1.66992668e-01	-1.57099248e+01
443921285.714	-1.83636780e+00	-1.78599754e+02	-6.97255266e+01	-1.73031354e+02	-7.01694155e+01	-1.70613674e+02	-1.67163282e-01	-1.58245131e+01
444206857.143	-1.84084929e+00	-1.78610016e+02	-6.93749392e+01	-1.67130146e+02	-7.00353200e+01	-1.68431655e+02	-1.60646852e-01	-1.59699570e+01
444492428.571	-1.83946063e+00	-1.78667666e+02	-6.92971001e+01	-1.67499831e+02	-7.02343507e+01	-1.71389473e+02	-1.59428352e-01	-1.61606402e+01
444778000	-1.83622595e+00	-1.78716195e+02	-6.92079042e+01	-1.69504329e+02	-6.95732426e+01	-1.69094808e+02	-1.59210639e-01	-1.63315374e+01
445063571.429	-1.83357004e+00	-1.78762544e+02	-6.95853723e+01	-1.69347407e+02	-6.97680477e+01	-1.69457133e+02	-1.55607476e-01	-1.64933845e+01
445349142.857	-1.83286537e+00	-1.78772891e+02	-6.95244692e+01	-1.67116741e+02	-7.01639908e+01	-1.64793076e+02	-1.56638315e-01	-1.66128500e+01
445634714.286	-1.83112880e+00	-1.78826907e+02	-6.94175305e+01	-1.67643238e+02	-6.98582609e+01	-1.68231414e+02	-1.57280672e-01	-1.67638207e+01
445920285.714	-1.82829272e+00	-1.78869805e+02	-6.86880258e+01	-1.65435089e+02	-7.00428944e+01	-1.66582869e+02	-1.59354219e-01	-1.68538956e+01
446205857.143	-1.82736837e+00	-1.78937789e+02	-6.89402606e+01	-1.64145061e+02	-6.97308297e+01	-1.67807310e+02	-1.66049518e-01	-1.69136110e+01
446491428.571	-1.83474498e+00	-1.78975720e+02	-6.90637090e+01	-1.67352872e+02	-6.96561233e+01	-1.67480874e+02	-1.60168082e-01	-1.69527436e+01
446777000	-1.83005571e+00	-1.79045552e+02	-6.89854179e+01	-1.64117214e+02	-6.94975295e+01	-1.65254520e+02	-1.64702401e-01	-1.69732828e+01
447062571.429	-1.83221724e+00	-1.79081231e+02	-6.88194811e+01	-1.64371545e+02	-6.94542052e+01	-1.65158894e+02	-1.68291039e-01	-1.70851073e+01
447348142.857	-1.83578863e+00	-1.79079268e+02	-6.87640999e+01	-1.66492155e+02	-6.95980265e+01	-1.62830008e+02	-1.69983605e-01	-1.71665327e+01
447633714.286	-1.83200508e+00	-1.79122414e+02	-6.88732896e+01	-1.63800462e+02	-6.88842634e+01	-1.66513095e+02	-1.74509171e-01	-1.73321312e+01
447919285.714	-1.83357024e+00	-1.79176347e+02	-6.87046171e+01	-1.63374654e+02	-6.89776909e+01	-1.63752050e+02	-1.69438234e-01	-1.74416204e+01
448204857.143	-1.83893929e+00	-1.79140248e+02	-6.85949320e+01	-1.64387508e+02	-6.87183036e+01	-1.64601523e+02	-1.69810250e-01	-1.75894259e+01
448490428.571	-1.83459515e+00	-1.79253785e+02	-6.84091615e+01	-1.65013694e+02	-6.90572452e+01	-1.64522917e+02	-1.62594147e-01	-1.76993822e+01
448776000	-1.82971098e+00	-1.79260904e+02	-6.82775440e+01	-1.64903274e+02	-6.86610080e+01	-1.63122088e+02	-1.61059281e-01	-1.78661236e+01
449061571.429	-1.83133099e+00	-1.79323725e+02	-6.80674555e+01	-1.65259933e+02	-6.86602459e+01	-1.63771834e+02	-1.59796847e-01	-1.79977793e+01
449347142.857	-1.83136333e+00	-1.79339849e+02	-6.82425828e+01	-1.64286300e+02	-6.87476649e+01	-1.64606008e+02	-1.61589410e-01	-1.80672952e+01
449632714.286	-1.83328104e+00	-1.79408385e+02	-6.78528786e+01	-1.64414592e+02	-6.86599808e+01	-1.66586836e+02	-1.68181784e-01	-1.81710389e+01
449918285.714	-1.82887221e+00	-1.79413701e+02	-6.81982994e+01	-1.67728814e+02	-6.85670688e+01	-1.66019165e+02	-1.74589667e-01	-1.82477366e+01
450203857.143	-1.83101244e+00	-1.79455095e+02	-6.78986153e+01	-1.65125890e+02	-6.82599086e+01	-1.65673110e+02	-1.76556716e-01	-1.83283375e+01
450489428.571	-1.83163438e+00	-1.79472895e+02	-6.82183464e+01	-1.68975225e+02	-6.82928237e+01	-1.67729045e+02	-1.79458422e-01	-1.84655757e+01
450775000	-1.83122893e+00	-1.79557358e+02	-6.78991047e+01	-1.66566922e+02	-6.81382362e+01	-1.68183896e+02	-1.78206890e-01	-1.85752481e+01
451060571.429	-1.83172576e+00	-1.79587708e+02	-6.77489456e+01	-1.66850961e+02	-6.83396395e+01	-1.67403726e+02	-1.83735273e-01	-1.86894645e+01
451346142.857	-1.82292793e+00	-1.79632096e+02	-6.78653235e+01	-1.66764067e+02	-6.78145147e+01	-1.70095613e+02	-1.79521631e-01	-1.88314253e+01
451631714.286	-1.82924171e+00	-1.79685720e+02	-6.78189326e+01	-1.67694731e+02	-6.80161036e+01	-1.70509056e+02	-1.86751964e-01	-1.88975095e+01
451917285.714	-1.83016910e+00	-1.79735496e+02	-6.80421522e+01	-1.69515039e+02	-6.78041836e+01	-1.70045262e+02	-1.89823704e-01	-1.89758427e+01
452202857.143	-1.82932741e+00	-1.79760219e+02	-6.82518873e+01	-1.70821861e+02	-6.79642565e+01	-1.70880517e+02	-1.85005376e-01	-1.91846029e+01
452488428.571	-1.82655186e+00	-1.79815754e+02	-6.77262793e+01	-1.69956211e+02	-6.78243453e+01	-1.72095522e+02	-1.80062381e-01	-1.93567744e+01
452774000	-1.83021212e+00	-1.79865312e+02	-6.77331950e+01	-1.71669192e+02	-6.79201462e+01	-1.70694788e+02	-1.85184024e-01	-1.94504234e+01
453059571.429	-1.83367708e+00	-1.79934943e+02	-6.77305730e+01	-1.71408198e+02	-6.76570896e+01	-1.71563299e+02	-1.88606995e-01	-1.96411798e+01
453345142.857	-1.83323436e+00	-1.79985291e+02	-6.79442570e+01	-1.69101585e+02	-6.77765514e+01	-1.69981592e+02	-1.79901092e-01	-1.97327863e+01
453630714.286	-1.83306274e+00	-1.79968784e+02	-6.69819087e+01	-1.69644337e+02	-6.75393607e+01	-1.74882656e+02	-1.77187051e-01	-1.99174526e+01
453916285.714	-1.82876154e+00	1.79911559e+02	-6.75990565e+01	-1.72283900e+02	-6.78865458e+01	-1.73922954e+02	-1.75902277e-01	-2.00587551e+01
454201857.143	-1.83100592e+00	1.79888739e+02	-6.73370141e+01	-1.73425294e+02	-6.73111446e+01	-1.74664522e+02	-1.68389180e-01	-2.01476315e+01
454487428.571	-1.82443172e+00	1.79820524e+02	-6.75890233e+01	-1.72453557e+02	-6.73789461e+01	-1.74003394e+02	-1.67898146e-01	-2.02236311e+01
454773000	-1.82874616e+00	1.79800517e+02	-6.76483947e+01	-1.70067551e+02	-6.76699757e+01	-1.74953596e+02	-1.67853163e-01	-2.04011804e+01
455058571.429	-1.82937550e+00	1.79793956e+02	-6.78132527e+01	-1.74051043e+02	-6.76279410e+01	-1.77575591e+02	-1.86737177e-01	-2.05431436e+01
455344142.857	-1.82617533e+00	1.79730127e+02	-6.73167281e+01	-1.70605752e+02	-6.77546817e+01	-1.75045725e+02	-1.80220541e-01	-2.06099599e+01
455629714.286	-1.82204894e+00	1.79687947e+02	-6.76900574e+01	-1.73953225e+02	-6.77635031e+01	-1.76664939e+02	-1.79736738e-01	-2.07232597e+01
455915285.714	-1.82542618e+00	1.79646118e+02	-6.75713810e+01	-1.75206834e+02	-6.76803127e+01	-1.76315515e+02	-1.81881889e-01	-2.07848721e+01
456200857.143	-1.83163876e+00	1.79598720e+02	-6.77001869e+01	-1.76875755e+02	-6.75137855e+01	-1.78293735e+02	-1.80978200e-01	-2.09834626e+01
456486428.571	-1.82040152e+00	1.79615235e+02	-6.75207106e+01	-1.75265743e+02	-6.76383160e+01	-1.77380125e+02	-1.85996275e-01	-2.10704017e+01
456772000	-1.83372032e+00	1.79513694e+02	-6.75120623e+01	-1.75015726e+02	-6.78112309e+01	-1.78522235e+02	-1.82249224e-01	-2.12105414e+01
457057571.429	-1.83540988e+00	1.79492922e+02	-6.78731986e+01	-1.77450901e+02	-6.74918219e+01	-1.79452644e+02	-1.88067380e-01	-2.12896436e+01
457343142.857	-1.82952351e+00	1.79418286e+02	-6.70103227e+01	-1.77014807e+02	-6.79470835e+01	1.79990996e+02	-1.91468849e-01	-2.14545955e+01
457628714.286	-1.83061545e+00	1.79431299e+02	-6.77134414e+01	-1.78694891e+02	-6.78663695e+01	-1.79479113e+02	-1.92489217e-01	-2.15222936e+01
457914285.714	-1.83434956e+00	1.79450166e+02	-6.75876828e+01	-1.73379188e+02	-6.77158678e+01	1.78919941e+02	-1.96503673e-01	-2.16725635e+01
458199857.143	-1.82485946e+00	1.79352475e+02	-6.72057846e+01	-1.77754554e+02	-6.76972062e+01	1.79797789e+02	-1.92441245e-01	-2.17683623e+01
458485428.571	-1.83097789e+00	1.79303450e+02	-6.75170630e+01	-1.77916601e+02	-6.76085405e+01	-1.79854764e+02	-1.97448160e-01	-2.19200374e+01
458771000	-1.82574667e+00	1.79290712e+02	-6.72786869e+01	-1.79444056e+02	-6.77813480e+01	1.79065019e+02	-1.97812568e-01	-2.20456136e+01
459056571.429	-1.83411770e+00	1.79236713e+02	-6.71466112e+01	-1.78227270e+02	-6.76500007e+01	1.76131446e+02	-1.98062565e-01	-2.21973395e+01
459342142.857	-1.83544154e+00	1.79214877e+02	-6.74721947e+01	-1.76813008e+02	-6.78532951e+01	1.76224962e+02	-2.00338763e-01	-2.23357914e+01
459627714.286	-1.84433760e+00	1.79191531e+02	-6.73421023e+01	1.78134221e+02	-6.79643343e+01	1.77878744e+02	-1.91130062e-01	-2.24693138e+01
459913285.714	-1.83896178e+00	1.79123569e+02	-6.73761145e+01	1.78536619e+02	-6.78775868e+01	1.77586353e+02	-2.01268715e-01	-2.26022003e+01
460198857.143	-1.83741089e+00	1.79084229e+02	-6.74964422e+01	1.78566989e+02	-6.75074549e+01	1.76045093e+02	-2.02729084e-01	-2.26992654e+01
460484428.571	-1.83985463e+00	1.79075923e+02	-6.74741913e+01	-1.79244572e+02	-6.73870447e+01	1.77951566e+02	-2.02681339e-01	-2.28551480e+01
460770000	-1.84635993e+00	1.79011684e+02	-6.71384037e+01	-1.79050255e+02	-6.79971728e+01	1.75550446e+02	-2.00858459e-01	-2.29728206e+01
461055571.429	-1.83540554e+00	1.79010053e+02	-6.78121204e+01	-1.78229748e+02	-6.77903874e+01	1.75008267e+02	-1.96506074e-01	-2.31174880e+01
461341142.857	-1.84445465e+00	1.78947979e+02	-6.71095163e+01	1.78888394e+02	-6.78619046e+01	1.74425149e+02	-1.99394032e-01	-2.32090330e+01
461626714.286	-1.84551685e+00	1.78894231e+02	-6.76161490e+01	-1.79533202e+02	-6.79205094e+01	1.72521233e+02	-2.05301774e-01	-2.33401784e+01
461912285.714	-1.85073543e+00	1.78902229e+02	-6.73081945e+01	1.79415182e+02	-6.77222343e+01	1.76327428e+02	-1.96345892e-01	-2.35649919e+01
462197857.143	-1.84548993e+00	1.78829174e+02	-6.65002086e+01	-1.76937862e+02	-6.76092130e+01	1.73566063e+02	-1.98318747e-01	-2.36232934e+01
462483428.571	-1.84484371e+00	1.78811028e+02	-6.72344182e+01	1.78132073e+02	-6.74745274e+01	1.72926972e+02	-2.05970839e-01	-2.37422543e+01
462769000	-1.84940337e+00	1.78732518e+02	-6.74113445e+01	1.74989778e+02	-6.76124050e+01	1.73114564e+02	-1.93368593e-01	-2.39030162e+01
463054571.429	-1.85190407e+00	1.78701848e+02	-6.72097983e+01	1.77728058e+02	-6.75024381e+01	1.73263221e+02	-2.10712857e-01	-2.40415257e+01
463340142.857	-1.84000551e+00	1.78658421e+02	-6.72239289e+01	1.75222176e+02	-6.74100244e+01	1.71461865e+02	-2.03918787e-01	-2.42283977e+01
463625714.286	-1.83854805e+00	1.78659999e+02	-6.72129254e+01	1.73742806e+02	-6.77838167e+01	1.73323605e+02	-2.14152940e-01	-2.43602125e+01
463911285.714	-1.84716872e+00	1.78612926e+02	-6.69479455e+01	1.77159507e+02	-6.79111377e+01	1.73840643e+02	-2.01156288e-01	-2.44650309e+01
464196857.143	-1.83955444e+00	1.78555865e+02	-6.68272479e+01	1.74664110e+02	-6.73698083e+01	1.70482229e+02	-2.04357893e-01	-2.45926486e+01
464482428.571	-1.85136225e+00	1.78526724e+02	-6.69091149e+01	1.73700036e+02	-6.79086874e+01	1.68656781e+02	-2.03579456e-01	-2.47608905e+01
464768000	-1.84889224e+00	1.78453446e+02	-6.66574835e+01	1.73652134e+02	-6.76775058e+01	1.69872749e+02	-2.01544464e-01	-2.49019838e+01
465053571.429	-1.85520349e+00	1.78428230e+02	-6.73542774e+01	1.75202830e+02	-6.73416672e+01	1.70847776e+02	-1.96695108e-01	-2.50201076e+01
465339142.857	-1.85303382e+00	1.78431523e+02	-6.72638821e+01	1.75467823e+02	-6.72977604e+01	1.71964654e+02	-2.07486360e-01	-2.52025304e+01
465624714.286	-1.84961738e+00	1.78373941e+02	-6.68138674e+01	1.72898191e+02	-6.78272117e+01	1.71854370e+02	-2.09179133e-01	-2.53005028e+01
465910285.714	-1.85482006e+00	1.78340174e+02	-6.68245329e+01	1.71958673e+02	-6.75592037e+01	1.70162580e+02	-2.14783159e-01	-2.54070022e+01
466195857.143	-1.85111560e+00	1.78288402e+02	-6.68404191e+01	1.70320921e+02	-6.77359205e+01	1.69394453e+02	-2.16475551e-01	-2.55073106e+01
466481428.571	-1.84398652e+00	1.78295999e+02	-6.68713588e+01	1.71044831e+02	-6.75759931e+01	1.69825993e+02	-2.15484671e-01	-2.57120207e+01
466767000	-1.84993033e+00	1.78253609e+02	-6.63245831e+01	1.68795276e+02	-6.72738580e+01	1.65597577e+02	-2.13326174e-01	-2.58216225e+01
467052571.429	-1.84869959e+00	1.78252926e+02	-6.67774034e+01	1.67505515e+02	-6.75239964e+01	1.66744186e+02	-2.04613214e-01	-2.59179768e+01
467338142.857	-1.84797305e+00	1.78185263e+02	-6.69390069e+01	1.70591214e+02	-6.75385609e+01	1.66339716e+02	-2.13098131e-01	-2.60873413e+01
467623714.286	-1.85432795e+00	1.78125922e+02	-6.70090982e+01	1.71146173e+02	-6.79306960e+01	1.65241894e+02	-2.14327885e-01	-2.61585648e+01
467909285.714	-1.85052994e+00	1.78094381e+02	-6.67631395e+01	1.68022518e+02	-6.75174623e+01	1.66652850e+02	-2.26284422e-01	-2.63570268e+01
468194857.143	-1.85157373e+00	1.78029869e+02	-6.67372550e+01	1.68524681e+02	-6.76487065e+01	1.65757606e+02	-2.24964969e-01	-2.65263465e+01
468480428.571	-1.85119954e+00	1.78029299e+02	-6.65265217e+01	1.68938889e+02	-6.77472582e+01	1.63691858e+02	-2.23657041e-01	-2.66450861e+01
468766000	-1.85797595e+00	1.77959537e+02	-6.66100264e+01	1.67431101e+02	-6.82970879e+01	1.65871360e+02	-2.18656471e-01	-2.68015565e+01
469051571.429	-1.86072615e+00	1.77979545e+02	-6.66321109e+01	1.68317281e+02	-6.77523547e+01	1.61955670e+02	-2.12948872e-01	-2.69324264e+01
469337142.857	-1.86093905e+00	1.77897882e+02	-6.66273532e+01	1.66926698e+02	-6.76302808e+01	1.63904723e+02	-2.13018279e-01	-2.70552475e+01
469622714.286	-1.86636362e+00	1.77874983e+02	-6.67871019e+01	1.65740323e+02	-6.78671211e+01	1.65545396e+02	-2.19208501e-01	-2.72387168e+01
469908285.714	-1.86462892e+00	1.77853756e+02	-6.70902151e+01	1.64575520e+02	-6.80349046e+01	1.64572682e+02	-2.22336040e-01	-2.73102011e+01
470193857.143	-1.87110889e+00	1.77813210e+02	-6.64119392e+01	1.67894068e+02	-6.80388964e+01	1.64312926e+02	-2.30103666e-01	-2.75012981e+01
470479428.571	-1.87668774e+00	1.77770559e+02	-6.69195262e+01	1.67701513e+02	-6.79760548e+01	1.61802816e+02	-2.21466816e-01	-2.76594245e+01
470765000	-1.87253404e+00	1.77762701e+02	-6.68075770e+01	1.61711748e+02	-6.74211130e+01	1.63183483e+02	-2.16635896e-01	-2.77253057e+01
471050571.429	-1.87701279e+00	1.77705766e+02	-6.63678490e+01	1.62421773e+02	-6.78199800e+01	1.61909122e+02	-2.17209635e-01	-2.79005961e+01
471336142.857	-1.87141390e+00	1.77678587e+02	-6.72452603e+01	1.63471247e+02	-6.81218871e+01	1.62978914e+02	-2.24229096e-01	-2.80326162e+01
471621714.286	-1.87697960e+00	1.77647428e+02	-6.66896695e+01	1.61826074e+02	-6.77881853e+01	1.59520741e+02	-2.14511960e-01	-2.82008392e+01
471907285.714	-1.87891333e+00	1.77631460e+02	-6.68520697e+01	1.61579871e+02	-6.81873975e+01	1.61954863e+02	-2.10640489e-01	-2.83198201e+01
472192857.143	-1.87956534e+00	1.77586896e+02	-6.72734253e+01	1.63114780e+02	-6.75339187e+01	1.62395125e+02	-2.18569813e-01	-2.84750216e+01
472478428.571	-1.87875687e+00	1.77518765e+02	-6.65455012e+01	1.60294949e+02	-6.77659838e+01	1.63594033e+02	-2.11765179e-01	-2.85575346e+01
472764000	-1.88015491e+00	1.77497670e+02	-6.63710726e+01	1.58887993e+02	-6.76424243e+01	1.59970146e+02	-2.12823436e-01	-2.87444251e+01
473049571.429	-1.88135732e+00	1.77480511e+02	-6.67266875e+01	1.60546535e+02	-6.78400820e+01	1.61289636e+02	-2.10301521e-01	-2.89130514e+01
473335142.857	-1.88089168e+00	1.77449498e+02	-6.67738014e+01	1.58624659e+02	-6.75541205e+01	1.58455989e+02	-2.12564289e-01	-2.90925645e+01
473620714.286	-1.87904059e+00	1.77436095e+02	-6.65149181e+01	1.57893601e+02	-6.75809842e+01	1.60403862e+02	-2.10197926e-01	-2.91873931e+01
473906285.714	-1.88364965e+00	1.77367049e+02	-6.65637584e+01	1.58461350e+02	-6.77307736e+01	1.60338786e+02	-2.14477598e-01	-2.93544165e+01
474191857.143	-1.89330161e+00	1.77332166e+02	-6.65400893e+01	1.57456917e+02	-6.74526825e+01	1.60372199e+02	-2.10780238e-01	-2.95303071e+01
474477428.571	-1.88632350e+00	1.77300831e+02	-6.61410209e+01	1.56366582e+02	-6.78759706e+01	1.58331293e+02	-2.10678962e-01	-2.96493475e+01
474763000	-1.89466470e+00	1.77266317e+02	-6.66082843e+01	1.55185352e+02	-6.76910288e+01	1.57915495e+02	-2.08082648e-01	-2.97921580e+01
475048571.429	-1.89413766e+00	1.77236178e+02	-6.66244417e+01	1.54332380e+02	-6.73157753e+01	1.55390609e+02	-2.10118945e-01	-2.99392299e+01
475334142.857	-1.89504247e+00	1.77184370e+02	-6.66400537e+01	1.52769674e+02	-6.73913230e+01	1.55626454e+02	-2.12094527e-01	-3.00395967e+01
475619714.286	-1.89812170e+00	1.77133778e+02	-6.63384291e+01	1.57115860e+02	-6.73450583e+01	1.56041967e+02	-2.09500111e-01	-3.02404677e+01
475905285.714	-1.90344300e+00	1.77090040e+02	-6.68422200e+01	1.53628228e+02	-6.74969602e+01	1.53657808e+02	-2.12636790e-01	-3.04002862e+01
476190857.143	-1.90215584e+00	1.77092121e+02	-6.64628373e+01	1.51382599e+02	-6.70257390e+01	1.54593454e+02	-2.17473614e-01	-3.04926748e+01
476476428.571	-1.90151625e+00	1.77066120e+02	-6.64306363e+01	1.50071142e+02	-6.72854677e+01	1.52480907e+02	-2.16268591e-01	-3.06441438e+01
476762000	-1.90693364e+00	1.77007921e+02	-6.64399620e+01	1.48746261e+02	-6.72262500e+01	1.53119905e+02	-2.12963730e-01	-3.08067942e+01
477047571.429	-1.90961704e+00	1.76956556e+02	-6.68662083e+01	1.50613724e+02	-6.73364304e+01	1.50063962e+02	-2.09647811e-01	-3.09341179e+01
477333142.857	-1.90690112e+00	1.76923296e+02	-6.65254988e+01	1.47606906e+02	-6.72746098e+01	1.49734361e+02	-2.12775472e-01	-3.10437831e+01
477618714.286	-1.91049741e+00	1.76863431e+02	-6.63593349e+01	1.47231015e+02	-6.74945223e+01	1.48715648e+02	-2.12682886e-01	-3.11939276e+01
477904285.714	-1.90888997e+00	1.76843158e+02	-6.61837329e+01	1.44850697e+02	-6.71426234e+01	1.47568009e+02	-2.15760478e-01	-3.13636829e+01
478189857.143	-1.91268743e+00	1.76801301e+02	-6.64912555e+01	1.47316117e+02	-6.72587623e+01	1.47165131e+02	-2.15368912e-01	-3.15042016e+01
478475428.571	-1.91181348e+00	1.76803752e+02	-6.66974918e+01	1.44601441e+02	-6.71383584e+01	1.45428300e+02	-2.08942329e-01	-3.16452450e+01
478761000	-1.90876236e+00	1.76788790e+02	-6.68485864e+01	1.43817614e+02	-6.75667832e+01	1.45059962e+02	-2.13614933e-01	-3.17585190e+01
479046571.429	-1.91202921e+00	1.76715219e+02	-6.62835213e+01	1.42546291e+02	-6.72532843e+01	1.43557826e+02	-2.04436366e-01	-3.19142064e+01
479332142.857	-1.91385860e+00	1.76693161e+02	-6.66524637e+01	1.42306148e+02	-6.73635566e+01	1.40266720e+02	-2.08495332e-01	-3.20523251e+01
479617714.286	-1.91930417e+00	1.76660057e+02	-6.68463663e+01	1.38907419e+02	-6.74517004e+01	1.40389481e+02	-2.10040260e-01	-3.22117570e+01
479903285.714	-1.91784834e+00	1.76594511e+02	-6.68523121e+01	1.37743891e+02	-6.74543543e+01	1.42062025e+02	-2.09872937e-01	-3.23488376e+01
480188857.143	-1.92093154e+00	1.76593866e+02	-6.70492089e+01	1.36962390e+02	-6.77857877e+01	1.39447879e+02	-2.03536682e-01	-3.25263880e+01
480474428.571	-1.91770610e+00	1.76546086e+02	-6.70352330e+01	1.38211110e+02	-6.77426372e+01	1.39007801e+02	-2.07369722e-01	-3.26500271e+01
480760000	-1.92071532e+00	1.76517677e+02	-6.68862741e+01	1.34151709e+02	-6.80583152e+01	1.34721121e+02	-2.05141945e-01	-3.27817820e+01
481045571.429	-1.92107513e+00	1.76458795e+02	-6.68967139e+01	1.32392162e+02	-6.80174639e+01	1.35075837e+02	-2.07429549e-01	-3.29162141e+01
481331142.857	-1.92547638e+00	1.76447827e+02	-6.70705582e+01	1.35501740e+02	-6.80747915e+01	1.36698289e+02	-2.06652069e-01	-3.30820746e+01
481616714.286	-1.92104277e+00	1.76420095e+02	-6.72260628e+01	1.32004758e+02	-6.81998443e+01	1.32479223e+02	-2.06833665e-01	-3.32131008e+01
481902285.714	-1.92411867e+00	1.76409948e+02	-6.76952913e+01	1.30989171e+02	-6.80624868e+01	1.31010441e+02	-2.04507862e-01	-3.33865178e+01
482187857.143	-1.92696181e+00	1.76378996e+02	-6.80341176e+01	1.32669717e+02	-6.87756614e+01	1.32697380e+02	-2.06811977e-01	-3.35160509e+01
482473428.571	-1.93052276e+00	1.76344533e+02	-6.75799012e+01	1.30282819e+02	-6.87978195e+01	1.31022271e+02	-2.01551056e-01	-3.36619308e+01
482759000	-1.93312838e+00	1.76310968e+02	-6.80613171e+01	1.28458819e+02	-6.91076780e+01	1.30587611e+02	-1.94557999e-01	-3.37969305e+01
483044571.429	-1.93368571e+00	1.76241974e+02	-6.82352212e+01	1.26323507e+02	-6.94157821e+01	1.32507143e+02	-1.96966289e-01	-3.39390704e+01
483330142.857	-1.92993045e+00	1.76227846e+02	-6.85593723e+01	1.27327899e+02	-6.94609613e+01	1.31157620e+02	-2.00586059e-01	-3.40496179e+01
483615714.286	-1.93464265e+00	1.76191975e+02	-6.84902610e+01	1.28336249e+02	-6.95323704e+01	1.26153605e+02	-1.97279281e-01	-3.42042449e+01
483901285.714	-1.93131687e+00	1.76176093e+02	-6.86891937e+01	1.27384674e+02	-6.96984498e+01	1.29628630e+02	-1.96852517e-01	-3.43673247e+01
484186857.143	-1.93442721e+00	1.76137895e+02	-6.84225033e+01	1.27330843e+02	-6.97573669e+01	1.29168849e+02	-1.94600678e-01	-3.45067853e+01
484472428.571	-1.93827919e+00	1.76111616e+02	-6.81814600e+01	1.26770373e+02	-6.96435987e+01	1.29761627e+02	-1.97502326e-01	-3.46383209e+01
484758000	-1.93541801e+00	1.76073472e+02	-6.89982777e+01	1.27250486e+02	-6.99822603e+01	1.27507697e+02	-1.98629949e-01	-3.47985369e+01
485043571.429	-1.93957467e+00	1.76056804e+02	-6.87400024e+01	1.25383939e+02	-7.00747527e+01	1.29720897e+02	-1.99374073e-01	-3.49354534e+01
485329142.857	-1.94394451e+00	1.76022638e+02	-6.87218849e+01	1.26968757e+02	-6.99720715e+01	1.25685053e+02	-1.98558226e-01	-3.50518515e+01
485614714.286	-1.94651531e+00	1.75979857e+02	-6.90792387e+01	1.23549514e+02	-7.04116819e+01	1.27773058e+02	-1.94890650e-01	-3.51959262e+01
485900285.714	-1.95149812e+00	1.75924615e+02	-6.91466898e+01	1.26143424e+02	-6.98811346e+01	1.27414922e+02	-1.94069564e-01	-3.53101285e+01
486185857.143	-1.95007346e+00	1.75856333e+02	-6.89227837e+01	1.23391768e+02	-7.01382792e+01	1.26060065e+02	-1.91500727e-01	-3.54536144e+01
486471428.571	-1.95118692e+00	1.75853795e+02	-6.93560954e+01	1.26470355e+02	-7.02580951e+01	1.26145078e+02	-1.91644122e-01	-3.55850155e+01
486757000	-1.95126130e+00	1.75815566e+02	-6.89641501e+01	1.22165705e+02	-7.01205024e+01	1.24883805e+02	-1.89757899e-01	-3.57005031e+01
487042571.429	-1.95245459e+00	1.75800150e+02	-6.91791212e+01	1.20712932e+02	-7.01058973e+01	1.24906334e+02	-1.87684519e-01	-3.58623452e+01
487328142.857	-1.95443656e+00	1.75763950e+02	-6.91561142e+01	1.19798291e+02	-7.04221054e+01	1.23523625e+02	-1.86004877e-01	-3.59831360e+01
487613714.286	-1.95798893e+00	1.75741337e+02	-6.91986334e+01	1.18511358e+02	-7.01345562e+01	1.22801891e+02	-1.82215518e-01	-3.61120680e+01
487899285.714	-1.95479315e+00	1.75686348e+02	-6.93145870e+01	1.16116662e+02	-7.02348118e+01	1.19519179e+02	-1.80334460e-01	-3.62456245e+01
488184857.143	-1.95599896e+00	1.75648786e+02	-6.95693648e+01	1.16610321e+02	-7.02858147e+01	1.21154828e+02	-1.80178800e-01	-3.63930339e+01
488470428.571	-1.95798220e+00	1.75630737e+02	-6.94674099e+01	1.13221965e+02	-7.07396860e+01	1.18976368e+02	-1.80827731e-01	-3.65593576e+01
488756000	-1.95952595e+00	1.75572533e+02	-6.93434867e+01	1.12684799e+02	-7.05761444e+01	1.16326661e+02	-1.86049064e-01	-3.66782346e+01
489041571.429	-1.96029809e+00	1.75532823e+02	-6.93849080e+01	1.12608989e+02	-7.11990623e+01	1.12655884e+02	-1.80800230e-01	-3.68268654e+01
489327142.857	-1.96333596e+00	1.75479838e+02	-6.99574338e+01	1.09820131e+02	-7.13197938e+01	1.11483404e+02	-1.78126292e-01	-3.69530516e+01
489612714.286	-1.96209598e+00	1.75475480e+02	-7.00626269e+01	1.09058435e+02	-7.07698530e+01	1.12853598e+02	-1.77723454e-01	-3.70514468e+01
489898285.714	-1.96745992e+00	1.75435826e+02	-6.99265092e+01	1.03141646e+02	-7.13897213e+01	1.07350749e+02	-1.75292486e-01	-3.71722708e+01
490183857.143	-1.96812165e+00	1.75376107e+02	-7.01876715e+01	1.04143959e+02	-7.15926988e+01	1.08238762e+02	-1.74931744e-01	-3.72724669e+01
490469428.571	-1.96382751e+00	1.75309158e+02	-7.04281435e+01	1.02570860e+02	-7.22058363e+01	1.06767759e+02	-1.70494679e-01	-3.73499660e+01
490755000	-1.96962204e+00	1.75285423e+02	-7.10769454e+01	1.02193730e+02	-7.24361634e+01	1.05975090e+02	-1.77867336e-01	-3.74894531e+01
491040571.429	-1.96960383e+00	1.75252887e+02	-7.07975306e+01	9.74046959e+01	-7.25542429e+01	9.93751931e+01	-1.73754078e-01	-3.76192696e+01
491326142.857	-1.97421533e+00	1.75234446e+02	-7.12226872e+01	9.63955717e+01	-7.29330656e+01	9.98331918e+01	-1.77617573e-01	-3.77894656e+01
491611714.286	-1.97415255e+00	1.75191774e+02	-7.15413689e+01	9.36012534e+01	-7.34240806e+01	9.87340915e+01	-1.78701859e-01	-3.79208644e+01
491897285.714	-1.97829063e+00	1.75183663e+02	-7.19270157e+01	9.13230694e+01	-7.37931215e+01	9.45131119e+01	-1.80570583e-01	-3.80781354e+01
492182857.143	-1.98068682e+00	1.75132349e+02	-7.18079707e+01	8.92116281e+01	-7.41194980e+01	8.91581852e+01	-1.79948446e-01	-3.82362671e+01
492468428.571	-1.98197463e+00	1.75092440e+02	-7.23655757e+01	8.40623345e+01	-7.46309926e+01	8.97516989e+01	-1.77619367e-01	-3.83950080e+01
492754000	-1.98468944e+00	1.75028045e+02	-7.28109308e+01	8.41241998e+01	-7.49504406e+01	8.66187613e+01	-1.79136145e-01	-3.85015598e+01
493039571.429	-1.98897468e+00	1.75011640e+02	-7.36500767e+01	8.22154599e+01	-7.52564125e+01	8.80035242e+01	-1.79042192e-01	-3.86301298e+01
493325142.857	-1.98498808e+00	1.74959836e+02	-7.30905392e+01	7.90916525e+01	-7.64448109e+01	8.22470796e+01	-1.80734765e-01	-3.86927382e+01
493610714.286	-1.98640451e+00	1.74918208e+02	-7.40584046e+01	7.84091563e+01	-7.72489076e+01	8.05461105e+01	-1.84325946e-01	-3.87912166e+01
493896285.714	-1.98808544e+00	1.74883880e+02	-7.41468065e+01	7.86468051e+01	-7.72641918e+01	7.95369936e+01	-1.82355731e-01	-3.89403758e+01
494181857.143	-1.98566050e+00	1.74882792e+02	-7.44236298e+01	6.92175134e+01	-7.75834429e+01	7.47893082e+01	-1.85526835e-01	-3.90786461e+01
494467428.571	-1.98793906e+00	1.74863169e+02	-7.52460677e+01	7.08925005e+01	-7.82405327e+01	7.05250668e+01	-1.78542966e-01	-3.92264718e+01
494753000	-1.98814461e+00	1.74841411e+02	-7.55432282e+01	6.87580398e+01	-7.95215056e+01	6.78637413e+01	-1.81731890e-01	-3.94247000e+01
495038571.429	-1.99836019e+00	1.74792469e+02	-7.59916141e+01	6.11128048e+01	-7.99757860e+01	6.07704523e+01	-1.76593290e-01	-3.95816011e+01
495324142.857	-1.99369146e+00	1.74735385e+02	-7.68863180e+01	5.73257964e+01	-8.10715633e+01	6.14316828e+01	-1.76741459e-01	-3.96874239e+01
495609714.286	-1.99835908e+00	1.74683303e+02	-7.80099571e+01	4.89566653e+01	-8.23054646e+01	4.75291623e+01	-1.74177708e-01	-3.97871541e+01
495895285.714	-1.99621265e+00	1.74664840e+02	-7.80254462e+01	4.54804127e+01	-8.40836181e+01	3.22137906e+01	-1.76184818e-01	-3.98995889e+01
496180857.143	-1.99783631e+00	1.74635256e+02	-7.90738914e+01	3.29005896e+01	-8.51706234e+01	2.24402850e+01	-1.83864135e-01	-3.99841477e+01
496466428.571	-1.99719139e+00	1.74589013e+02	-8.00494906e+01	2.89318893e+01	-8.72361497e+01	1.09789719e+01	-1.85813618e-01	-4.00987520e+01
496752000	-1.99757121e+00	1.74562887e+02	-8.03960330e+01	2.50096850e+01	-8.93729025e+01	-1.88759996e+01	-1.87936196e-01	-4.02503223e+01
497037571.429	-1.99776190e+00	1.74557764e+02	-8.11873406e+01	7.57510619e+00	-8.56367716e+01	-1.98886777e+01	-1.95471952e-01	-4.04270354e+01
497323142.857	-1.99801964e+00	1.74524475e+02	-8.20316596e+01	5.59671257e+00	-8.36356043e+01	-4.87796140e+01	-1.93361540e-01	-4.05935840e+01
497608714.286	-1.99894862e+00	1.74504528e+02	-8.32166313e+01	-5.29388752e+00	-8.32745919e+01	-5.33545933e+01	-1.92588388e-01	-4.07367610e+01
497894285.714	-2.00034143e+00	1.74442744e+02	-8.28631744e+01	-2.74673678e+01	-8.27799127e+01	-7.11728921e+01	-1.89881802e-01	-4.08707766e+01
498179857.143	-2.00348772e+00	1.74396601e+02	-8.21691657e+01	-4.26183473e+01	-8.02811985e+01	-8.29862333e+01	-1.84735796e-01	-4.09923314e+01
498465428.571	-2.00592826e+00	1.74359732e+02	-8.10674834e+01	-4.03171758e+01	-8.03208711e+01	-8.03327174e+01	-1.84453185e-01	-4.10562832e+01
498751000	-2.00536840e+00	1.74334374e+02	-8.15459325e+01	-4.51981544e+01	-7.95060144e+01	-9.03309046e+01	-1.80524917e-01	-4.11766320e+01
499036571.429	-2.00692401e+00	1.74305684e+02	-8.16981738e+01	-7.77462897e+01	-7.96023094e+01	-8.93040770e+01	-1.83555539e-01	-4.12819998e+01
499322142.857	-2.00642750e+00	1.74259694e+02	-8.00378129e+01	-6.70958812e+01	-7.73198828e+01	-1.02256358e+02	-1.84014937e-01	-4.14334628e+01
499607714.286	-2.00322353e+00	1.74239034e+02	-8.07487841e+01	-7.76570113e+01	-7.71428070e+01	-9.81229154e+01	-1.88533605e-01	-4.15893697e+01
499893285.714	-2.00483284e+00	1.74194209e+02	-8.01172618e+01	-8.20090381e+01	-7.61748724e+01	-1.02569266e+02	-1.83975403e-01	-4.17676222e+01
500178857.143	-2.00180964e+00	1.74191478e+02	-7.91064348e+01	-8.55777140e+01	-7.63237945e+01	-1.09717899e+02	-1.83498891e-01	-4.19249963e+01
500464428.571	-2.00696570e+00	1.74131761e+02	-7.91410513e+01	-9.62878298e+01	-7.57981387e+01	-1.06605384e+02	-1.79758646e-01	-4.20686600e+01
500750000	-2.01276868e+00	1.74130616e+02	-7.76824176e+01	-9.74207379e+01	-7.52698324e+01	-1.11086779e+02	-1.83865145e-01	-4.21792624e+01
501035571.429	-2.01283485e+00	1.74083618e+02	-7.65944373e+01	-9.85587695e+01	-7.43480751e+01	-1.15291044e+02	-1.78980172e-01	-4.22448624e+01
501321142.857	-2.00954402e+00	1.74044105e+02	-7.63153629e+01	-1.02981640e+02	-7.42639664e+01	-1.14678683e+02	-1.82876301e-01	-4.23276891e+01
501606714.286	-2.00740242e+00	1.74025071e+02	-7.57480676e+01	-1.04966526e+02	-7.38316874e+01	-1.16105709e+02	-1.83397894e-01	-4.23795106e+01
501892285.714	-2.01563656e+00	1.74027228e+02	-7.46093627e+01	-1.00760259e+02	-7.30636555e+01	-1.15452498e+02	-1.89719904e-01	-4.24308778e+01
502177857.143	-2.02117604e+00	1.74001822e+02	-7.45430594e+01	-1.03261924e+02	-7.25552803e+01	-1.20130007e+02	-1.94539737e-01	-4.25240311e+01
502463428.571	-2.01967799e+00	1.73983648e+02	-7.35021266e+01	-1.09975722e+02	-7.21343570e+01	-1.17649050e+02	-1.92539117e-01	-4.26754415e+01
502749000	-2.01641626e+00	1.73938387e+02	-7.32919929e+01	-1.11306037e+02	-7.18539294e+01	-1.26063286e+02	-1.94131611e-01	-4.27722550e+01
503034571.429	-2.02264398e+00	1.73913261e+02	-7.31019323e+01	-1.13103229e+02	-7.15182457e+01	-1.25172041e+02	-1.95514128e-01	-4.29417883e+01
503320142.857	-2.02156137e+00	1.73910894e+02	-7.22900625e+01	-1.13549233e+02	-7.14237315e+01	-1.27602727e+02	-1.94320428e-01	-4.31008500e+01
503605714.286	-2.02734296e+00	1.73869801e+02	-7.22693211e+01	-1.20297505e+02	-7.03764772e+01	-1.27653509e+02	-1.92804452e-01	-4.32733697e+01
503891285.714	-2.02888609e+00	1.73843808e+02	-7.12337576e+01	-1.20377847e+02	-7.01545333e+01	-1.26670913e+02	-1.94247120e-01	-4.34039071e+01
504176857.143	-2.02838607e+00	1.73800878e+02	-7.10485738e+01	-1.23260619e+02	-7.00679618e+01	-1.31544298e+02	-1.93235119e-01	-4.35136701e+01
504462428.571	-2.02851310e+00	1.73783447e+02	-7.06678021e+01	-1.26994016e+02	-6.93732785e+01	-1.29746228e+02	-1.93894552e-01	-4.35943477e+01
504748000	-2.02849594e+00	1.73743878e+02	-7.09471560e+01	-1.24748175e+02	-6.93715702e+01	-1.33811081e+02	-2.00230154e-01	-4.37256496e+01
505033571.429	-2.02961102e+00	1.73758088e+02	-7.08112997e+01	-1.25797447e+02	-6.90435328e+01	-1.36494275e+02	-2.01221185e-01	-4.38051586e+01
505319142.857	-2.03043052e+00	1.73744336e+02	-7.05533086e+01	-1.28764365e+02	-6.90467771e+01	-1.39623894e+02	-2.01819960e-01	-4.38940398e+01
505604714.286	-2.03811097e+00	1.73704604e+02	-7.01389365e+01	-1.32762548e+02	-6.87316602e+01	-1.36631944e+02	-1.97838957e-01	-4.40228952e+01
505890285.714	-2.04891393e+00	1.73665733e+02	-6.96858725e+01	-1.34773724e+02	-6.86123105e+01	-1.41282382e+02	-2.06513151e-01	-4.41034288e+01
506175857.143	-2.04826294e+00	1.73642828e+02	-6.97888601e+01	-1.34927824e+02	-6.84443080e+01	-1.41572210e+02	-2.00969972e-01	-4.42419358e+01
506461428.571	-2.04527708e+00	1.73629534e+02	-6.96393906e+01	-1.37153038e+02	-6.80917938e+01	-1.41017360e+02	-2.03086554e-01	-4.44074992e+01
506747000	-2.04499210e+00	1.73549688e+02	-6.90853891e+01	-1.35670385e+02	-6.81111728e+01	-1.46146854e+02	-2.06168753e-01	-4.45568791e+01
507032571.429	-2.04543504e+00	1.73534883e+02	-6.86313300e+01	-1.37182919e+02	-6.74773924e+01	-1.46097559e+02	-2.11378081e-01	-4.46937238e+01
507318142.857	-2.03886029e+00	1.73480249e+02	-6.88859820e+01	-1.43183878e+02	-6.74785458e+01	-1.47474346e+02	-2.06893281e-01	-4.48316621e+01
507603714.286	-2.04390653e+00	1.73514181e+02	-6.85981260e+01	-1.45906090e+02	-6.74172217e+01	-1.49350915e+02	-2.05442358e-01	-4.49604883e+01
507889285.714	-2.04495878e+00	1.73439413e+02	-6.80988124e+01	-1.44493029e+02	-6.71625337e+01	-1.48280946e+02	-2.10315231e-01	-4.50756981e+01
508174857.143	-2.05848588e+00	1.73461298e+02	-6.78071522e+01	-1.44371927e+02	-6.72589860e+01	-1.52535019e+02	-2.09784724e-01	-4.52438186e+01
508460428.571	-2.05401896e+00	1.73358524e+02	-6.81418780e+01	-1.48018753e+02	-6.69785104e+01	-1.52425717e+02	-2.06153683e-01	-4.53797926e+01
508746000	-2.06006950e+00	1.73368363e+02	-6.82267394e+01	-1.47487127e+02	-6.69059179e+01	-1.53779979e+02	-2.10460355e-01	-4.55267838e+01
509031571.429	-2.05796505e+00	1.73332547e+02	-6.77345687e+01	-1.50124885e+02	-6.66697686e+01	-1.54398628e+02	-2.12206174e-01	-4.56506048e+01
509317142.857	-2.06352318e+00	1.73332017e+02	-6.73164048e+01	-1.50622874e+02	-6.65313346e+01	-1.56824318e+02	-2.15372597e-01	-4.56986965e+01
509602714.286	-2.06578164e+00	1.73299523e+02	-6.74960815e+01	-1.53217885e+02	-6.64353595e+01	-1.58011456e+02	-2.18052531e-01	-4.58453858e+01
509888285.714	-2.06750563e+00	1.73270494e+02	-6.67680588e+01	-1.51934686e+02	-6.63165383e+01	-1.56373236e+02	-2.16105072e-01	-4.59567538e+01
510173857.143	-2.06915644e+00	1.73250987e+02	-6.72983406e+01	-1.55306123e+02	-6.65097973e+01	-1.58921013e+02	-2.18297629e-01	-4.60424157e+01
510459428.571	-2.07568135e+00	1.73186580e+02	-6.71930006e+01	-1.53926638e+02	-6.62095843e+01	-1.60436600e+02	-2.21184316e-01	-4.62083173e+01
510745000	-2.07479305e+00	1.73155215e+02	-6.69377253e+01	-1.55905083e+02	-6.61456175e+01	-1.61449917e+02	-2.27636200e-01	-4.62423241e+01
511030571.429	-2.07200209e+00	1.73089577e+02	-6.66034523e+01	-1.58464587e+02	-6.56163900e+01	-1.62716440e+02	-2.32798144e-01	-4.63751071e+01
511316142.857	-2.07403278e+00	1.73162922e+02	-6.65077638e+01	-1.59975741e+02	-6.55474485e+01	-1.63689600e+02	-2.31029529e-01	-4.64851978e+01
511601714.286	-2.08183381e+00	1.73111530e+02	-6.59829082e+01	-1.61733306e+02	-6.60126061e+01	-1.66286762e+02	-2.36843919e-01	-4.66220011e+01
511887285.714	-2.07774805e+00	1.73093537e+02	-6.61147802e+01	-1.61797673e+02	-6.57222406e+01	-1.65505079e+02	-2.39253053e-01	-4.67254148e+01
512172857.143	-2.07960844e+00	1.73014117e+02	-6.62001496e+01	-1.63320746e+02	-6.57573498e+01	-1.69490480e+02	-2.41984962e-01	-4.68661493e+01
512458428.571	-2.07863272e+00	1.72962488e+02	-6.62100886e+01	-1.61901275e+02	-6.53286155e+01	-1.69325121e+02	-2.45318339e-01	-4.69533732e+01
512744000	-2.07755743e+00	1.72930024e+02	-6.62835473e+01	-1.65562457e+02	-6.54054351e+01	-1.71616307e+02	-2.41226714e-01	-4.70762549e+01
513029571.429	-2.08952607e+00	1.72922202e+02	-6.57030209e+01	-1.68331960e+02	-6.57300601e+01	-1.72182580e+02	-2.48307461e-01	-4.71948983e+01
513315142.857	-2.08998469e+00	1.72878291e+02	-6.59852547e+01	-1.67278873e+02	-6.51703109e+01	-1.74136931e+02	-2.46687032e-01	-4.73966798e+01
513600714.286	-2.09048632e+00	1.72844540e+02	-6.57910766e+01	-1.71525421e+02	-6.54157974e+01	-1.73621404e+02	-2.46306149e-01	-4.75015332e+01
513886285.714	-2.09089500e+00	1.72821140e+02	-6.59924584e+01	-1.70897389e+02	-6.52329762e+01	-1.74663492e+02	-2.38941876e-01	-4.76805369e+01
514171857.143	-2.09767766e+00	1.72770664e+02	-6.61311649e+01	-1.70651216e+02	-6.54180865e+01	-1.75638133e+02	-2.43883443e-01	-4.78429727e+01
514457428.571	-2.09409239e+00	1.72721538e+02	-6.60048630e+01	-1.71328358e+02	-6.53326591e+01	-1.76415777e+02	-2.44858612e-01	-4.79424616e+01
514743000	-2.09461460e+00	1.72659730e+02	-6.60672971e+01	-1.72329381e+02	-6.54555410e+01	-1.76342031e+02	-2.52772419e-01	-4.81035669e+01
515028571.429	-2.09782539e+00	1.72637459e+02	-6.63285384e+01	-1.73883711e+02	-6.52459558e+01	-1.78068762e+02	-2.45190483e-01	-4.82600834e+01
515314142.857	-2.10051782e+00	1.72582513e+02	-6.56497033e+01	-1.76977356e+02	-6.51774389e+01	-1.78502096e+02	-2.45548113e-01	-4.84534398e+01
515599714.286	-2.09350477e+00	1.72535746e+02	-6.58479533e+01	-1.74636939e+02	-6.53474089e+01	-1.79546818e+02	-2.34083191e-01	-4.85954970e+01
515885285.714	-2.10225288e+00	1.72536034e+02	-6.58604600e+01	-1.73191447e+02	-6.53717096e+01	-1.79364597e+02	-2.37317551e-01	-4.86862073e+01
516170857.143	-2.10359338e+00	1.72524701e+02	-6.59218287e+01	-1.75167314e+02	-6.52171724e+01	1.79382061e+02	-2.47134607e-01	-4.87858608e+01
516456428.571	-2.11220595e+00	1.72478136e+02	-6.57168437e+01	-1.78920742e+02	-6.52727041e+01	1.79800274e+02	-2.54294590e-01	-4.89500606e+01
516742000	-2.11173784e+00	1.72443158e+02	-6.57188535e+01	-1.76662710e+02	-6.51602534e+01	-1.79732242e+02	-2.49049832e-01	-4.90560257e+01
517027571.429	-2.11106943e+00	1.72411807e+02	-6.60091639e+01	-1.76593887e+02	-6.52987329e+01	1.79430517e+02	-2.55756799e-01	-4.92257020e+01
517313142.857	-2.11709747e+00	1.72364213e+02	-6.54320989e+01	-1.78499059e+02	-6.51135700e+01	1.78465643e+02	-2.54041057e-01	-4.93254982e+01
517598714.286	-2.11751172e+00	1.72300418e+02	-6.60172588e+01	1.78580261e+02	-6.50123675e+01	1.78955318e+02	-2.50588273e-01	-4.95434837e+01
517884285.714	-2.12025986e+00	1.72345681e+02	-6.54156176e+01	-1.77032678e+02	-6.50115189e+01	1.77670177e+02	-2.42646309e-01	-4.96337460e+01
518169857.143	-2.12440719e+00	1.72321635e+02	-6.55592150e+01	-1.79795167e+02	-6.49024550e+01	1.76337802e+02	-2.45125827e-01	-4.97542339e+01
518455428.571	-2.12042218e+00	1.72293412e+02	-6.56189471e+01	1.79050693e+02	-6.46467267e+01	1.76306497e+02	-2.48059345e-01	-4.99495991e+01
518741000	-2.12237121e+00	1.72251567e+02	-6.53538184e+01	1.78717617e+02	-6.49250806e+01	1.75699918e+02	-2.40362013e-01	-5.00803586e+01
519026571.429	-2.11929211e+00	1.72213362e+02	-6.50334522e+01	-1.79877415e+02	-6.47251693e+01	1.76196741e+02	-2.49970271e-01	-5.02561616e+01
519312142.857	-2.12454689e+00	1.72215607e+02	-6.56988474e+01	-1.79758287e+02	-6.45902028e+01	1.75372325e+02	-2.47448993e-01	-5.03525064e+01
519597714.286	-2.12837933e+00	1.72148446e+02	-6.50826685e+01	1.79102321e+02	-6.47349576e+01	1.73693137e+02	-2.52371997e-01	-5.04805715e+01
519883285.714	-2.13321338e+00	1.72111072e+02	-6.51172292e+01	1.78128259e+02	-6.47748285e+01	1.74180651e+02	-2.48810642e-01	-5.05990143e+01
520168857.143	-2.13103134e+00	1.72066623e+02	-6.53595003e+01	1.78289676e+02	-6.46974221e+01	1.71496339e+02	-2.41576123e-01	-5.06959012e+01
520454428.571	-2.13811002e+00	1.72023674e+02	-6.52263723e+01	1.75997719e+02	-6.44942031e+01	1.71563141e+02	-2.46625103e-01	-5.08180483e+01
520740000	-2.13998966e+00	1.72025903e+02	-6.50923815e+01	1.78703367e+02	-6.42664236e+01	1.71787159e+02	-2.47400164e-01	-5.10309373e+01
521025571.429	-2.14601688e+00	1.72014649e+02	-6.50189403e+01	1.73215910e+02	-6.43548608e+01	1.73070164e+02	-2.54375615e-01	-5.11502739e+01
521311142.857	-2.15072337e+00	1.71966768e+02	-6.46609806e+01	1.73957827e+02	-6.42412093e+01	1.71389988e+02	-2.48181101e-01	-5.13153721e+01
521596714.286	-2.14825666e+00	1.71953067e+02	-6.46897162e+01	1.74601563e+02	-6.40726585e+01	1.71101935e+02	-2.57546223e-01	-5.14590429e+01
521882285.714	-2.15449199e+00	1.71917188e+02	-6.44959076e+01	1.72765463e+02	-6.40608056e+01	1.70554522e+02	-2.58022972e-01	-5.16137723e+01
522167857.143	-2.15052704e+00	1.71863717e+02	-6.46141516e+01	1.71794977e+02	-6.39435146e+01	1.69019417e+02	-2.63774263e-01	-5.17547691e+01
522453428.571	-2.16279929e+00	1.71822725e+02	-6.42894147e+01	1.70573785e+02	-6.38456983e+01	1.67823593e+02	-2.60033440e-01	-5.18866607e+01
522739000	-2.16436479e+00	1.71801241e+02	-6.43613786e+01	1.69494275e+02	-6.37593413e+01	1.68374181e+02	-2.58324254e-01	-5.19534959e+01
523024571.429	-2.16667782e+00	1.71794007e+02	-6.41360559e+01	1.69161154e+02	-6.38975624e+01	1.66587115e+02	-2.49474788e-01	-5.21309370e+01
523310142.857	-2.16952942e+00	1.71745605e+02	-6.41983368e+01	1.68342131e+02	-6.35994159e+01	1.66994745e+02	-2.45927219e-01	-5.22546587e+01
523595714.286	-2.16993095e+00	1.71716626e+02	-6.42196933e+01	1.67453107e+02	-6.37473048e+01	1.65576020e+02	-2.55358299e-01	-5.24106794e+01
523881285.714	-2.17323185e+00	1.71686436e+02	-6.42183450e+01	1.67735008e+02	-6.35807065e+01	1.64364458e+02	-2.63474900e-01	-5.25619635e+01
524166857.143	-2.17881816e+00	1.71618727e+02	-6.41539332e+01	1.67340351e+02	-6.36874674e+01	1.65261654e+02	-2.52746632e-01	-5.27596490e+01
524452428.571	-2.17693740e+00	1.71617939e+02	-6.39079537e+01	1.63966236e+02	-6.33055357e+01	1.61406866e+02	-2.66254859e-01	-5.28860436e+01
524738000	-2.18083099e+00	1.71568318e+02	-6.37662374e+01	1.64895957e+02	-6.35267476e+01	1.60533139e+02	-2.66246934e-01	-5.30266813e+01
525023571.429	-2.17621702e+00	1.71532839e+02	-6.39706958e+01	1.61884391e+02	-6.36672152e+01	1.61697906e+02	-2.59404494e-01	-5.30658626e+01
525309142.857	-2.19100701e+00	1.71479188e+02	-6.39422896e+01	1.63060272e+02	-6.32934475e+01	1.60846081e+02	-2.68086845e-01	-5.32444905e+01
525594714.286	-2.19602989e+00	1.71464048e+02	-6.37820326e+01	1.62324344e+02	-6.31183887e+01	1.59383819e+02	-2.66119447e-01	-5.33614997e+01
525880285.714	-2.20197731e+00	1.71494930e+02	-6.39203685e+01	1.58881856e+02	-6.32569815e+01	1.58515286e+02	-2.62987525e-01	-5.35778716e+01
526165857.143	-2.20429289e+00	1.71410566e+02	-6.36825239e+01	1.56480579e+02	-6.32795583e+01	1.57767500e+02	-2.58719955e-01	-5.37470842e+01
526451428.571	-2.20285638e+00	1.71362423e+02	-6.36264941e+01	1.58181939e+02	-6.32757046e+01	1.54821696e+02	-2.53576280e-01	-5.38706980e+01
526737000	-2.20439896e+00	1.71324381e+02	-6.40335729e+01	1.56418956e+02	-6.28847339e+01	1.57151899e+02	-2.61069505e-01	-5.40165573e+01
527022571.429	-2.20965830e+00	1.71302913e+02	-6.37743164e+01	1.58548033e+02	-6.30961299e+01	1.54968064e+02	-2.50969193e-01	-5.41476364e+01
527308142.857	-2.21071002e+00	1.71261225e+02	-6.37204888e+01	1.57272485e+02	-6.31005539e+01	1.54412205e+02	-2.48584454e-01	-5.43099514e+01
527593714.286	-2.21173682e+00	1.71238434e+02	-6.38394750e+01	1.54465823e+02	-6.29096474e+01	1.55087450e+02	-2.42590107e-01	-5.44661833e+01
527879285.714	-2.21515685e+00	1.71152125e+02	-6.37912504e+01	1.54344506e+02	-6.30879024e+01	1.52655877e+02	-2.44640717e-01	-5.46274423e+01
528164857.143	-2.21783491e+00	1.71150293e+02	-6.43121681e+01	1.54244797e+02	-6.31856597e+01	1.51606348e+02	-2.53705089e-01	-5.47794508e+01
528450428.571	-2.22225476e+00	1.71147994e+02	-6.38586432e+01	1.52905598e+02	-6.32543938e+01	1.51184682e+02	-2.57304125e-01	-5.49398096e+01
528736000	-2.22429789e+00	1.71071681e+02	-6.36498110e+01	1.52504152e+02	-6.30708937e+01	1.50117052e+02	-2.57871219e-01	-5.50360904e+01
529021571.429	-2.22343126e+00	1.71061181e+02	-6.39325054e+01	1.52855782e+02	-6.30710605e+01	1.49182391e+02	-2.59988108e-01	-5.51442438e+01
529307142.857	-2.22190608e+00	1.71025235e+02	-6.38495531e+01	1.49985451e+02	-6.29338938e+01	1.49014465e+02	-2.62344587e-01	-5.53400290e+01
529592714.286	-2.22696443e+00	1.70973795e+02	-6.40828120e+01	1.52675793e+02	-6.29529274e+01	1.47655022e+02	-2.49818744e-01	-5.54930206e+01
529878285.714	-2.23169986e+00	1.70928247e+02	-6.40085257e+01	1.50223428e+02	-6.28355376e+01	1.48665580e+02	-2.55115369e-01	-5.56231037e+01
530163857.143	-2.23596940e+00	1.70977327e+02	-6.41091921e+01	1.49672390e+02	-6.32216383e+01	1.47845193e+02	-2.61077859e-01	-5.57558404e+01
530449428.571	-2.23391515e+00	1.70926477e+02	-6.39684731e+01	1.48124835e+02	-6.29288054e+01	1.45305564e+02	-2.57951521e-01	-5.58956154e+01
530735000	-2.24179977e+00	1.70897633e+02	-6.41397810e+01	1.48874100e+02	-6.31586965e+01	1.45753003e+02	-2.56836116e-01	-5.60301163e+01
531020571.429	-2.24291091e+00	1.70831955e+02	-6.42107780e+01	1.47711676e+02	-6.30233382e+01	1.44644473e+02	-2.58411867e-01	-5.61696290e+01
531306142.857	-2.25572271e+00	1.70801836e+02	-6.39056772e+01	1.46870848e+02	-6.30119264e+01	1.45087067e+02	-2.60858890e-01	-5.63424911e+01
531591714.286	-2.25439625e+00	1.70751286e+02	-6.40089967e+01	1.47182250e+02	-6.29062705e+01	1.43288365e+02	-2.53313393e-01	-5.65427683e+01
531877285.714	-2.25876229e+00	1.70698042e+02	-6.39579286e+01	1.43972982e+02	-6.30838555e+01	1.43640092e+02	-2.52271369e-01	-5.67172477e+01
532162857.143	-2.25985868e+00	1.70673561e+02	-6.40929440e+01	1.43834905e+02	-6.29532148e+01	1.43250154e+02	-2.59191564e-01	-5.68452957e+01
532448428.571	-2.26145066e+00	1.70645217e+02	-6.39901063e+01	1.43552835e+02	-6.28133015e+01	1.41414792e+02	-2.57566096e-01	-5.69745973e+01
532734000	-2.26571529e+00	1.70624438e+02	-6.40284044e+01	1.43113116e+02	-6.28256219e+01	1.40460695e+02	-2.58892960e-01	-5.70832527e+01
533019571.429	-2.26988671e+00	1.70593279e+02	-6.41801034e+01	1.44285051e+02	-6.27500114e+01	1.41423424e+02	-2.59461676e-01	-5.72327525e+01
533305142.857	-2.27192304e+00	1.70554572e+02	-6.39561986e+01	1.43724046e+02	-6.27665443e+01	1.38504248e+02	-2.58565502e-01	-5.74106327e+01
533590714.286	-2.27845811e+00	1.70535580e+02	-6.39592719e+01	1.42029975e+02	-6.28733772e+01	1.37838777e+02	-2.52646628e-01	-5.75521050e+01
533876285.714	-2.28069129e+00	1.70482689e+02	-6.40612277e+01	1.41301539e+02	-6.26533159e+01	1.35520851e+02	-2.58782994e-01	-5.76715570e+01
534161857.143	-2.28535383e+00	1.70486593e+02	-6.40731296e+01	1.41266905e+02	-6.30017422e+01	1.35184345e+02	-2.49546533e-01	-5.78138654e+01
534447428.571	-2.28730067e+00	1.70422473e+02	-6.41920924e+01	1.40806563e+02	-6.31156456e+01	1.34861070e+02	-2.50737484e-01	-5.79621593e+01
534733000	-2.28926708e+00	1.70401805e+02	-6.43282540e+01	1.41723231e+02	-6.27616235e+01	1.33859927e+02	-2.42714849e-01	-5.81066848e+01
535018571.429	-2.29096303e+00	1.70352672e+02	-6.44196118e+01	1.39508739e+02	-6.29091858e+01	1.33738445e+02	-2.43194205e-01	-5.82665271e+01
535304142.857	-2.29682262e+00	1.70313676e+02	-6.44582730e+01	1.38644478e+02	-6.32185474e+01	1.32444260e+02	-2.39000282e-01	-5.83880419e+01
535589714.286	-2.30203503e+00	1.70286380e+02	-6.45375534e+01	1.38463730e+02	-6.33544867e+01	1.30994518e+02	-2.37665497e-01	-5.85258131e+01
535875285.714	-2.30811686e+00	1.70238913e+02	-6.46241046e+01	1.38916864e+02	-6.33317031e+01	1.31120078e+02	-2.35750770e-01	-5.87258722e+01
536160857.143	-2.30882363e+00	1.70230954e+02	-6.45301623e+01	1.36592630e+02	-6.33848965e+01	1.30353160e+02	-2.39098334e-01	-5.88566183e+01
536446428.571	-2.30974745e+00	1.70184815e+02	-6.44748018e+01	1.37613913e+02	-6.33890131e+01	1.29291787e+02	-2.30768174e-01	-5.90186080e+01
536732000	-2.31461220e+00	1.70159926e+02	-6.45096490e+01	1.35673902e+02	-6.34042250e+01	1.29288720e+02	-2.23678817e-01	-5.91540836e+01
537017571.429	-2.31946491e+00	1.70114235e+02	-6.47828700e+01	1.35768060e+02	-6.36135562e+01	1.28431710e+02	-2.25930137e-01	-5.92775722e+01
537303142.857	-2.32016077e+00	1.70062118e+02	-6.47608013e+01	1.37316016e+02	-6.33803288e+01	1.28928714e+02	-2.22454821e-01	-5.94178731e+01
537588714.286	-2.32277270e+00	1.70049509e+02	-6.44616487e+01	1.36586422e+02	-6.35612400e+01	1.28043233e+02	-2.19747212e-01	-5.95715291e+01
537874285.714	-2.32421465e+00	1.70002592e+02	-6.46671794e+01	1.34982519e+02	-6.36268748e+01	1.26917453e+02	-2.20427067e-01	-5.96968462e+01
538159857.143	-2.33046478e+00	1.69969429e+02	-6.45323825e+01	1.35598732e+02	-6.36017329e+01	1.26401745e+02	-2.18645208e-01	-5.98155594e+01
538445428.571	-2.32858262e+00	1.69934256e+02	-6.49036393e+01	1.36149417e+02	-6.36932487e+01	1.24457815e+02	-2.17476017e-01	-6.00049366e+01
538731000	-2.33524749e+00	1.69932790e+02	-6.48104925e+01	1.34322650e+02	-6.38737179e+01	1.24960769e+02	-2.17716476e-01	-6.01504643e+01
539016571.429	-2.33562009e+00	1.69873569e+02	-6.46853271e+01	1.34523429e+02	-6.36786384e+01	1.24187893e+02	-2.18805452e-01	-6.02844763e+01
539302142.857	-2.34129756e+00	1.69823136e+02	-6.47457861e+01	1.33233829e+02	-6.37701256e+01	1.25464808e+02	-2.19276847e-01	-6.04114393e+01
539587714.286	-2.34047103e+00	1.69804661e+02	-6.48504231e+01	1.33849707e+02	-6.39707045e+01	1.24088323e+02	-2.19566974e-01	-6.05530923e+01
539873285.714	-2.34111175e+00	1.69752109e+02	-6.48352631e+01	1.31996004e+02	-6.38689978e+01	1.23512637e+02	-2.25969981e-01	-6.06985886e+01
540158857.143	-2.34637958e+00	1.69714899e+02	-6.51819598e+01	1.33043546e+02	-6.38248348e+01	1.22843463e+02	-2.22807609e-01	-6.08727138e+01
540444428.571	-2.34738227e+00	1.69686521e+02	-6.49579940e+01	1.33113472e+02	-6.39428712e+01	1.21968771e+02	-2.28294384e-01	-6.10008394e+01
540730000	-2.34837620e+00	1.69665789e+02	-6.48886607e+01	1.33462654e+02	-6.41741024e+01	1.22268368e+02	-2.28063019e-01	-6.11545151e+01
541015571.429	-2.35653658e+00	1.69628036e+02	-6.47838339e+01	1.31260595e+02	-6.40600403e+01	1.20892016e+02	-2.20539836e-01	-6.12849491e+01
541301142.857	-2.35604912e+00	1.69599323e+02	-6.48555556e+01	1.31083419e+02	-6.40760048e+01	1.20431720e+02	-2.20102788e-01	-6.14381835e+01
541586714.286	-2.36149707e+00	1.69538243e+02	-6.49745773e+01	1.29915156e+02	-6.41401122e+01	1.20241942e+02	-2.29092661e-01	-6.15700821e+01
541872285.714	-2.36650759e+00	1.69499248e+02	-6.49936660e+01	1.31628783e+02	-6.40788231e+01	1.18680440e+02	-2.36988118e-01	-6.17104051e+01
542157857.143	-2.36733092e+00	1.69500225e+02	-6.49640914e+01	1.30248948e+02	-6.43195069e+01	1.18099389e+02	-2.31487193e-01	-6.18574591e+01
542443428.571	-2.36733141e+00	1.69454254e+02	-6.50178890e+01	1.30005714e+02	-6.43042314e+01	1.18217057e+02	-2.28156543e-01	-6.19844161e+01
542729000	-2.37302765e+00	1.69402925e+02	-6.49405034e+01	1.30482092e+02	-6.43783263e+01	1.17719944e+02	-2.23616222e-01	-6.21199586e+01
543014571.429	-2.37399011e+00	1.69370494e+02	-6.48882875e+01	1.29466727e+02	-6.44607109e+01	1.17897197e+02	-2.21529502e-01	-6.22454786e+01
543300142.857	-2.37628590e+00	1.69327977e+02	-6.50092618e+01	1.30176731e+02	-6.47411658e+01	1.16138311e+02	-2.23710201e-01	-6.23929721e+01
543585714.286	-2.37884251e+00	1.69300132e+02	-6.51076480e+01	1.29062517e+02	-6.46456742e+01	1.16328059e+02	-2.19256473e-01	-6.25753605e+01
543871285.714	-2.38450736e+00	1.69291634e+02	-6.52422384e+01	1.27308338e+02	-6.47291038e+01	1.14611064e+02	-2.19185628e-01	-6.27206165e+01
544156857.143	-2.38879755e+00	1.69239036e+02	-6.51980070e+01	1.28444383e+02	-6.47980821e+01	1.14102115e+02	-2.17563245e-01	-6.28536740e+01
544442428.571	-2.39417669e+00	1.69215121e+02	-6.52761088e+01	1.26998323e+02	-6.47832256e+01	1.12589359e+02	-2.16973164e-01	-6.29911127e+01
544728000	-2.39409867e+00	1.69171821e+02	-6.53956089e+01	1.26982131e+02	-6.49397803e+01	1.12755407e+02	-2.11225336e-01	-6.31078532e+01
545013571.429	-2.39577153e+00	1.69131769e+02	-6.53566996e+01	1.26334970e+02	-6.51663710e+01	1.13375378e+02	-2.14437780e-01	-6.32217996e+01
545299142.857	-2.39722723e+00	1.69093715e+02	-6.54228626e+01	1.25664551e+02	-6.50897219e+01	1.12063543e+02	-2.12537291e-01	-6.33155721e+01
545584714.286	-2.39954465e+00	1.69073962e+02	-6.54195927e+01	1.27104760e+02	-6.52556587e+01	1.10600967e+02	-2.11493589e-01	-6.34633513e+01
545870285.714	-2.40433735e+00	1.69016864e+02	-6.55547842e+01	1.26025229e+02	-6.54367062e+01	1.11634113e+02	-2.11493424e-01	-6.35663474e+01
546155857.143	-2.41026633e+00	1.68958529e+02	-6.55536952e+01	1.23872073e+02	-6.54390180e+01	1.11059604e+02	-2.11643433e-01	-6.36437431e+01
546441428.571	-2.41790999e+00	1.68903813e+02	-6.56118270e+01	1.25206820e+02	-6.54348464e+01	1.10557972e+02	-2.09668570e-01	-6.37510570e+01
546727000	-2.41531040e+00	1.68902207e+02	-6.54881721e+01	1.25412066e+02	-6.54968133e+01	1.09875443e+02	-2.12267518e-01	-6.39060900e+01
547012571.429	-2.42076548e+00	1.68845943e+02	-6.58591523e+01	1.24594358e+02	-6.57973215e+01	1.10824414e+02	-2.16368862e-01	-6.40656890e+01
547298142.857	-2.41991560e+00	1.68822441e+02	-6.57342952e+01	1.23924063e+02	-6.58338240e+01	1.09265000e+02	-2.15172389e-01	-6.42280291e+01
547583714.286	-2.42415291e+00	1.68782548e+02	-6.58895525e+01	1.24085674e+02	-6.59896441e+01	1.10493138e+02	-2.12499890e-01	-6.43865028e+01
547869285.714	-2.42304751e+00	1.68748264e+02	-6.58157180e+01	1.25504207e+02	-6.59010241e+01	1.07987103e+02	-2.12628770e-01	-6.45358499e+01
548154857.143	-2.42560085e+00	1.68730972e+02	-6.57305657e+01	1.23896890e+02	-6.62901592e+01	1.09039341e+02	-2.10275382e-01	-6.46914991e+01
548440428.571	-2.43077084e+00	1.68720856e+02	-6.57677183e+01	1.24057399e+02	-6.61839800e+01	1.08427355e+02	-2.08970969e-01	-6.48304342e+01
548726000	-2.43457427e+00	1.68662732e+02	-6.60302905e+01	1.20844338e+02	-6.63964298e+01	1.07779681e+02	-2.10077515e-01	-6.49250322e+01
549011571.429	-2.43761031e+00	1.68625746e+02	-6.61006545e+01	1.22208185e+02	-6.64165456e+01	1.08423137e+02	-2.15623888e-01	-6.50171714e+01
549297142.857	-2.43841602e+00	1.68605796e+02	-6.62306692e+01	1.21342302e+02	-6.65648307e+01	1.07004758e+02	-2.14760439e-01	-6.51636145e+01
549582714.286	-2.44355361e+00	1.68574528e+02	-6.66054052e+01	1.23369033e+02	-6.68705975e+01	1.07349262e+02	-2.13845688e-01	-6.53193834e+01
549868285.714	-2.44392103e+00	1.68529810e+02	-6.62603269e+01	1.22189832e+02	-6.69334790e+01	1.06109314e+02	-2.13955057e-01	-6.54907061e+01
550153857.143	-2.45002831e+00	1.68511321e+02	-6.64347003e+01	1.20544436e+02	-6.70556995e+01	1.06920949e+02	-2.13370236e-01	-6.56413333e+01
550439428.571	-2.44907554e+00	1.68460176e+02	-6.64955494e+01	1.21305916e+02	-6.72104198e+01	1.05816931e+02	-2.15570375e-01	-6.57815690e+01
550725000	-2.45458861e+00	1.68415869e+02	-6.65716031e+01	1.20006145e+02	-6.73466903e+01	1.05487379e+02	-2.12257212e-01	-6.59425788e+01
551010571.429	-2.45499647e+00	1.68367342e+02	-6.65504815e+01	1.19353807e+02	-6.75308607e+01	1.04725704e+02	-2.14668229e-01	-6.60689279e+01
551296142.857	-2.45689315e+00	1.68342721e+02	-6.67514308e+01	1.18894690e+02	-6.75061169e+01	1.04674969e+02	-2.14198758e-01	-6.61862192e+01
551581714.286	-2.46244992e+00	1.68273310e+02	-6.71674368e+01	1.19514679e+02	-6.78687726e+01	1.04391261e+02	-2.21527145e-01	-6.63598262e+01
551867285.714	-2.46700186e+00	1.68275199e+02	-6.72798449e+01	1.18591171e+02	-6.81325650e+01	1.05662934e+02	-2.21105499e-01	-6.64734882e+01
552152857.143	-2.46605216e+00	1.68260492e+02	-6.75352978e+01	1.18984535e+02	-6.81917917e+01	1.03944946e+02	-2.25242832e-01	-6.65466866e+01
552438428.571	-2.46819825e+00	1.68206333e+02	-6.74434479e+01	1.21037169e+02	-6.87917102e+01	1.04253070e+02	-2.27006102e-01	-6.67093747e+01
552724000	-2.47268681e+00	1.68185631e+02	-6.77680464e+01	1.19091423e+02	-6.88190748e+01	1.04606020e+02	-2.22021140e-01	-6.68577733e+01
553009571.429	-2.47684121e+00	1.68129134e+02	-6.78136651e+01	1.20621172e+02	-6.91031157e+01	1.04539223e+02	-2.22951576e-01	-6.70260454e+01
553295142.857	-2.48004944e+00	1.68098204e+02	-6.79039635e+01	1.20914150e+02	-6.94119429e+01	1.05725443e+02	-2.22845588e-01	-6.71411400e+01
553580714.286	-2.47730449e+00	1.68079628e+02	-6.80963485e+01	1.21738238e+02	-6.98521764e+01	1.06733819e+02	-2.25972311e-01	-6.72595523e+01
553866285.714	-2.48203917e+00	1.68064506e+02	-6.85148132e+01	1.22300662e+02	-7.01124315e+01	1.06115560e+02	-2.23641882e-01	-6.73687806e+01
554151857.143	-2.48115760e+00	1.68087627e+02	-6.84750817e+01	1.23220720e+02	-7.04258476e+01	1.07350081e+02	-2.21026338e-01	-6.74887003e+01
554437428.571	-2.48459173e+00	1.67991220e+02	-6.88894974e+01	1.23936652e+02	-7.03787022e+01	1.08989622e+02	-2.23129563e-01	-6.76288123e+01
554723000	-2.48354653e+00	1.67987806e+02	-6.87534656e+01	1.25787496e+02	-7.06335632e+01	1.13217720e+02	-2.25472594e-01	-6.77758639e+01
555008571.429	-2.48854191e+00	1.67953764e+02	-6.86313886e+01	1.27502220e+02	-7.11353890e+01	1.13679426e+02	-2.24804576e-01	-6.78883474e+01
555294142.857	-2.49110320e+00	1.67931548e+02	-6.88633881e+01	1.27339283e+02	-7.09867523e+01	1.14920506e+02	-2.24917547e-01	-6.80411814e+01
555579714.286	-2.49502339e+00	1.67912980e+02	-6.90682313e+01	1.28159864e+02	-7.08815583e+01	1.15576225e+02	-2.26377504e-01	-6.81363322e+01
555865285.714	-2.49346977e+00	1.67898515e+02	-6.89083080e+01	1.30478754e+02	-7.14127646e+01	1.17885787e+02	-2.26985425e-01	-6.83378980e+01
556150857.143	-2.49468537e+00	1.67842572e+02	-6.93673614e+01	1.31843670e+02	-7.15742120e+01	1.19574795e+02	-2.27741186e-01	-6.84602219e+01
556436428.571	-2.49389002e+00	1.67813189e+02	-6.90216223e+01	1.34081865e+02	-7.18649279e+01	1.24031111e+02	-2.30476199e-01	-6.85837384e+01
556722000	-2.49669511e+00	1.67785741e+02	-6.90012773e+01	1.33860111e+02	-7.16357519e+01	1.22181037e+02	-2.32682833e-01	-6.86654192e+01
557007571.429	-2.49597051e+00	1.67772899e+02	-6.90443443e+01	1.32875324e+02	-7.17064891e+01	1.28931787e+02	-2.32257652e-01	-6.87505683e+01
557293142.857	-2.50415014e+00	1.67726307e+02	-6.89190069e+01	1.38946597e+02	-7.17316258e+01	1.27713316e+02	-2.36455573e-01	-6.88205934e+01
557578714.286	-2.50180324e+00	1.67711099e+02	-6.91696510e+01	1.37381677e+02	-7.23240391e+01	1.29702754e+02	-2.26208703e-01	-6.89354535e+01
557864285.714	-2.50566864e+00	1.67714448e+02	-6.90143336e+01	1.37674194e+02	-7.22939696e+01	1.32242171e+02	-2.27325923e-01	-6.90381186e+01
558149857.143	-2.50554594e+00	1.67691959e+02	-6.87469975e+01	1.38242287e+02	-7.22024435e+01	1.34166592e+02	-2.22678909e-01	-6.91458450e+01
558435428.571	-2.50991166e+00	1.67625052e+02	-6.97531215e+01	1.40133683e+02	-7.20882684e+01	1.38085127e+02	-2.30278538e-01	-6.92783165e+01
558721000	-2.51357603e+00	1.67585218e+02	-6.90951935e+01	1.40984584e+02	-7.19756082e+01	1.40970852e+02	-2.31261949e-01	-6.94065925e+01
559006571.429	-2.51441245e+00	1.67558251e+02	-6.89296792e+01	1.44916277e+02	-7.20686902e+01	1.40141321e+02	-2.36145973e-01	-6.95632615e+01
559292142.857	-2.51235643e+00	1.67555467e+02	-6.89670024e+01	1.46759641e+02	-7.17349676e+01	1.46073319e+02	-2.41891358e-01	-6.97296986e+01
559577714.286	-2.51740959e+00	1.67556213e+02	-6.90839811e+01	1.48030539e+02	-7.18865646e+01	1.46938932e+02	-2.35743477e-01	-6.98303545e+01
559863285.714	-2.52207154e+00	1.67519176e+02	-6.88349977e+01	1.49530339e+02	-7.15244304e+01	1.51466478e+02	-2.32810741e-01	-6.99427570e+01
560148857.143	-2.52487760e+00	1.67469009e+02	-6.92488894e+01	1.50109094e+02	-7.10682953e+01	1.52619242e+02	-2.38545505e-01	-7.00192001e+01
560434428.571	-2.51892608e+00	1.67464453e+02	-6.87804044e+01	1.50343505e+02	-7.08942785e+01	1.56477711e+02	-2.43574945e-01	-7.01521547e+01
560720000	-2.52010564e+00	1.67458935e+02	-6.82192976e+01	1.52637876e+02	-7.05388273e+01	1.55843189e+02	-2.47088887e-01	-7.02257254e+01
561005571.429	-2.52025848e+00	1.67485140e+02	-6.83014587e+01	1.53732423e+02	-7.04770887e+01	1.58403233e+02	-2.44510542e-01	-7.03326572e+01
561291142.857	-2.51900461e+00	1.67449303e+02	-6.80849989e+01	1.57492985e+02	-7.06913051e+01	1.58305081e+02	-2.50144792e-01	-7.04426696e+01
561576714.286	-2.52149223e+00	1.67470517e+02	-6.79072437e+01	1.56853884e+02	-6.98780929e+01	1.58551196e+02	-2.46013637e-01	-7.05330322e+01
561862285.714	-2.52716669e+00	1.67435842e+02	-6.83404327e+01	1.58718787e+02	-6.98050699e+01	1.63475732e+02	-2.47446189e-01	-7.06923310e+01
562147857.143	-2.52608162e+00	1.67386878e+02	-6.76192156e+01	1.58478857e+02	-6.97669519e+01	1.63473239e+02	-2.50636671e-01	-7.08598419e+01
562433428.571	-2.53326790e+00	1.67416723e+02	-6.75239307e+01	1.62073549e+02	-6.90635891e+01	1.64187444e+02	-2.51548412e-01	-7.10181555e+01
562719000	-2.53175848e+00	1.67421539e+02	-6.73767443e+01	1.61373656e+02	-6.87788658e+01	1.64871016e+02	-2.49408813e-01	-7.11452672e+01
563004571.429	-2.53236331e+00	1.67390408e+02	-6.71210569e+01	1.61895568e+02	-6.84036772e+01	1.66006853e+02	-2.53933321e-01	-7.13069818e+01
563290142.857	-2.53779350e+00	1.67405145e+02	-6.65466170e+01	1.62720971e+02	-6.81437616e+01	1.65920642e+02	-2.52280283e-01	-7.14461987e+01
563575714.286	-2.54303192e+00	1.67368462e+02	-6.63502369e+01	1.62168556e+02	-6.78708870e+01	1.67323485e+02	-2.57149355e-01	-7.15422288e+01
563861285.714	-2.54730968e+00	1.67379878e+02	-6.59933039e+01	1.64514462e+02	-6.75625551e+01	1.68157531e+02	-2.58689368e-01	-7.17041016e+01
564146857.143	-2.54416815e+00	1.67333148e+02	-6.60808257e+01	1.62492524e+02	-6.71792655e+01	1.67123857e+02	-2.56940931e-01	-7.18193693e+01
564432428.571	-2.54421868e+00	1.67290766e+02	-6.55879941e+01	1.61458396e+02	-6.69133969e+01	1.67505091e+02	-2.56585725e-01	-7.19248859e+01
564718000	-2.54470229e+00	1.67283286e+02	-6.56070497e+01	1.63785169e+02	-6.66984280e+01	1.67881997e+02	-2.59924449e-01	-7.20330013e+01
565003571.429	-2.54298089e+00	1.67294210e+02	-6.51098799e+01	1.62114939e+02	-6.60149553e+01	1.67768954e+02	-2.60379270e-01	-7.21705559e+01
565289142.857	-2.54567968e+00	1.67324981e+02	-6.47255211e+01	1.63318646e+02	-6.60550329e+01	1.65991511e+02	-2.67610356e-01	-7.22496688e+01
565574714.286	-2.55081852e+00	1.67301024e+02	-6.48091971e+01	1.63970551e+02	-6.56653304e+01	1.67369447e+02	-2.63622339e-01	-7.24040132e+01
565860285.714	-2.54973989e+00	1.67334701e+02	-6.44741236e+01	1.62973077e+02	-6.53125457e+01	1.68199780e+02	-2.66260992e-01	-7.24937685e+01
566145857.143	-2.55150136e+00	1.67319227e+02	-6.44108062e+01	1.62248194e+02	-6.49352092e+01	1.68185217e+02	-2.80429547e-01	-7.26112015e+01
566431428.571	-2.54945107e+00	1.67312199e+02	-6.41690958e+01	1.61698733e+02	-6.50179343e+01	1.66310230e+02	-2.81876899e-01	-7.27657082e+01
566717000	-2.55809295e+00	1.67316991e+02	-6.37994080e+01	1.62213765e+02	-6.46828367e+01	1.66595880e+02	-2.87722429e-01	-7.28740563e+01
567002571.429	-2.55746982e+00	1.67298240e+02	-6.39027566e+01	1.60538620e+02	-6.45469628e+01	1.64207819e+02	-2.87624537e-01	-7.30232108e+01
567288142.857	-2.56590966e+00	1.67284272e+02	-6.35212314e+01	1.62283771e+02	-6.41039996e+01	1.64403852e+02	-2.89375623e-01	-7.30821562e+01
567573714.286	-2.56358888e+00	1.67326585e+02	-6.34626974e+01	1.60960212e+02	-6.37189158e+01	1.64439299e+02	-2.90332771e-01	-7.31990006e+01
567859285.714	-2.56811629e+00	1.67250560e+02	-6.35102546e+01	1.59923938e+02	-6.39787527e+01	1.63289775e+02	-2.97380501e-01	-7.32773884e+01
568144857.143	-2.57375423e+00	1.67250560e+02	-6.28475797e+01	1.60962566e+02	-6.34112497e+01	1.63539240e+02	-2.92740653e-01	-7.34302369e+01
568430428.571	-2.57243392e+00	1.67247361e+02	-6.24607694e+01	1.58921206e+02	-6.34934079e+01	1.62138539e+02	-2.99489423e-01	-7.35750534e+01
568716000	-2.57317830e+00	1.67248124e+02	-6.25465241e+01	1.59208133e+02	-6.31737716e+01	1.60697361e+02	-3.05131712e-01	-7.36641673e+01
569001571.429	-2.57498958e+00	1.67246988e+02	-6.25156310e+01	1.57136910e+02	-6.28190057e+01	1.59666984e+02	-3.03664667e-01	-7.37758293e+01
569287142.857	-2.57806349e+00	1.67248084e+02	-6.22578364e+01	1.57809840e+02	-6.27620099e+01	1.59859117e+02	-3.08238067e-01	-7.38513157e+01
569572714.286	-2.58588987e+00	1.67238934e+02	-6.20832072e+01	1.56952042e+02	-6.27146712e+01	1.58331921e+02	-3.03579649e-01	-7.39506550e+01
569858285.714	-2.58830031e+00	1.67254161e+02	-6.20487105e+01	1.55990333e+02	-6.23169428e+01	1.58196127e+02	-3.14904541e-01	-7.41431521e+01
570143857.143	-2.59047314e+00	1.67157880e+02	-6.17713857e+01	1.53955006e+02	-6.25308335e+01	1.57844129e+02	-3.18060245e-01	-7.42336285e+01
570429428.571	-2.58756476e+00	1.67195120e+02	-6.17649275e+01	1.54049987e+02	-6.23063957e+01	1.56536324e+02	-3.20557867e-01	-7.43921582e+01
570715000	-2.59825506e+00	1.67174736e+02	-6.15404360e+01	1.55313585e+02	-6.22689858e+01	1.55365401e+02	-3.23310713e-01	-7.45416225e+01
571000571.429	-2.60092035e+00	1.67154574e+02	-6.15636060e+01	1.53007946e+02	-6.21881191e+01	1.53338122e+02	-3.23974329e-01	-7.46672359e+01
571286142.857	-2.60136718e+00	1.67146336e+02	-6.14644994e+01	1.51617567e+02	-6.19437151e+01	1.54258784e+02	-3.30630758e-01	-7.48183983e+01
571571714.286	-2.60496499e+00	1.67188170e+02	-6.14744816e+01	1.51695927e+02	-6.18179452e+01	1.51840434e+02	-3.23396256e-01	-7.49163486e+01
571857285.714	-2.59864379e+00	1.67168791e+02	-6.14706264e+01	1.51679103e+02	-6.18045067e+01	1.52382978e+02	-3.26624445e-01	-7.50760282e+01
572142857.143	-2.60213726e+00	1.67178583e+02	-6.13592176e+01	1.50845213e+02	-6.18458384e+01	1.52053309e+02	-3.23391799e-01	-7.52403340e+01
572428428.571	-2.59807394e+00	1.67164588e+02	-6.10914608e+01	1.47987594e+02	-6.16154764e+01	1.50896611e+02	-3.24440016e-01	-7.54008884e+01
572714000	-2.60072842e+00	1.67128517e+02	-6.11576269e+01	1.47175418e+02	-6.18507105e+01	1.50249387e+02	-3.27020262e-01	-7.55947450e+01
572999571.429	-2.60136010e+00	1.67115298e+02	-6.11270918e+01	1.48720122e+02	-6.17085115e+01	1.49292289e+02	-3.31827727e-01	-7.57112216e+01
573285142.857	-2.60828365e+00	1.67077858e+02	-6.11235682e+01	1.47687691e+02	-6.16737983e+01	1.49564491e+02	-3.36180758e-01	-7.58479548e+01
573570714.286	-2.61097184e+00	1.67093137e+02	-6.09016390e+01	1.47884818e+02	-6.18319740e+01	1.49036873e+02	-3.37507505e-01	-7.59966254e+01
573856285.714	-2.60616647e+00	1.67087314e+02	-6.11754637e+01	1.47611928e+02	-6.15173278e+01	1.47486448e+02	-3.32930373e-01	-7.61173688e+01
574141857.143	-2.60672063e+00	1.67079881e+02	-6.10446627e+01	1.47433912e+02	-6.14225598e+01	1.47931584e+02	-3.31949319e-01	-7.62739225e+01
574427428.571	-2.60858175e+00	1.67108154e+02	-6.09384042e+01	1.46842653e+02	-6.17930405e+01	1.46558023e+02	-3.23825643e-01	-7.63749052e+01
574713000	-2.61404466e+00	1.67090681e+02	-6.09519999e+01	1.47589058e+02	-6.15455270e+01	1.46841913e+02	-3.27961266e-01	-7.64852158e+01
574998571.429	-2.61202696e+00	1.67058332e+02	-6.09947446e+01	1.45433291e+02	-6.15521269e+01	1.48280283e+02	-3.34707900e-01	-7.66334420e+01
575284142.857	-2.61554244e+00	1.67054384e+02	-6.10648526e+01	1.45386837e+02	-6.12900779e+01	1.46682914e+02	-3.50127871e-01	-7.67780956e+01
575569714.286	-2.61345902e+00	1.67031623e+02	-6.08320506e+01	1.46691778e+02	-6.15542086e+01	1.48304352e+02	-3.46588375e-01	-7.69625690e+01
575855285.714	-2.62876273e+00	1.67039554e+02	-6.06300961e+01	1.45666233e+02	-6.13595678e+01	1.48274909e+02	-3.36696871e-01	-7.70982595e+01
576140857.143	-2.62727603e+00	1.67008040e+02	-6.07748795e+01	1.46593462e+02	-6.13684466e+01	1.47169656e+02	-3.37055691e-01	-7.72584475e+01
576426428.571	-2.62608978e+00	1.67031793e+02	-6.07806885e+01	1.45456030e+02	-6.13354930e+01	1.47454746e+02	-3.44793665e-01	-7.73977982e+01
576712000	-2.62773332e+00	1.67078196e+02	-6.07469219e+01	1.46807461e+02	-6.11858011e+01	1.47773911e+02	-3.36120153e-01	-7.75335219e+01
576997571.429	-2.62575128e+00	1.67039762e+02	-6.04520969e+01	1.45909553e+02	-6.09391399e+01	1.48241524e+02	-3.37673777e-01	-7.75993386e+01
577283142.857	-2.62248980e+00	1.66999507e+02	-6.04221802e+01	1.46459795e+02	-6.10920604e+01	1.48013249e+02	-3.36570886e-01	-7.77600565e+01
577568714.286	-2.62681107e+00	1.67036480e+02	-6.02974867e+01	1.46894807e+02	-6.07783909e+01	1.48471995e+02	-3.42018660e-01	-7.78939356e+01
577854285.714	-2.63785269e+00	1.67043003e+02	-6.02355075e+01	1.45772025e+02	-6.05696550e+01	1.48902763e+02	-3.38886101e-01	-7.80982837e+01
578139857.143	-2.63493271e+00	1.67039920e+02	-5.99018978e+01	1.45727808e+02	-6.05247267e+01	1.49209452e+02	-3.42056304e-01	-7.82048079e+01
578425428.571	-2.62924081e+00	1.66977161e+02	-5.98071219e+01	1.45676640e+02	-6.04801600e+01	1.48108827e+02	-3.48034161e-01	-7.83352681e+01
578711000	-2.63671077e+00	1.66959730e+02	-5.97588960e+01	1.46073302e+02	-6.04836813e+01	1.47983585e+02	-3.45244126e-01	-7.84522299e+01
578996571.429	-2.63897610e+00	1.66954625e+02	-5.96231752e+01	1.44992705e+02	-6.01816525e+01	1.47844690e+02	-3.41457074e-01	-7.85513477e+01
579282142.857	-2.63867597e+00	1.66946899e+02	-5.96405706e+01	1.45537829e+02	-6.01317251e+01	1.49243375e+02	-3.45274104e-01	-7.87204659e+01
579567714.286	-2.64699701e+00	1.66956792e+02	-5.95858545e+01	1.46040181e+02	-5.99889387e+01	1.48055406e+02	-3.42594302e-01	-7.88341536e+01
579853285.714	-2.64978163e+00	1.66937661e+02	-5.91834355e+01	1.45895092e+02	-5.97060509e+01	1.48858364e+02	-3.47508528e-01	-7.90020064e+01
580138857.143	-2.65270758e+00	1.66909147e+02	-5.90964965e+01	1.45845798e+02	-5.96898608e+01	1.48028086e+02	-3.43882486e-01	-7.90785431e+01
580424428.571	-2.64815218e+00	1.66959820e+02	-5.88356563e+01	1.45945084e+02	-5.96456567e+01	1.47347071e+02	-3.46797357e-01	-7.92601296e+01
580710000	-2.65891433e+00	1.66963177e+02	-5.88706764e+01	1.44524924e+02	-5.93083670e+01	1.47689213e+02	-3.39275861e-01	-7.93994190e+01
580995571.429	-2.65816288e+00	1.66949127e+02	-5.86842656e+01	1.44460295e+02	-5.93549230e+01	1.48299263e+02	-3.44602449e-01	-7.95292711e+01
581281142.857	-2.66116279e+00	1.66932253e+02	-5.84915593e+01	1.44782746e+02	-5.90682493e+01	1.47758102e+02	-3.44881671e-01	-7.96975114e+01
581566714.286	-2.66649407e+00	1.66919359e+02	-5.85706760e+01	1.45192889e+02	-5.90708840e+01	1.47591754e+02	-3.50396776e-01	-7.98488773e+01
581852285.714	-2.67164977e+00	1.66953530e+02	-5.84558926e+01	1.42925946e+02	-5.86535567e+01	1.47209475e+02	-3.51647610e-01	-7.99536765e+01
582137857.143	-2.67277066e+00	1.66933349e+02	-5.81221462e+01	1.43241047e+02	-5.86917685e+01	1.46921274e+02	-3.54213125e-01	-8.00863055e+01
582423428.571	-2.67375017e+00	1.66905642e+02	-5.80269714e+01	1.43519927e+02	-5.85112849e+01	1.46567192e+02	-3.46537047e-01	-8.02197811e+01
582709000	-2.67845771e+00	1.66919877e+02	-5.79632536e+01	1.43134330e+02	-5.83237898e+01	1.45324635e+02	-3.47512839e-01	-8.03612893e+01
582994571.429	-2.68167227e+00	1.66885380e+02	-5.76498543e+01	1.42591738e+02	-5.80413046e+01	1.45281491e+02	-3.47557992e-01	-8.05013803e+01
583280142.857	-2.68305458e+00	1.66901777e+02	-5.76957102e+01	1.42221544e+02	-5.80143574e+01	1.44173652e+02	-3.40887324e-01	-8.06287064e+01
583565714.286	-2.68353081e+00	1.66905704e+02	-5.75289370e+01	1.41902678e+02	-5.78725043e+01	1.44597789e+02	-3.53494558e-01	-8.07831122e+01
583851285.714	-2.68696527e+00	1.66896415e+02	-5.72892393e+01	1.40668820e+02	-5.77528501e+01	1.43816859e+02	-3.51477069e-01	-8.09121521e+01
584136857.143	-2.68894007e+00	1.66880957e+02	-5.72198349e+01	1.40559280e+02	-5.75777564e+01	1.44073014e+02	-3.48307169e-01	-8.11129627e+01
584422428.571	-2.68917234e+00	1.66868674e+02	-5.70070366e+01	1.41492261e+02	-5.74394135e+01	1.43320848e+02	-3.44965565e-01	-8.12798466e+01
584708000	-2.69023106e+00	1.66873373e+02	-5.70433995e+01	1.40196526e+02	-5.72178758e+01	1.43037058e+02	-3.49281986e-01	-8.14156923e+01
584993571.429	-2.69396169e+00	1.66866343e+02	-5.66918450e+01	1.39146260e+02	-5.71418374e+01	1.41602662e+02	-3.42460387e-01	-8.15731828e+01
585279142.857	-2.69761279e+00	1.66841442e+02	-5.67691585e+01	1.38559261e+02	-5.68723544e+01	1.41728982e+02	-3.53213941e-01	-8.17348196e+01
585564714.286	-2.70110565e+00	1.66839487e+02	-5.65361693e+01	1.38050362e+02	-5.67692412e+01	1.40814271e+02	-3.50625187e-01	-8.18752338e+01
585850285.714	-2.71096176e+00	1.66814056e+02	-5.62720465e+01	1.37575096e+02	-5.65675508e+01	1.40131268e+02	-3.51780789e-01	-8.19918414e+01
586135857.143	-2.71722762e+00	1.66823554e+02	-5.61404159e+01	1.36862251e+02	-5.64674912e+01	1.38908126e+02	-3.46615079e-01	-8.20996680e+01
586421428.571	-2.71768678e+00	1.66821147e+02	-5.60304491e+01	1.36546020e+02	-5.63769451e+01	1.38890704e+02	-3.49213177e-01	-8.22074026e+01
586707000	-2.72374830e+00	1.66797110e+02	-5.58817408e+01	1.36208689e+02	-5.60931291e+01	1.38365113e+02	-3.49899693e-01	-8.23915495e+01
586992571.429	-2.72630556e+00	1.66803400e+02	-5.57572995e+01	1.35364835e+02	-5.59770106e+01	1.37610193e+02	-3.49820511e-01	-8.24954762e+01
587278142.857	-2.72747649e+00	1.66820970e+02	-5.56837087e+01	1.34095045e+02	-5.58536768e+01	1.37047703e+02	-3.57244780e-01	-8.26084835e+01
587563714.286	-2.72743822e+00	1.66810256e+02	-5.55234091e+01	1.33478747e+02	-5.55888449e+01	1.36860518e+02	-3.53398388e-01	-8.27809852e+01
587849285.714	-2.72823328e+00	1.66814734e+02	-5.53676096e+01	1.33037406e+02	-5.55448356e+01	1.35361212e+02	-3.49810396e-01	-8.29208848e+01
588134857.143	-2.72925458e+00	1.66782943e+02	-5.52475169e+01	1.31988751e+02	-5.53486359e+01	1.34569774e+02	-3.52228277e-01	-8.30975202e+01
588420428.571	-2.73579576e+00	1.66758930e+02	-5.50183083e+01	1.31146226e+02	-5.52291750e+01	1.33723618e+02	-3.48077614e-01	-8.32633887e+01
588706000	-2.74026279e+00	1.66779387e+02	-5.48352780e+01	1.30627324e+02	-5.50980169e+01	1.32952457e+02	-3.42222057e-01	-8.34303957e+01
588991571.429	-2.74043413e+00	1.66796548e+02	-5.46975719e+01	1.30250264e+02	-5.48194757e+01	1.32046004e+02	-3.42077117e-01	-8.35554042e+01
589277142.857	-2.73913771e+00	1.66748672e+02	-5.45185705e+01	1.28174331e+02	-5.48135918e+01	1.30970205e+02	-3.42966289e-01	-8.37174807e+01
589562714.286	-2.74554001e+00	1.66749608e+02	-5.44756637e+01	1.27574457e+02	-5.46179575e+01	1.29730868e+02	-3.43261160e-01	-8.38748102e+01
589848285.714	-2.74651104e+00	1.66727034e+02	-5.44153831e+01	1.26241952e+02	-5.45149647e+01	1.28436488e+02	-3.41713440e-01	-8.40068187e+01
590133857.143	-2.74425606e+00	1.66744471e+02	-5.43204311e+01	1.25907576e+02	-5.44080611e+01	1.27787657e+02	-3.41186700e-01	-8.41172797e+01
590419428.571	-2.75616887e+00	1.66706160e+02	-5.40494617e+01	1.24203085e+02	-5.42269427e+01	1.26414507e+02	-3.40203391e-01	-8.42994608e+01
590705000	-2.75638374e+00	1.66733526e+02	-5.38843007e+01	1.22765300e+02	-5.41091636e+01	1.25403728e+02	-3.42577651e-01	-8.44382118e+01
590990571.429	-2.76083926e+00	1.66716538e+02	-5.38924717e+01	1.21602982e+02	-5.40648483e+01	1.23954772e+02	-3.42519233e-01	-8.45796267e+01
591276142.857	-2.76075259e+00	1.66718054e+02	-5.37591704e+01	1.20701658e+02	-5.40056467e+01	1.22426770e+02	-3.42541613e-01	-8.47202077e+01
591561714.286	-2.76853495e+00	1.66723767e+02	-5.37607697e+01	1.20045000e+02	-5.38319653e+01	1.21606943e+02	-3.34715287e-01	-8.48444446e+01
591847285.714	-2.76874903e+00	1.66671520e+02	-5.35660774e+01	1.18323987e+02	-5.37298436e+01	1.20477684e+02	-3.30417080e-01	-8.49833667e+01
592132857.143	-2.77447891e+00	1.66677624e+02	-5.34969856e+01	1.17329142e+02	-5.36726372e+01	1.18966900e+02	-3.26626599e-01	-8.51256314e+01
592418428.571	-2.77383101e+00	1.66666636e+02	-5.34761076e+01	1.16192979e+02	-5.35907791e+01	1.17909064e+02	-3.21976923e-01	-8.53009645e+01
592704000	-2.78292237e+00	1.66671832e+02	-5.33472325e+01	1.14642684e+02	-5.35389655e+01	1.17054667e+02	-3.17432975e-01	-8.54624206e+01
592989571.429	-2.78555503e+00	1.66641689e+02	-5.32805870e+01	1.13701941e+02	-5.35075607e+01	1.15277861e+02	-3.19840580e-01	-8.56001516e+01
593275142.857	-2.78847686e+00	1.66633661e+02	-5.32003345e+01	1.11900790e+02	-5.34388025e+01	1.14622185e+02	-3.19167586e-01	-8.57306143e+01
593560714.286	-2.78914633e+00	1.66644094e+02	-5.32716032e+01	1.11014254e+02	-5.34203469e+01	1.13247100e+02	-3.21580385e-01	-8.58694019e+01
593846285.714	-2.79291631e+00	1.66636098e+02	-5.31665404e+01	1.10617553e+02	-5.33964126e+01	1.12331129e+02	-3.21247357e-01	-8.60266178e+01
594131857.143	-2.79995595e+00	1.66637449e+02	-5.31381458e+01	1.09146209e+02	-5.33851307e+01	1.10712096e+02	-3.19578197e-01	-8.61754212e+01
594417428.571	-2.79795094e+00	1.66607725e+02	-5.31274913e+01	1.07335628e+02	-5.32959024e+01	1.09681901e+02	-3.22118871e-01	-8.63462080e+01
594703000	-2.80910022e+00	1.66598310e+02	-5.30435098e+01	1.06630344e+02	-5.32658146e+01	1.08525513e+02	-3.24519505e-01	-8.65008970e+01
594988571.429	-2.81126903e+00	1.66586866e+02	-5.30503831e+01	1.05495643e+02	-5.32391275e+01	1.07847472e+02	-3.23323554e-01	-8.66503032e+01
595274142.857	-2.81534021e+00	1.66581281e+02	-5.30224230e+01	1.05028680e+02	-5.32187514e+01	1.06812028e+02	-3.22775898e-01	-8.68381254e+01
595559714.286	-2.81290938e+00	1.66575887e+02	-5.29856952e+01	1.03438754e+02	-5.31638891e+01	1.05600363e+02	-3.23897075e-01	-8.69566141e+01
595845285.714	-2.81617764e+00	1.66550343e+02	-5.29589016e+01	1.02771313e+02	-5.31298550e+01	1.04783056e+02	-3.23633679e-01	-8.71284666e+01
596130857.143	-2.82036215e+00	1.66542358e+02	-5.29101756e+01	1.00916831e+02	-5.30938512e+01	1.04217881e+02	-3.20411581e-01	-8.72543558e+01
596416428.571	-2.82465550e+00	1.66528959e+02	-5.28846582e+01	1.00683176e+02	-5.30862807e+01	1.03095099e+02	-3.20730095e-01	-8.74346875e+01
596702000	-2.83572408e+00	1.66504642e+02	-5.29089959e+01	9.97533180e+01	-5.30490405e+01	1.01608269e+02	-3.18459380e-01	-8.75796171e+01
596987571.429	-2.83724694e+00	1.66524278e+02	-5.28483113e+01	9.88231581e+01	-5.30751628e+01	1.01177690e+02	-3.18139403e-01	-8.77331816e+01
597273142.857	-2.84025932e+00	1.66512634e+02	-5.28158309e+01	9.76581410e+01	-5.30381904e+01	9.98740681e+01	-3.19780787e-01	-8.78415284e+01
597558714.286	-2.84376872e+00	1.66462056e+02	-5.28253197e+01	9.70612339e+01	-5.30077439e+01	9.88004916e+01	-3.17692169e-01	-8.80163598e+01
597844285.714	-2.84758218e+00	1.66429193e+02	-5.28201123e+01	9.57164820e+01	-5.30238145e+01	9.84201881e+01	-3.15948936e-01	-8.81977557e+01
598129857.143	-2.85175094e+00	1.66407488e+02	-5.27444435e+01	9.45762823e+01	-5.29768981e+01	9.70870110e+01	-3.20342087e-01	-8.83277933e+01
598415428.571	-2.85282824e+00	1.66398183e+02	-5.27755861e+01	9.40428047e+01	-5.29481874e+01	9.63762624e+01	-3.20925288e-01	-8.84594961e+01
598701000	-2.85499610e+00	1.66387290e+02	-5.27911439e+01	9.31779816e+01	-5.29623630e+01	9.50210695e+01	-3.26050767e-01	-8.86046299e+01
598986571.429	-2.85513243e+00	1.66385745e+02	-5.28297290e+01	9.20293300e+01	-5.29490261e+01	9.45260625e+01	-3.27209572e-01	-8.87311842e+01
599272142.857	-2.85764727e+00	1.66387117e+02	-5.27988986e+01	9.11475246e+01	-5.29334315e+01	9.34550774e+01	-3.25734688e-01	-8.88721515e+01
599557714.286	-2.86207611e+00	1.66363230e+02	-5.28525603e+01	9.00007118e+01	-5.30031874e+01	9.25243842e+01	-3.33129574e-01	-8.90641144e+01
599843285.714	-2.86824071e+00	1.66370137e+02	-5.27854860e+01	8.90178351e+01	-5.29659161e+01	9.15562858e+01	-3.34996409e-01	-8.92402072e+01
600128857.143	-2.86991328e+00	1.66358721e+02	-5.27071664e+01	8.83395154e+01	-5.29939574e+01	9.04786732e+01	-3.35655282e-01	-8.93125157e+01
600414428.571	-2.87214628e+00	1.66322018e+02	-5.27744501e+01	8.71119067e+01	-5.29914671e+01	8.96581605e+01	-3.34982228e-01	-8.94376690e+01
600700000	-2.87583467e+00	1.66336701e+02	-5.28564154e+01	8.66182693e+01	-5.30213825e+01	8.85415566e+01	-3.32110439e-01	-8.95549942e+01
600985571.429	-2.87590767e+00	1.66327578e+02	-5.28559111e+01	8.51848299e+01	-5.30547609e+01	8.78767967e+01	-3.32110871e-01	-8.96679590e+01
601271142.857	-2.87369688e+00	1.66292692e+02	-5.28446782e+01	8.49642969e+01	-5.30590317e+01	8.70402376e+01	-3.33532850e-01	-8.98112982e+01
601556714.286	-2.88028297e+00	1.66290269e+02	-5.28706207e+01	8.43235386e+01	-5.30992305e+01	8.62189015e+01	-3.35508182e-01	-8.99535446e+01
601842285.714	-2.88519290e+00	1.66237958e+02	-5.28977382e+01	8.33307496e+01	-5.31073249e+01	8.55903003e+01	-3.38310180e-01	-9.01125723e+01
602127857.143	-2.88366800e+00	1.66227552e+02	-5.29069407e+01	8.19122504e+01	-5.31178363e+01	8.46482065e+01	-3.39046663e-01	-9.02664456e+01
602413428.571	-2.88348915e+00	1.66214141e+02	-5.29715451e+01	8.10965245e+01	-5.31925209e+01	8.42292101e+01	-3.41412353e-01	-9.04379186e+01
602699000	-2.88815844e+00	1.66197992e+02	-5.29921253e+01	8.06698058e+01	-5.31625969e+01	8.34722230e+01	-3.36831590e-01	-9.06245282e+01
602984571.429	-2.89349681e+00	1.66191643e+02	-5.30202447e+01	8.02708005e+01	-5.32362685e+01	8.28461076e+01	-3.33805046e-01	-9.08130273e+01
603270142.857	-2.89906871e+00	1.66186357e+02	-5.30272398e+01	7.91303230e+01	-5.32741423e+01	8.23103033e+01	-3.30376081e-01	-9.09217693e+01
603555714.286	-2.90095164e+00	1.66167487e+02	-5.30837559e+01	7.85961394e+01	-5.32908722e+01	8.16502390e+01	-3.26430778e-01	-9.10398063e+01
603841285.714	-2.90364429e+00	1.66155072e+02	-5.31032491e+01	7.83297668e+01	-5.32553958e+01	8.10672695e+01	-3.30160913e-01	-9.11691218e+01
604126857.143	-2.90680693e+00	1.66168754e+02	-5.31167500e+01	7.78459339e+01	-5.33312821e+01	8.06304655e+01	-3.38790419e-01	-9.13215192e+01
604412428.571	-2.90725948e+00	1.66148133e+02	-5.31402750e+01	7.68971558e+01	-5.33395099e+01	7.97478755e+01	-3.33131674e-01	-9.14928473e+01
604698000	-2.91270771e+00	1.66113235e+02	-5.31957660e+01	7.66832363e+01	-5.33211969e+01	7.97106007e+01	-3.31652762e-01	-9.16756684e+01
604983571.429	-2.91388679e+00	1.66082282e+02	-5.31600885e+01	7.59759515e+01	-5.33471362e+01	7.90717399e+01	-3.26175270e-01	-9.18086847e+01
605269142.857	-2.92007330e+00	1.66063330e+02	-5.32085366e+01	7.53288096e+01	-5.33460507e+01	7.87680304e+01	-3.32313450e-01	-9.19899014e+01
605554714.286	-2.91851971e+00	1.66011328e+02	-5.32338138e+01	7.48334227e+01	-5.34230363e+01	7.83708805e+01	-3.29082849e-01	-9.21718822e+01
605840285.714	-2.92324547e+00	1.65988786e+02	-5.32468489e+01	7.46945049e+01	-5.34202193e+01	7.80295106e+01	-3.26352827e-01	-9.23472164e+01
606125857.143	-2.92711202e+00	1.65970476e+02	-5.32373020e+01	7.40655643e+01	-5.33471201e+01	7.73634329e+01	-3.31688849e-01	-9.24623938e+01
606411428.571	-2.92963292e+00	1.65937726e+02	-5.32589813e+01	7.31388541e+01	-5.33748816e+01	7.69310759e+01	-3.31917749e-01	-9.26100905e+01
606697000	-2.93287059e+00	1.65940455e+02	-5.33026997e+01	7.30343904e+01	-5.33611649e+01	7.62802084e+01	-3.37451773e-01	-9.27706240e+01
606982571.429	-2.93610351e+00	1.65899871e+02	-5.33401043e+01	7.21333882e+01	-5.33684508e+01	7.61482296e+01	-3.38159142e-01	-9.29254455e+01
607268142.857	-2.94025378e+00	1.65863172e+02	-5.32517774e+01	7.17851987e+01	-5.33645458e+01	7.52932448e+01	-3.41771229e-01	-9.30693428e+01
607553714.286	-2.94392883e+00	1.65835006e+02	-5.33068696e+01	7.13795276e+01	-5.33980983e+01	7.48486241e+01	-3.44417038e-01	-9.32393351e+01
607839285.714	-2.94444126e+00	1.65822449e+02	-5.32757225e+01	7.08844022e+01	-5.33823994e+01	7.47043846e+01	-3.46570574e-01	-9.33814032e+01
608124857.143	-2.94927390e+00	1.65806088e+02	-5.33179493e+01	7.05961430e+01	-5.33845394e+01	7.40712037e+01	-3.51455915e-01	-9.35785935e+01
608410428.571	-2.95024537e+00	1.65790901e+02	-5.32754293e+01	6.96446797e+01	-5.33470443e+01	7.37575716e+01	-3.52886439e-01	-9.37306446e+01
608696000	-2.95225267e+00	1.65760808e+02	-5.33265801e+01	6.97242374e+01	-5.33680729e+01	7.32557447e+01	-3.51388380e-01	-9.38849868e+01
608981571.429	-2.95722442e+00	1.65743062e+02	-5.33443881e+01	6.87689423e+01	-5.33726048e+01	7.26653644e+01	-3.51730114e-01	-9.40289519e+01
609267142.857	-2.95806554e+00	1.65698468e+02	-5.33695741e+01	6.84485214e+01	-5.33916800e+01	7.21331164e+01	-3.52449711e-01	-9.41883352e+01
609552714.286	-2.96181385e+00	1.65654186e+02	-5.33424963e+01	6.78826282e+01	-5.33324840e+01	7.17796317e+01	-3.51719351e-01	-9.43644143e+01
609838285.714	-2.96892485e+00	1.65636595e+02	-5.33246992e+01	6.73235203e+01	-5.33354692e+01	7.15464319e+01	-3.55502138e-01	-9.44649967e+01
610123857.143	-2.97208297e+00	1.65619181e+02	-5.33534832e+01	6.69667408e+01	-5.33091550e+01	7.09777183e+01	-3.55972514e-01	-9.46011496e+01
610409428.571	-2.97438749e+00	1.65597056e+02	-5.33016036e+01	6.69101801e+01	-5.32970143e+01	7.07970323e+01	-3.52340928e-01	-9.47982880e+01
610695000	-2.97921307e+00	1.65546333e+02	-5.33029470e+01	6.57740789e+01	-5.33076166e+01	7.00394687e+01	-3.53987606e-01	-9.49817417e+01
610980571.429	-2.97607315e+00	1.65550796e+02	-5.32825257e+01	6.54750598e+01	-5.32712662e+01	7.00309990e+01	-3.58921874e-01	-9.51467101e+01
611266142.857	-2.97836522e+00	1.65536296e+02	-5.32663820e+01	6.54286439e+01	-5.32266475e+01	6.95068310e+01	-3.60891071e-01	-9.52904513e+01
611551714.286	-2.97991237e+00	1.65485483e+02	-5.33513900e+01	6.44816501e+01	-5.32610926e+01	6.86788337e+01	-3.65062100e-01	-9.54559255e+01
611837285.714	-2.98546549e+00	1.65431206e+02	-5.33017878e+01	6.40495181e+01	-5.32258808e+01	6.85304290e+01	-3.65991406e-01	-9.55743334e+01
612122857.143	-2.98783421e+00	1.65402228e+02	-5.33290695e+01	6.30724788e+01	-5.31975007e+01	6.79488989e+01	-3.66778421e-01	-9.56956989e+01
612408428.571	-2.98840592e+00	1.65371322e+02	-5.33566640e+01	6.29614962e+01	-5.31830375e+01	6.75038511e+01	-3.66943302e-01	-9.58640014e+01
612694000	-2.99145905e+00	1.65376269e+02	-5.33133115e+01	6.28060746e+01	-5.31361214e+01	6.66938243e+01	-3.67332227e-01	-9.59645720e+01
612979571.429	-2.99420648e+00	1.65356812e+02	-5.33127156e+01	6.19556333e+01	-5.31579620e+01	6.67060880e+01	-3.70666796e-01	-9.60335012e+01
613265142.857	-2.99273524e+00	1.65325356e+02	-5.33152868e+01	6.17251105e+01	-5.31072427e+01	6.59981487e+01	-3.72078399e-01	-9.61798286e+01
613550714.286	-2.99955091e+00	1.65290846e+02	-5.33675201e+01	6.11112917e+01	-5.30835725e+01	6.58007988e+01	-3.71961904e-01	-9.63282316e+01
613836285.714	-3.00303173e+00	1.65275005e+02	-5.33638046e+01	6.08147638e+01	-5.30960060e+01	6.52308147e+01	-3.72557930e-01	-9.64486893e+01
614121857.143	-3.00407453e+00	1.65253404e+02	-5.33006469e+01	5.99446357e+01	-5.30720292e+01	6.47479393e+01	-3.82551803e-01	-9.66148582e+01
614407428.571	-3.00461506e+00	1.65239561e+02	-5.33482031e+01	5.91511190e+01	-5.30840555e+01	6.42284176e+01	-3.85337482e-01	-9.67753051e+01
614693000	-3.00497378e+00	1.65211844e+02	-5.33377327e+01	5.93561805e+01	-5.30484507e+01	6.38940344e+01	-3.87030078e-01	-9.69570386e+01
614978571.429	-3.00784584e+00	1.65189282e+02	-5.32970512e+01	5.89072631e+01	-5.30089466e+01	6.33072290e+01	-3.90124354e-01	-9.70937756e+01
615264142.857	-3.00896503e+00	1.65178148e+02	-5.32776753e+01	5.85785504e+01	-5.29961494e+01	6.28965212e+01	-3.94229772e-01	-9.73447486e+01
615549714.286	-3.01344688e+00	1.65144600e+02	-5.32679607e+01	5.81654975e+01	-5.29988411e+01	6.23128361e+01	-3.91660505e-01	-9.74691776e+01
615835285.714	-3.01299466e+00	1.65136837e+02	-5.33099708e+01	5.74770858e+01	-5.29245864e+01	6.17227950e+01	-3.97835940e-01	-9.75955516e+01
616120857.143	-3.01772825e+00	1.65080839e+02	-5.32813984e+01	5.69597845e+01	-5.29354784e+01	6.16226299e+01	-3.98414869e-01	-9.77233771e+01
616406428.571	-3.01507910e+00	1.65044963e+02	-5.32397326e+01	5.64092014e+01	-5.29184308e+01	6.11645788e+01	-3.98714146e-01	-9.78876594e+01
616692000	-3.01710382e+00	1.65036910e+02	-5.32822269e+01	5.56921012e+01	-5.28255589e+01	6.05146481e+01	-3.97979722e-01	-9.79450301e+01
616977571.429	-3.01853648e+00	1.64992152e+02	-5.32336430e+01	5.60842441e+01	-5.28670869e+01	5.97233471e+01	-3.96281546e-01	-9.80756311e+01
617263142.857	-3.01939322e+00	1.64975156e+02	-5.32143213e+01	5.51418066e+01	-5.27793176e+01	5.93948713e+01	-3.98711534e-01	-9.82382904e+01
617548714.286	-3.02093110e+00	1.64929148e+02	-5.32404591e+01	5.48606875e+01	-5.27548777e+01	5.88184446e+01	-4.00958958e-01	-9.84215738e+01
617834285.714	-3.02533447e+00	1.64903531e+02	-5.31833041e+01	5.43669531e+01	-5.27484535e+01	5.82891846e+01	-4.07580111e-01	-9.85831623e+01
618119857.143	-3.02552119e+00	1.64862789e+02	-5.31761303e+01	5.36274362e+01	-5.27285539e+01	5.76424894e+01	-4.08699303e-01	-9.87638856e+01
618405428.571	-3.02656548e+00	1.64839940e+02	-5.32123864e+01	5.27879359e+01	-5.26582487e+01	5.65451221e+01	-4.10509980e-01	-9.88931785e+01
618691000	-3.02754180e+00	1.64811026e+02	-5.31714652e+01	5.25197708e+01	-5.26881296e+01	5.63339597e+01	-4.09565020e-01	-9.90644352e+01
618976571.429	-3.02931418e+00	1.64839847e+02	-5.31163946e+01	5.19993039e+01	-5.26441266e+01	5.53652468e+01	-4.14695002e-01	-9.91713734e+01
619262142.857	-3.02832283e+00	1.64779980e+02	-5.32128238e+01	5.16050216e+01	-5.26235319e+01	5.49073266e+01	-4.12402557e-01	-9.93206263e+01
619547714.286	-3.03290092e+00	1.64759703e+02	-5.31781400e+01	5.10481291e+01	-5.26573756e+01	5.41922602e+01	-4.14206377e-01	-9.95156112e+01
619833285.714	-3.03257747e+00	1.64710215e+02	-5.30928167e+01	5.03087388e+01	-5.25676475e+01	5.31250351e+01	-4.15375079e-01	-9.96515776e+01
620118857.143	-3.03421656e+00	1.64729574e+02	-5.31727764e+01	4.95867503e+01	-5.25959650e+01	5.25313505e+01	-4.21753818e-01	-9.98246142e+01
620404428.571	-3.04091803e+00	1.64744429e+02	-5.31812533e+01	4.89525754e+01	-5.25478296e+01	5.20214959e+01	-4.25723055e-01	-9.99193060e+01
620690000	-3.03524998e+00	1.64683888e+02	-5.31262221e+01	4.82408840e+01	-5.25883119e+01	5.15630976e+01	-4.24700030e-01	-1.00096848e+02
620975571.429	-3.03401507e+00	1.64647605e+02	-5.31319193e+01	4.75560663e+01	-5.25581925e+01	5.03467612e+01	-4.22597488e-01	-1.00241664e+02
621261142.857	-3.03634702e+00	1.64629696e+02	-5.31833662e+01	4.74795143e+01	-5.25854269e+01	4.96796285e+01	-4.28434074e-01	-1.00356392e+02
621546714.286	-3.03865140e+00	1.64624185e+02	-5.32086183e+01	4.62786918e+01	-5.25769077e+01	4.86441472e+01	-4.29894506e-01	-1.00556205e+02
621832285.714	-3.03673145e+00	1.64628510e+02	-5.31443093e+01	4.57825932e+01	-5.26237630e+01	4.82705080e+01	-4.42233254e-01	-1.00637502e+02
622117857.143	-3.03994902e+00	1.64611042e+02	-5.32045724e+01	4.46092897e+01	-5.25923689e+01	4.72945935e+01	-4.41627589e-01	-1.00851745e+02
622403428.571	-3.04899715e+00	1.64579971e+02	-5.32045690e+01	4.40706297e+01	-5.26722199e+01	4.70851489e+01	-4.51352754e-01	-1.01006296e+02
622689000	-3.04846526e+00	1.64591749e+02	-5.33249501e+01	4.38771758e+01	-5.26826933e+01	4.60525523e+01	-4.57899805e-01	-1.01158811e+02
622974571.429	-3.04625978e+00	1.64589888e+02	-5.33287938e+01	4.30769837e+01	-5.26384434e+01	4.54101568e+01	-4.62092305e-01	-1.01248615e+02
623260142.857	-3.04549466e+00	1.64567572e+02	-5.33604621e+01	4.23287783e+01	-5.27159942e+01	4.44238995e+01	-4.66283462e-01	-1.01345384e+02
623545714.286	-3.04532886e+00	1.64529758e+02	-5.33294114e+01	4.17341673e+01	-5.27502007e+01	4.36500900e+01	-4.77083522e-01	-1.01486509e+02
623831285.714	-3.04407454e+00	1.64579977e+02	-5.33669358e+01	4.16094656e+01	-5.28127490e+01	4.33939034e+01	-4.80340562e-01	-1.01650691e+02
624116857.143	-3.05502007e+00	1.64497197e+02	-5.34206206e+01	4.06182515e+01	-5.27885849e+01	4.25348648e+01	-4.80306670e-01	-1.01851535e+02
624402428.571	-3.04953176e+00	1.64490786e+02	-5.35257022e+01	4.01898868e+01	-5.28728746e+01	4.18665869e+01	-4.74008818e-01	-1.01975373e+02
624688000	-3.05133079e+00	1.64466619e+02	-5.35431059e+01	3.96371753e+01	-5.29574935e+01	4.13455573e+01	-4.72432610e-01	-1.02139941e+02
624973571.429	-3.05327182e+00	1.64463294e+02	-5.36002664e+01	3.85714056e+01	-5.29862814e+01	4.01849871e+01	-4.76800212e-01	-1.02237117e+02
625259142.857	-3.05691277e+00	1.64440088e+02	-5.36986074e+01	3.88994849e+01	-5.29967046e+01	3.97162066e+01	-4.87674912e-01	-1.02382553e+02
625544714.286	-3.05725201e+00	1.64459332e+02	-5.37459555e+01	3.80791990e+01	-5.30992572e+01	3.95750975e+01	-4.94717622e-01	-1.02534298e+02
625830285.714	-3.05358680e+00	1.64407673e+02	-5.38472175e+01	3.83790758e+01	-5.31187282e+01	3.89496591e+01	-4.87988540e-01	-1.02711333e+02
626115857.143	-3.05426721e+00	1.64391414e+02	-5.37835529e+01	3.76377439e+01	-5.32148050e+01	3.84760806e+01	-4.86601796e-01	-1.02873291e+02
626401428.571	-3.06148929e+00	1.64411035e+02	-5.39015076e+01	3.75916570e+01	-5.33078109e+01	3.79892587e+01	-4.95395283e-01	-1.03059327e+02
626687000	-3.07048047e+00	1.64365207e+02	-5.40235459e+01	3.76106336e+01	-5.33807190e+01	3.78614636e+01	-4.94310929e-01	-1.03221570e+02
626972571.429	-3.06679978e+00	1.64392679e+02	-5.40925753e+01	3.67317935e+01	-5.34199436e+01	3.76055372e+01	-4.99880146e-01	-1.03384029e+02
627258142.857	-3.06283673e+00	1.64383290e+02	-5.40819824e+01	3.69086118e+01	-5.34553352e+01	3.72584916e+01	-5.03108310e-01	-1.03440737e+02
627543714.286	-3.06130429e+00	1.64390535e+02	-5.42668384e+01	3.63460973e+01	-5.35633367e+01	3.71036910e+01	-5.12264540e-01	-1.03653852e+02
627829285.714	-3.06572583e+00	1.64369897e+02	-5.42543859e+01	3.57942817e+01	-5.35413015e+01	3.67762058e+01	-5.11174972e-01	-1.03837904e+02
628114857.143	-3.06626489e+00	1.64321736e+02	-5.43394325e+01	3.54533395e+01	-5.36184341e+01	3.65256497e+01	-5.13566659e-01	-1.03992688e+02
628400428.571	-3.07309595e+00	1.64338986e+02	-5.42741250e+01	3.64601781e+01	-5.37156381e+01	3.67235969e+01	-5.06541359e-01	-1.04111759e+02
628686000	-3.06939150e+00	1.64285542e+02	-5.43841473e+01	3.62235473e+01	-5.37950068e+01	3.63997370e+01	-5.10769451e-01	-1.04233421e+02
628971571.429	-3.07786246e+00	1.64333689e+02	-5.45240499e+01	3.58625353e+01	-5.38078030e+01	3.66739895e+01	-5.08593713e-01	-1.04393765e+02
629257142.857	-3.08470142e+00	1.64340980e+02	-5.45107503e+01	3.63747392e+01	-5.38868094e+01	3.64173091e+01	-5.15442630e-01	-1.04570233e+02
629542714.286	-3.08545371e+00	1.64294277e+02	-5.45545731e+01	3.56908005e+01	-5.39419798e+01	3.63776177e+01	-5.20725129e-01	-1.04730151e+02
629828285.714	-3.08636454e+00	1.64306754e+02	-5.45533254e+01	3.62607365e+01	-5.39508768e+01	3.61347127e+01	-5.26510082e-01	-1.04899485e+02
630113857.143	-3.08752792e+00	1.64231879e+02	-5.45757833e+01	3.57129921e+01	-5.40546010e+01	3.58576844e+01	-5.26517906e-01	-1.05041510e+02
630399428.571	-3.08299740e+00	1.64248178e+02	-5.46712337e+01	3.60248695e+01	-5.39635829e+01	3.57386435e+01	-5.23197475e-01	-1.05207861e+02
630685000	-3.08276117e+00	1.64246231e+02	-5.46436584e+01	3.68094264e+01	-5.41534285e+01	3.62683762e+01	-5.29325163e-01	-1.05353701e+02
630970571.429	-3.08381644e+00	1.64238257e+02	-5.47201354e+01	3.69900488e+01	-5.40555688e+01	3.64156291e+01	-5.26190762e-01	-1.05604259e+02
631256142.857	-3.09649748e+00	1.64207463e+02	-5.47709477e+01	3.67561965e+01	-5.41436440e+01	3.63851029e+01	-5.24737400e-01	-1.05755859e+02
631541714.286	-3.10103650e+00	1.64218296e+02	-5.47519496e+01	3.65730064e+01	-5.41454447e+01	3.60216667e+01	-5.40401060e-01	-1.05954272e+02
631827285.714	-3.10370293e+00	1.64169303e+02	-5.47619724e+01	3.66863105e+01	-5.42018480e+01	3.59628682e+01	-5.33911720e-01	-1.06089294e+02
632112857.143	-3.10443061e+00	1.64152758e+02	-5.48591252e+01	3.70864999e+01	-5.41547792e+01	3.63812798e+01	-5.35589263e-01	-1.06196273e+02
632398428.571	-3.09792715e+00	1.64166867e+02	-5.48178071e+01	3.64886907e+01	-5.41833491e+01	3.67513654e+01	-5.40284838e-01	-1.06355370e+02
632684000	-3.09528578e+00	1.64140067e+02	-5.48380505e+01	3.82578472e+01	-5.41487702e+01	3.67578024e+01	-5.36325573e-01	-1.06530850e+02
632969571.429	-3.10033460e+00	1.64132552e+02	-5.47648590e+01	3.80168904e+01	-5.41986985e+01	3.64919245e+01	-5.43043872e-01	-1.06700116e+02
633255142.857	-3.10884445e+00	1.64131958e+02	-5.48029706e+01	3.87651190e+01	-5.42336606e+01	3.73752093e+01	-5.44900679e-01	-1.06916228e+02
633540714.286	-3.10379216e+00	1.64092497e+02	-5.48121041e+01	3.83174619e+01	-5.42082532e+01	3.75989323e+01	-5.45519929e-01	-1.07031889e+02
633826285.714	-3.10626382e+00	1.64092942e+02	-5.48099326e+01	3.85228137e+01	-5.41383436e+01	3.71959871e+01	-5.48476659e-01	-1.07166152e+02
634111857.143	-3.10938836e+00	1.64061779e+02	-5.48614958e+01	3.91722424e+01	-5.41990228e+01	3.79523832e+01	-5.53028654e-01	-1.07332262e+02
634397428.571	-3.10805867e+00	1.64026438e+02	-5.46859412e+01	3.89291492e+01	-5.42130980e+01	3.73729146e+01	-5.54426533e-01	-1.07528498e+02
634683000	-3.10416711e+00	1.64069742e+02	-5.46732915e+01	3.92509865e+01	-5.41405279e+01	3.81852005e+01	-5.57615676e-01	-1.07720802e+02
634968571.429	-3.10295857e+00	1.64033572e+02	-5.46717921e+01	4.04637373e+01	-5.41576254e+01	3.77868778e+01	-5.58210419e-01	-1.07868316e+02
635254142.857	-3.10872332e+00	1.63995411e+02	-5.46022891e+01	4.02282236e+01	-5.40306213e+01	3.83004748e+01	-5.62758007e-01	-1.07981322e+02
635539714.286	-3.11526275e+00	1.63985213e+02	-5.46606478e+01	4.04822483e+01	-5.40093764e+01	3.91136947e+01	-5.64121390e-01	-1.08175335e+02
635825285.714	-3.11786344e+00	1.63962373e+02	-5.45434108e+01	4.11730144e+01	-5.39708107e+01	3.88123156e+01	-5.67984164e-01	-1.08330193e+02
636110857.143	-3.11641435e+00	1.63958801e+02	-5.43464113e+01	4.16054892e+01	-5.38612767e+01	3.90891750e+01	-5.76224958e-01	-1.08459470e+02
636396428.571	-3.12028507e+00	1.63902193e+02	-5.43422157e+01	4.17087449e+01	-5.38808823e+01	3.91456215e+01	-5.68387261e-01	-1.08549159e+02
636682000	-3.11931665e+00	1.63908959e+02	-5.41431858e+01	4.18641483e+01	-5.37435067e+01	3.92140969e+01	-5.68236016e-01	-1.08712229e+02
636967571.429	-3.11492214e+00	1.63902111e+02	-5.40433736e+01	4.21352672e+01	-5.36414686e+01	3.97375316e+01	-5.68417049e-01	-1.08932988e+02
637253142.857	-3.12425617e+00	1.63930307e+02	-5.39989398e+01	4.23635195e+01	-5.35975797e+01	3.97813658e+01	-5.69156432e-01	-1.09089065e+02
637538714.286	-3.12548808e+00	1.63914907e+02	-5.38205457e+01	4.24090570e+01	-5.35575494e+01	3.96363827e+01	-5.73367770e-01	-1.09278144e+02
637824285.714	-3.13250095e+00	1.63881245e+02	-5.36930150e+01	4.18414399e+01	-5.33984238e+01	3.93854543e+01	-5.71361014e-01	-1.09437781e+02
638109857.143	-3.13355201e+00	1.63875318e+02	-5.35120360e+01	4.18618478e+01	-5.33195528e+01	3.95629033e+01	-5.70176326e-01	-1.09601436e+02
638395428.571	-3.13241646e+00	1.63892556e+02	-5.34898659e+01	4.19717146e+01	-5.30543855e+01	3.91887921e+01	-5.74736723e-01	-1.09707301e+02
638681000	-3.13683321e+00	1.63863777e+02	-5.33291449e+01	4.12962935e+01	-5.30451305e+01	3.91031641e+01	-5.77531458e-01	-1.09888061e+02
638966571.429	-3.13452768e+00	1.63857887e+02	-5.32167138e+01	4.10113903e+01	-5.30107762e+01	3.90262078e+01	-5.76246984e-01	-1.10096059e+02
639252142.857	-3.13362579e+00	1.63837311e+02	-5.30669207e+01	4.08691009e+01	-5.28494662e+01	3.86311294e+01	-5.79729299e-01	-1.10211212e+02
639537714.286	-3.13984784e+00	1.63904871e+02	-5.29674856e+01	4.10909406e+01	-5.28017975e+01	3.81817920e+01	-5.81655465e-01	-1.10318328e+02
639823285.714	-3.13522279e+00	1.63852748e+02	-5.28091199e+01	4.08340084e+01	-5.26339134e+01	3.78266977e+01	-5.81963067e-01	-1.10450520e+02
640108857.143	-3.14323089e+00	1.63868636e+02	-5.27785706e+01	4.00710059e+01	-5.25450372e+01	3.73127001e+01	-5.82107086e-01	-1.10597243e+02
640394428.571	-3.14069960e+00	1.63828397e+02	-5.25109551e+01	3.93335052e+01	-5.24598723e+01	3.69167814e+01	-5.79554897e-01	-1.10732299e+02
640680000	-3.14427161e+00	1.63837980e+02	-5.25714932e+01	3.87543447e+01	-5.23803331e+01	3.64411841e+01	-5.89999731e-01	-1.10885086e+02
640965571.429	-3.15442310e+00	1.63855820e+02	-5.23847034e+01	3.86573456e+01	-5.22173383e+01	3.63008156e+01	-5.90115695e-01	-1.11000358e+02
641251142.857	-3.15158275e+00	1.63852333e+02	-5.22637213e+01	3.78554766e+01	-5.21990928e+01	3.54668489e+01	-5.95177709e-01	-1.11208691e+02
641536714.286	-3.15732157e+00	1.63783036e+02	-5.21494095e+01	3.76564510e+01	-5.21670580e+01	3.50708648e+01	-5.88043649e-01	-1.11464487e+02
641822285.714	-3.15791231e+00	1.63762876e+02	-5.21570750e+01	3.65969751e+01	-5.20199778e+01	3.47066698e+01	-5.94720135e-01	-1.11589593e+02
642107857.143	-3.16049214e+00	1.63763686e+02	-5.20237656e+01	3.60877193e+01	-5.19783454e+01	3.38361559e+01	-5.95541532e-01	-1.11689741e+02
642393428.571	-3.16204968e+00	1.63812483e+02	-5.20136632e+01	3.60785613e+01	-5.19529254e+01	3.28518460e+01	-5.94451213e-01	-1.11814132e+02
642679000	-3.16777079e+00	1.63761685e+02	-5.18304949e+01	3.49112502e+01	-5.18728639e+01	3.26677250e+01	-5.98015163e-01	-1.11964640e+02
642964571.429	-3.16889515e+00	1.63740914e+02	-5.18122200e+01	3.42149844e+01	-5.17655984e+01	3.17554863e+01	-6.04553695e-01	-1.12117184e+02
643250142.857	-3.16974046e+00	1.63739775e+02	-5.17630894e+01	3.31259919e+01	-5.17493694e+01	3.13955939e+01	-6.02170683e-01	-1.12248066e+02
643535714.286	-3.17218167e+00	1.63750588e+02	-5.17652669e+01	3.28651993e+01	-5.17133815e+01	3.10387937e+01	-6.05943863e-01	-1.12407755e+02
643821285.714	-3.17852282e+00	1.63727307e+02	-5.15956130e+01	3.24169914e+01	-5.16294177e+01	3.01466285e+01	-6.06436488e-01	-1.12622592e+02
644106857.143	-3.18199530e+00	1.63676262e+02	-5.15108813e+01	3.18727268e+01	-5.15836399e+01	2.94000348e+01	-6.06707734e-01	-1.12777160e+02
644392428.571	-3.18472709e+00	1.63726910e+02	-5.15146883e+01	3.08340976e+01	-5.15243423e+01	2.87889817e+01	-6.04575816e-01	-1.12937269e+02
644678000	-3.18441398e+00	1.63699970e+02	-5.14388868e+01	3.08648328e+01	-5.14455795e+01	2.80133517e+01	-6.05789211e-01	-1.13063936e+02
644963571.429	-3.18612605e+00	1.63741916e+02	-5.14028466e+01	2.99288510e+01	-5.14670553e+01	2.75601009e+01	-6.02466541e-01	-1.13191898e+02
645249142.857	-3.18789232e+00	1.63690491e+02	-5.13845085e+01	2.91804982e+01	-5.14373594e+01	2.73236224e+01	-5.99571613e-01	-1.13298482e+02
645534714.286	-3.19100405e+00	1.63666822e+02	-5.12725894e+01	2.84174734e+01	-5.14109087e+01	2.67810498e+01	-5.95291058e-01	-1.13421929e+02
645820285.714	-3.19560043e+00	1.63686277e+02	-5.12776489e+01	2.79783524e+01	-5.13938675e+01	2.61891128e+01	-5.99685797e-01	-1.13581464e+02
646105857.143	-3.19484551e+00	1.63687761e+02	-5.12407117e+01	2.77260099e+01	-5.13161825e+01	2.54604697e+01	-6.02997416e-01	-1.13687108e+02
646391428.571	-3.19515779e+00	1.63664626e+02	-5.11681103e+01	2.69224258e+01	-5.13041929e+01	2.50230706e+01	-5.95674889e-01	-1.13850206e+02
646677000	-3.19694246e+00	1.63693540e+02	-5.11649537e+01	2.63371383e+01	-5.13170085e+01	2.45363117e+01	-5.93713116e-01	-1.14015548e+02
646962571.429	-3.20270966e+00	1.63682296e+02	-5.10630310e+01	2.57414026e+01	-5.12826053e+01	2.38787662e+01	-5.88955365e-01	-1.14196757e+02
647248142.857	-3.20944732e+00	1.63693906e+02	-5.10208321e+01	2.50983738e+01	-5.12242769e+01	2.36361100e+01	-5.91314740e-01	-1.14318016e+02
647533714.286	-3.21247907e+00	1.63668266e+02	-5.10879141e+01	2.48100368e+01	-5.11969603e+01	2.30567329e+01	-5.92164296e-01	-1.14452108e+02
647819285.714	-3.21891667e+00	1.63643796e+02	-5.09027358e+01	2.38400814e+01	-5.11769117e+01	2.26278987e+01	-5.89317262e-01	-1.14584064e+02
648104857.143	-3.22234816e+00	1.63647183e+02	-5.09324374e+01	2.35535864e+01	-5.11043601e+01	2.20628150e+01	-5.94058295e-01	-1.14724848e+02
648390428.571	-3.21934018e+00	1.63639658e+02	-5.09011049e+01	2.27139518e+01	-5.10792571e+01	2.16278742e+01	-6.01529794e-01	-1.14904836e+02
648676000	-3.22284284e+00	1.63618267e+02	-5.08344599e+01	2.19991543e+01	-5.10507186e+01	2.10613061e+01	-6.06154800e-01	-1.15066680e+02
648961571.429	-3.22145564e+00	1.63589011e+02	-5.08126060e+01	2.12356906e+01	-5.10057185e+01	2.07243020e+01	-6.09880638e-01	-1.15150529e+02
649247142.857	-3.22588997e+00	1.63597775e+02	-5.07920869e+01	2.11403321e+01	-5.10474386e+01	2.01368436e+01	-6.14455658e-01	-1.15286302e+02
649532714.286	-3.23308891e+00	1.63584735e+02	-5.07033394e+01	2.05010518e+01	-5.09408380e+01	1.98717965e+01	-6.15427823e-01	-1.15415104e+02
649818285.714	-3.23256680e+00	1.63575563e+02	-5.07123450e+01	1.99485820e+01	-5.09060083e+01	1.94802510e+01	-6.20707806e-01	-1.15538677e+02
650103857.143	-3.23737340e+00	1.63584700e+02	-5.06404443e+01	1.92499652e+01	-5.08978748e+01	1.85623529e+01	-6.19938446e-01	-1.15716474e+02
650389428.571	-3.23723186e+00	1.63602116e+02	-5.06390522e+01	1.85703361e+01	-5.08586718e+01	1.80846063e+01	-6.20413262e-01	-1.15868676e+02
650675000	-3.24087483e+00	1.63582356e+02	-5.05431609e+01	1.78496193e+01	-5.08283710e+01	1.74950386e+01	-6.20601536e-01	-1.16031336e+02
650960571.429	-3.24555289e+00	1.63576660e+02	-5.04897709e+01	1.73417641e+01	-5.08142403e+01	1.68404047e+01	-6.17014276e-01	-1.16175677e+02
651246142.857	-3.24299400e+00	1.63535488e+02	-5.05609003e+01	1.67613930e+01	-5.07621141e+01	1.64380620e+01	-6.16568967e-01	-1.16314312e+02
651531714.286	-3.24877422e+00	1.63571968e+02	-5.04852059e+01	1.61654929e+01	-5.07314956e+01	1.58049609e+01	-6.18437888e-01	-1.16424057e+02
651817285.714	-3.25101505e+00	1.63539680e+02	-5.04766079e+01	1.54926307e+01	-5.07012235e+01	1.51112127e+01	-6.21208457e-01	-1.16575922e+02
652102857.143	-3.25826437e+00	1.63551865e+02	-5.04326819e+01	1.43302665e+01	-5.06968611e+01	1.46260210e+01	-6.24189398e-01	-1.16720907e+02
652388428.571	-3.25528280e+00	1.63539834e+02	-5.04298754e+01	1.44397761e+01	-5.06979835e+01	1.40450324e+01	-6.21612020e-01	-1.16858604e+02
652674000	-3.26256749e+00	1.63523207e+02	-5.04281029e+01	1.34986845e+01	-5.07103758e+01	1.34642325e+01	-6.23317701e-01	-1.16995836e+02
652959571.429	-3.26525922e+00	1.63515483e+02	-5.03726813e+01	1.33292819e+01	-5.07020782e+01	1.29178920e+01	-6.23744157e-01	-1.17147765e+02
653245142.857	-3.26419280e+00	1.63500950e+02	-5.03760733e+01	1.20904060e+01	-5.06990093e+01	1.27245158e+01	-6.24515169e-01	-1.17281639e+02
653530714.286	-3.26969047e+00	1.63523997e+02	-5.03538550e+01	1.21229919e+01	-5.06938724e+01	1.18565054e+01	-6.25237089e-01	-1.17395333e+02
653816285.714	-3.27251987e+00	1.63497391e+02	-5.03373992e+01	1.16682791e+01	-5.06676580e+01	1.15671391e+01	-6.22167602e-01	-1.17474897e+02
654101857.143	-3.27603139e+00	1.63475255e+02	-5.03725560e+01	1.08144628e+01	-5.06510642e+01	1.11134259e+01	-6.24374941e-01	-1.17627417e+02
654387428.571	-3.27918685e+00	1.63498999e+02	-5.04011113e+01	1.04038957e+01	-5.06940308e+01	1.07568290e+01	-6.24281488e-01	-1.17783581e+02
654673000	-3.28532156e+00	1.63457341e+02	-5.03659955e+01	9.81664050e+00	-5.06673859e+01	1.03033231e+01	-6.23788157e-01	-1.17869986e+02
654958571.429	-3.28949799e+00	1.63474887e+02	-5.03479442e+01	9.24740693e+00	-5.06762412e+01	1.00330966e+01	-6.29658715e-01	-1.18015977e+02
655244142.857	-3.29134808e+00	1.63460702e+02	-5.03026115e+01	8.99853070e+00	-5.06561466e+01	9.55944415e+00	-6.31545702e-01	-1.18109283e+02
655529714.286	-3.29079082e+00	1.63436602e+02	-5.03652863e+01	8.62163541e+00	-5.06643221e+01	9.28951799e+00	-6.30554169e-01	-1.18230787e+02
655815285.714	-3.29785778e+00	1.63444840e+02	-5.03090634e+01	8.21655434e+00	-5.06302077e+01	9.07597137e+00	-6.36965762e-01	-1.18385871e+02
656100857.143	-3.30046498e+00	1.63444202e+02	-5.03299487e+01	7.72812238e+00	-5.06332693e+01	8.58699555e+00	-6.38995857e-01	-1.18527625e+02
656386428.571	-3.30220781e+00	1.63449732e+02	-5.02668024e+01	7.20635676e+00	-5.06042500e+01	8.37185301e+00	-6.41525590e-01	-1.18673837e+02
656672000	-3.30710788e+00	1.63424684e+02	-5.02418804e+01	7.11308518e+00	-5.05795128e+01	7.93516237e+00	-6.45767322e-01	-1.18853458e+02
656957571.429	-3.31555299e+00	1.63400345e+02	-5.02273431e+01	6.60504489e+00	-5.05379524e+01	7.69388117e+00	-6.44707145e-01	-1.18997193e+02
657243142.857	-3.32194222e+00	1.63384246e+02	-5.02294658e+01	6.48653033e+00	-5.05186524e+01	7.30067717e+00	-6.50321449e-01	-1.19163021e+02
657528714.286	-3.32352577e+00	1.63366410e+02	-5.01839624e+01	5.73825945e+00	-5.05175372e+01	7.02018470e+00	-6.54658014e-01	-1.19284608e+02
657814285.714	-3.32892883e+00	1.63361055e+02	-5.02140257e+01	5.43842400e+00	-5.04939684e+01	6.65162929e+00	-6.56993818e-01	-1.19394005e+02
658099857.143	-3.33373936e+00	1.63323975e+02	-5.01844571e+01	5.04546544e+00	-5.04992109e+01	6.29249139e+00	-6.66018474e-01	-1.19506824e+02
658385428.571	-3.33400324e+00	1.63308748e+02	-5.00924127e+01	4.41041414e+00	-5.04706850e+01	6.08306462e+00	-6.74977750e-01	-1.19612112e+02
658671000	-3.33497876e+00	1.63321829e+02	-5.01267132e+01	4.23090196e+00	-5.04431402e+01	5.60918481e+00	-6.75791725e-01	-1.19785342e+02
658956571.429	-3.33925415e+00	1.63280083e+02	-5.01173724e+01	3.63534340e+00	-5.04063590e+01	5.24823105e+00	-6.75640764e-01	-1.19918767e+02
659242142.857	-3.34562616e+00	1.63269378e+02	-5.01167366e+01	3.33790015e+00	-5.03502234e+01	5.01038875e+00	-6.85646693e-01	-1.20064359e+02
659527714.286	-3.34423882e+00	1.63264041e+02	-5.00795521e+01	3.09367819e+00	-5.03451978e+01	4.67460028e+00	-6.92696826e-01	-1.20241674e+02
659813285.714	-3.34774027e+00	1.63279563e+02	-5.00318581e+01	2.87351099e+00	-5.03153704e+01	4.49151198e+00	-6.91761778e-01	-1.20385698e+02
660098857.143	-3.35244691e+00	1.63251094e+02	-5.00020736e+01	2.50087025e+00	-5.02996807e+01	4.00941229e+00	-6.87435944e-01	-1.20517091e+02
660384428.571	-3.35677127e+00	1.63249359e+02	-4.99661704e+01	1.96085364e+00	-5.02310364e+01	3.80401474e+00	-6.82238150e-01	-1.20635704e+02
660670000	-3.36120751e+00	1.63208515e+02	-4.99568587e+01	1.38757705e+00	-5.02214019e+01	3.50951449e+00	-6.84055262e-01	-1.20800585e+02
660955571.429	-3.36060080e+00	1.63209488e+02	-4.99594785e+01	1.16721506e+00	-5.01546277e+01	2.86609426e+00	-6.84430018e-01	-1.20925724e+02
661241142.857	-3.36509111e+00	1.63208089e+02	-4.99062643e+01	5.93155264e-01	-5.01248888e+01	2.66226600e+00	-6.86233972e-01	-1.21083382e+02
661526714.286	-3.37047724e+00	1.63191456e+02	-4.98180397e+01	3.18268484e-01	-5.01260833e+01	2.38499302e+00	-6.83879478e-01	-1.21244843e+02
661812285.714	-3.36996819e+00	1.63174852e+02	-4.98140539e+01	9.09952823e-02	-5.00246681e+01	2.17297193e+00	-6.87859684e-01	-1.21400774e+02
662097857.143	-3.37572324e+00	1.63187811e+02	-4.97616153e+01	-1.79626836e-01	-5.00180987e+01	1.78664645e+00	-6.84693883e-01	-1.21558543e+02
662383428.571	-3.38010893e+00	1.63175314e+02	-4.97515954e+01	-5.21517420e-01	-4.99417032e+01	1.60481980e+00	-6.89697523e-01	-1.21686430e+02
662669000	-3.38290223e+00	1.63183154e+02	-4.96516678e+01	-1.19655799e+00	-4.99109524e+01	1.26035570e+00	-6.90311154e-01	-1.21805592e+02
662954571.429	-3.38669441e+00	1.63160824e+02	-4.96578270e+01	-1.20150105e+00	-4.98808647e+01	6.87401813e-01	-6.93285328e-01	-1.21976473e+02
663240142.857	-3.38902360e+00	1.63127367e+02	-4.96182193e+01	-2.12781357e+00	-4.97815117e+01	4.95659653e-01	-6.96265547e-01	-1.22134790e+02
663525714.286	-3.39697581e+00	1.63110965e+02	-4.95227884e+01	-2.47231860e+00	-4.97543804e+01	-1.89393209e-01	-7.01061074e-01	-1.22241231e+02
663811285.714	-3.39976830e+00	1.63112224e+02	-4.94685639e+01	-2.91028668e+00	-4.97021554e+01	-4.03742696e-01	-7.05433093e-01	-1.22381695e+02
664096857.143	-3.40482726e+00	1.63110754e+02	-4.94325581e+01	-3.41395025e+00	-4.96595003e+01	-8.61503618e-01	-7.06274764e-01	-1.22542743e+02
664382428.571	-3.41046189e+00	1.63071421e+02	-4.93917385e+01	-4.15554697e+00	-4.96051273e+01	-1.25441739e+00	-7.01769161e-01	-1.22635745e+02
664668000	-3.41419333e+00	1.63055389e+02	-4.93373922e+01	-4.38323153e+00	-4.95166206e+01	-1.82858431e+00	-7.04108728e-01	-1.22782783e+02
664953571.429	-3.41290154e+00	1.63030090e+02	-4.92391357e+01	-4.93350956e+00	-4.94606605e+01	-2.25551713e+00	-7.09822512e-01	-1.22928551e+02
665239142.857	-3.41286073e+00	1.63006333e+02	-4.92413380e+01	-5.39553002e+00	-4.94287202e+01	-2.96192187e+00	-7.12728678e-01	-1.23086438e+02
665524714.286	-3.41865553e+00	1.62977799e+02	-4.91890272e+01	-6.03271724e+00	-4.93716707e+01	-3.41425859e+00	-7.14142680e-01	-1.23211565e+02
665810285.714	-3.42145425e+00	1.62983529e+02	-4.91382839e+01	-6.79627995e+00	-4.92619693e+01	-3.99726353e+00	-7.13032002e-01	-1.23394747e+02
666095857.143	-3.42764448e+00	1.62969094e+02	-4.90610512e+01	-7.46775761e+00	-4.92197823e+01	-4.76040830e+00	-7.17126941e-01	-1.23562820e+02
666381428.571	-3.43049838e+00	1.62934715e+02	-4.90275205e+01	-8.31102047e+00	-4.92066551e+01	-5.30211995e+00	-7.18499669e-01	-1.23705347e+02
666667000	-3.43348125e+00	1.62911364e+02	-4.90055861e+01	-8.62944089e+00	-4.91357005e+01	-5.95394740e+00	-7.17813177e-01	-1.23806507e+02
666952571.429	-3.43591272e+00	1.62921534e+02	-4.89416133e+01	-9.41783492e+00	-4.91100675e+01	-6.54182599e+00	-7.23620636e-01	-1.23942545e+02
667238142.857	-3.44105096e+00	1.62894547e+02	-4.89483747e+01	-1.03847586e+01	-4.90898052e+01	-7.45856615e+00	-7.35560728e-01	-1.24040222e+02
667523714.286	-3.44496721e+00	1.62918059e+02	-4.89260827e+01	-1.09015834e+01	-4.90671950e+01	-8.14991987e+00	-7.34098957e-01	-1.24134786e+02
667809285.714	-3.45228185e+00	1.62888525e+02	-4.88914348e+01	-1.19493363e+01	-4.90165492e+01	-8.76153348e+00	-7.31357945e-01	-1.24235886e+02
668094857.143	-3.45803183e+00	1.62859874e+02	-4.88971009e+01	-1.24320151e+01	-4.89847139e+01	-9.54594776e+00	-7.32699558e-01	-1.24330878e+02
668380428.571	-3.45883598e+00	1.62796910e+02	-4.88583822e+01	-1.31279306e+01	-4.89724599e+01	-1.03198993e+01	-7.32064419e-01	-1.24517770e+02
668666000	-3.46479771e+00	1.62790629e+02	-4.88428104e+01	-1.40496842e+01	-4.89556657e+01	-1.09021146e+01	-7.38017788e-01	-1.24653728e+02
668951571.429	-3.46244396e+00	1.62779375e+02	-4.88083885e+01	-1.46314443e+01	-4.89176151e+01	-1.17347957e+01	-7.45116180e-01	-1.24742324e+02
669237142.857	-3.46583318e+00	1.62756328e+02	-4.88078642e+01	-1.55437301e+01	-4.89434891e+01	-1.25410901e+01	-7.42181812e-01	-1.24827142e+02
669522714.286	-3.47230777e+00	1.62758734e+02	-4.87933940e+01	-1.60988843e+01	-4.89325264e+01	-1.31247888e+01	-7.49890917e-01	-1.25020403e+02
669808285.714	-3.47659286e+00	1.62734605e+02	-4.88419804e+01	-1.72335049e+01	-4.89662294e+01	-1.37772052e+01	-7.50287231e-01	-1.25210713e+02
670093857.143	-3.47898188e+00	1.62692769e+02	-4.88909468e+01	-1.76047509e+01	-4.89458307e+01	-1.45690369e+01	-7.46855213e-01	-1.25341710e+02
670379428.571	-3.47818227e+00	1.62669739e+02	-4.88312276e+01	-1.81982848e+01	-4.89297749e+01	-1.51125959e+01	-7.49089190e-01	-1.25546132e+02
670665000	-3.48369960e+00	1.62640416e+02	-4.88597247e+01	-1.91120207e+01	-4.89348461e+01	-1.55111764e+01	-7.55136144e-01	-1.25673593e+02
670950571.429	-3.49060285e+00	1.62621250e+02	-4.89025550e+01	-1.97052954e+01	-4.89399378e+01	-1.62090856e+01	-7.63810107e-01	-1.25778962e+02
671236142.857	-3.49528363e+00	1.62588980e+02	-4.89097149e+01	-2.02233622e+01	-4.89495857e+01	-1.68209004e+01	-7.71125360e-01	-1.25846248e+02
671521714.286	-3.50091044e+00	1.62576758e+02	-4.88701936e+01	-2.06832413e+01	-4.90002220e+01	-1.75622343e+01	-7.64939288e-01	-1.26033470e+02
671807285.714	-3.49889175e+00	1.62576220e+02	-4.89091047e+01	-2.14889637e+01	-4.89869085e+01	-1.80384672e+01	-7.55003083e-01	-1.26177394e+02
672092857.143	-3.50722916e+00	1.62564768e+02	-4.89155923e+01	-2.19106506e+01	-4.89844893e+01	-1.83032155e+01	-7.68905852e-01	-1.26296251e+02
672378428.571	-3.51097190e+00	1.62507247e+02	-4.89817034e+01	-2.24301687e+01	-4.89989443e+01	-1.90367592e+01	-7.74056505e-01	-1.26439377e+02
672664000	-3.51391492e+00	1.62501619e+02	-4.89807287e+01	-2.27994902e+01	-4.90016993e+01	-1.92833863e+01	-7.73535918e-01	-1.26609669e+02
672949571.429	-3.51900345e+00	1.62454189e+02	-4.89703014e+01	-2.35082467e+01	-4.90061996e+01	-2.00164330e+01	-7.72238018e-01	-1.26765804e+02
673235142.857	-3.52312396e+00	1.62432031e+02	-4.89604665e+01	-2.40474995e+01	-4.90487045e+01	-2.05565331e+01	-7.79684359e-01	-1.26925164e+02
673520714.286	-3.52496175e+00	1.62378676e+02	-4.90639087e+01	-2.45424784e+01	-4.90360649e+01	-2.09998678e+01	-7.91045033e-01	-1.27030331e+02
673806285.714	-3.52875394e+00	1.62397806e+02	-4.90800880e+01	-2.51570040e+01	-4.90392650e+01	-2.14312055e+01	-7.97723881e-01	-1.27218809e+02
674091857.143	-3.53201368e+00	1.62373613e+02	-4.90627730e+01	-2.57984667e+01	-4.90758126e+01	-2.17344320e+01	-7.98908352e-01	-1.27404967e+02
674377428.571	-3.53106863e+00	1.62352589e+02	-4.91080159e+01	-2.60130857e+01	-4.90935173e+01	-2.20537506e+01	-7.96882854e-01	-1.27607521e+02
674663000	-3.53296565e+00	1.62342633e+02	-4.91672296e+01	-2.64772277e+01	-4.90776789e+01	-2.26683910e+01	-7.94448498e-01	-1.27693357e+02
674948571.429	-3.53206249e+00	1.62324868e+02	-4.91404936e+01	-2.69823567e+01	-4.90902371e+01	-2.29320079e+01	-7.93150652e-01	-1.27828211e+02
675234142.857	-3.53607029e+00	1.62315016e+02	-4.92036596e+01	-2.73129641e+01	-4.90863612e+01	-2.34811019e+01	-7.97034619e-01	-1.27959951e+02
675519714.286	-3.53867093e+00	1.62284375e+02	-4.92182943e+01	-2.78139111e+01	-4.91038003e+01	-2.38801731e+01	-7.92947207e-01	-1.28132122e+02
675805285.714	-3.53872046e+00	1.62291725e+02	-4.92472910e+01	-2.77188283e+01	-4.91278861e+01	-2.41118893e+01	-7.96085138e-01	-1.28330856e+02
676090857.143	-3.54331441e+00	1.62280631e+02	-4.92632247e+01	-2.87296402e+01	-4.91710457e+01	-2.43770823e+01	-7.93944472e-01	-1.28414246e+02
676376428.571	-3.54757698e+00	1.62227711e+02	-4.92676065e+01	-2.86898349e+01	-4.91341450e+01	-2.46056726e+01	-8.04581821e-01	-1.28548721e+02
676662000	-3.55547892e+00	1.62217257e+02	-4.93390413e+01	-2.91136609e+01	-4.92116369e+01	-2.51630155e+01	-8.11000341e-01	-1.28722934e+02
676947571.429	-3.55452357e+00	1.62162424e+02	-4.93555917e+01	-2.95678326e+01	-4.92027564e+01	-2.53234200e+01	-8.09449824e-01	-1.28911795e+02
677233142.857	-3.55555040e+00	1.62144553e+02	-4.94101802e+01	-2.95328073e+01	-4.91981524e+01	-2.56474060e+01	-8.22351676e-01	-1.29049079e+02
677518714.286	-3.55273111e+00	1.62127901e+02	-4.94116742e+01	-2.97999169e+01	-4.92287651e+01	-2.56319191e+01	-8.35492824e-01	-1.29149943e+02
677804285.714	-3.55572362e+00	1.62093506e+02	-4.94160964e+01	-3.01568630e+01	-4.92278252e+01	-2.56653227e+01	-8.35733916e-01	-1.29227238e+02
678089857.143	-3.56893025e+00	1.62057693e+02	-4.94617954e+01	-3.01719128e+01	-4.92148098e+01	-2.58446423e+01	-8.40736364e-01	-1.29408254e+02
678375428.571	-3.56559587e+00	1.62018696e+02	-4.94540508e+01	-3.03386644e+01	-4.92441722e+01	-2.63537505e+01	-8.42002727e-01	-1.29527251e+02
678661000	-3.57214005e+00	1.62001469e+02	-4.94364895e+01	-3.00422205e+01	-4.91386794e+01	-2.61947108e+01	-8.48593479e-01	-1.29633727e+02
678946571.429	-3.56707175e+00	1.62012676e+02	-4.94497124e+01	-3.02455505e+01	-4.91579691e+01	-2.64865526e+01	-8.47616258e-01	-1.29784346e+02
679232142.857	-3.56965190e+00	1.61979091e+02	-4.94325996e+01	-3.04978662e+01	-4.91404209e+01	-2.65573148e+01	-8.46511106e-01	-1.29866248e+02
679517714.286	-3.57262577e+00	1.61976793e+02	-4.94533727e+01	-3.03844681e+01	-4.91072017e+01	-2.67110717e+01	-8.47935978e-01	-1.30033771e+02
679803285.714	-3.57422086e+00	1.61959401e+02	-4.94050007e+01	-3.08263012e+01	-4.90623756e+01	-2.69851073e+01	-8.55718351e-01	-1.30227590e+02
680088857.143	-3.56876129e+00	1.61933266e+02	-4.93551946e+01	-3.10273705e+01	-4.90618187e+01	-2.71298256e+01	-8.59559182e-01	-1.30425933e+02
680374428.571	-3.57744730e+00	1.61901897e+02	-4.93682257e+01	-3.10518835e+01	-4.90097773e+01	-2.74902609e+01	-8.71395884e-01	-1.30609117e+02
680660000	-3.57878216e+00	1.61871903e+02	-4.93289501e+01	-3.10176792e+01	-4.89805441e+01	-2.78035435e+01	-8.78352097e-01	-1.30806670e+02
680945571.429	-3.58662396e+00	1.61793502e+02	-4.93011756e+01	-3.17473973e+01	-4.89577976e+01	-2.78266898e+01	-8.79699423e-01	-1.30936493e+02
681231142.857	-3.58477646e+00	1.61801133e+02	-4.92567903e+01	-3.15095178e+01	-4.89275593e+01	-2.81856875e+01	-8.80580416e-01	-1.31142722e+02
681516714.286	-3.59074517e+00	1.61797394e+02	-4.92594719e+01	-3.19522806e+01	-4.88852310e+01	-2.82655382e+01	-8.90560115e-01	-1.31278254e+02
681802285.714	-3.58807169e+00	1.61829774e+02	-4.91809587e+01	-3.21015010e+01	-4.88335393e+01	-2.87325112e+01	-8.98509715e-01	-1.31456500e+02
682087857.143	-3.58933301e+00	1.61778410e+02	-4.91417976e+01	-3.23609604e+01	-4.87975451e+01	-2.91187459e+01	-9.03780195e-01	-1.31541300e+02
682373428.571	-3.59389523e+00	1.61758889e+02	-4.91301778e+01	-3.22791641e+01	-4.87430451e+01	-2.94747418e+01	-9.05255173e-01	-1.31697379e+02
682659000	-3.59022262e+00	1.61756076e+02	-4.90893238e+01	-3.27170092e+01	-4.86964184e+01	-2.98240752e+01	-9.04176693e-01	-1.31821031e+02
682944571.429	-3.59803642e+00	1.61706889e+02	-4.90406449e+01	-3.29103488e+01	-4.86540669e+01	-3.01724063e+01	-9.09560322e-01	-1.31998361e+02
683230142.857	-3.59620411e+00	1.61745206e+02	-4.90131826e+01	-3.33397868e+01	-4.86527047e+01	-3.04408334e+01	-9.19331347e-01	-1.32081600e+02
683515714.286	-3.59567322e+00	1.61761722e+02	-4.90201810e+01	-3.36446941e+01	-4.86096717e+01	-3.09992383e+01	-9.21991592e-01	-1.32292535e+02
683801285.714	-3.59968306e+00	1.61686424e+02	-4.89823442e+01	-3.38878569e+01	-4.85519278e+01	-3.09086365e+01	-9.22985241e-01	-1.32485347e+02
684086857.143	-3.60219060e+00	1.61657601e+02	-4.89205922e+01	-3.41612501e+01	-4.84921467e+01	-3.15333439e+01	-9.28482389e-01	-1.32625340e+02
684372428.571	-3.60508342e+00	1.61648313e+02	-4.88731765e+01	-3.43773797e+01	-4.84685391e+01	-3.17979382e+01	-9.36886495e-01	-1.32811926e+02
684658000	-3.61209734e+00	1.61647880e+02	-4.88410752e+01	-3.46676921e+01	-4.84288934e+01	-3.18210427e+01	-9.42937101e-01	-1.33019255e+02
684943571.429	-3.60691576e+00	1.61646937e+02	-4.87565540e+01	-3.49046559e+01	-4.83108085e+01	-3.26205421e+01	-9.43449670e-01	-1.33158512e+02
685229142.857	-3.61545344e+00	1.61676153e+02	-4.86895096e+01	-3.52142557e+01	-4.83084177e+01	-3.30209830e+01	-9.49272682e-01	-1.33298809e+02
685514714.286	-3.61400675e+00	1.61646621e+02	-4.86796954e+01	-3.56423868e+01	-4.82525901e+01	-3.33035751e+01	-9.58004069e-01	-1.33475080e+02
685800285.714	-3.61109782e+00	1.61636968e+02	-4.85758885e+01	-3.57875610e+01	-4.82173344e+01	-3.36442681e+01	-9.62551908e-01	-1.33609942e+02
686085857.143	-3.61425879e+00	1.61592400e+02	-4.85361306e+01	-3.62443070e+01	-4.81593043e+01	-3.41896010e+01	-9.63750721e-01	-1.33788067e+02
686371428.571	-3.61288039e+00	1.61608913e+02	-4.84174017e+01	-3.72524095e+01	-4.80985735e+01	-3.49176805e+01	-9.61118032e-01	-1.33907479e+02
686657000	-3.61711923e+00	1.61611429e+02	-4.84042338e+01	-3.71177358e+01	-4.80392194e+01	-3.50382627e+01	-9.63982166e-01	-1.34082276e+02
686942571.429	-3.61852732e+00	1.61614644e+02	-4.83638578e+01	-3.75473735e+01	-4.79756209e+01	-3.58889734e+01	-9.79114255e-01	-1.34213548e+02
687228142.857	-3.61888539e+00	1.61574537e+02	-4.82940312e+01	-3.83296040e+01	-4.79272930e+01	-3.61246102e+01	-9.76109816e-01	-1.34359144e+02
687513714.286	-3.62520070e+00	1.61581551e+02	-4.82301979e+01	-3.85273110e+01	-4.78653558e+01	-3.68688509e+01	-9.84933902e-01	-1.34553228e+02
687799285.714	-3.62837007e+00	1.61542810e+02	-4.81799623e+01	-3.90214740e+01	-4.78289860e+01	-3.73783293e+01	-9.91342138e-01	-1.34692401e+02
688084857.143	-3.62895324e+00	1.61562020e+02	-4.81260085e+01	-3.96850439e+01	-4.77875307e+01	-3.79304647e+01	-9.92296905e-01	-1.34865576e+02
688370428.571	-3.63618086e+00	1.61559798e+02	-4.80914367e+01	-4.03383213e+01	-4.77256466e+01	-3.84320739e+01	-9.91708989e-01	-1.35041348e+02
688656000	-3.63465165e+00	1.61543670e+02	-4.79973192e+01	-4.07413830e+01	-4.76848105e+01	-3.88685275e+01	-9.91221898e-01	-1.35131326e+02
688941571.429	-3.63670584e+00	1.61571751e+02	-4.79509386e+01	-4.12287234e+01	-4.76391564e+01	-3.96973250e+01	-1.00321738e+00	-1.35302965e+02
689227142.857	-3.64113084e+00	1.61561316e+02	-4.78934847e+01	-4.20734433e+01	-4.75961120e+01	-4.02997926e+01	-1.00230510e+00	-1.35443874e+02
689512714.286	-3.63809230e+00	1.61554951e+02	-4.78770588e+01	-4.29039222e+01	-4.75604316e+01	-4.08972730e+01	-1.00074533e+00	-1.35581803e+02
689798285.714	-3.64101898e+00	1.61562197e+02	-4.78144650e+01	-4.30549497e+01	-4.75599631e+01	-4.15118636e+01	-9.89585427e-01	-1.35775844e+02
690083857.143	-3.64574436e+00	1.61528330e+02	-4.78212984e+01	-4.38736558e+01	-4.74675096e+01	-4.23514474e+01	-1.00303766e+00	-1.35953046e+02
690369428.571	-3.65040662e+00	1.61546685e+02	-4.77304461e+01	-4.48813114e+01	-4.74937510e+01	-4.28628645e+01	-1.00922015e+00	-1.36126592e+02
690655000	-3.65785225e+00	1.61523698e+02	-4.77516370e+01	-4.54244608e+01	-4.74324109e+01	-4.40331872e+01	-1.02607888e+00	-1.36307997e+02
690940571.429	-3.66186297e+00	1.61541416e+02	-4.77368272e+01	-4.62254497e+01	-4.74141570e+01	-4.45259186e+01	-1.02544807e+00	-1.36416226e+02
691226142.857	-3.66116407e+00	1.61497539e+02	-4.76719358e+01	-4.67899743e+01	-4.74458048e+01	-4.49168212e+01	-1.03540296e+00	-1.36601097e+02
691511714.286	-3.66776085e+00	1.61546660e+02	-4.76655206e+01	-4.75480086e+01	-4.73686193e+01	-4.57744695e+01	-1.03335520e+00	-1.36770029e+02
691797285.714	-3.67032196e+00	1.61491628e+02	-4.76592325e+01	-4.83803443e+01	-4.73731588e+01	-4.64579176e+01	-1.03351299e+00	-1.36955023e+02
692082857.143	-3.66998965e+00	1.61478846e+02	-4.76641704e+01	-4.90174204e+01	-4.73848301e+01	-4.70807753e+01	-1.03694232e+00	-1.37169203e+02
692368428.571	-3.67241178e+00	1.61397776e+02	-4.76206336e+01	-4.94859508e+01	-4.73583184e+01	-4.77583330e+01	-1.03995878e+00	-1.37345496e+02
692654000	-3.67235652e+00	1.61450887e+02	-4.76073336e+01	-5.03367995e+01	-4.73791329e+01	-4.82693019e+01	-1.04557480e+00	-1.37502971e+02
692939571.429	-3.66692949e+00	1.61421883e+02	-4.75892054e+01	-5.07052051e+01	-4.73542548e+01	-4.90272506e+01	-1.04937209e+00	-1.37588892e+02
693225142.857	-3.66650675e+00	1.61450142e+02	-4.75613177e+01	-5.14388034e+01	-4.73966220e+01	-4.94629619e+01	-1.05428151e+00	-1.37766576e+02
693510714.286	-3.67171351e+00	1.61422748e+02	-4.76075000e+01	-5.21021079e+01	-4.73926608e+01	-5.03036837e+01	-1.06136265e+00	-1.37931820e+02
693796285.714	-3.67186574e+00	1.61430770e+02	-4.76165435e+01	-5.29388603e+01	-4.73406888e+01	-5.10397922e+01	-1.05746771e+00	-1.38094917e+02
694081857.143	-3.68118174e+00	1.61434753e+02	-4.75861711e+01	-5.34035844e+01	-4.73571647e+01	-5.14462102e+01	-1.05932931e+00	-1.38217347e+02
694367428.571	-3.68019445e+00	1.61410583e+02	-4.75450659e+01	-5.37257429e+01	-4.73651029e+01	-5.21102729e+01	-1.06410505e+00	-1.38337975e+02
694653000	-3.68359615e+00	1.61371577e+02	-4.75549710e+01	-5.46724162e+01	-4.73703104e+01	-5.24446088e+01	-1.07226759e+00	-1.38569143e+02
694938571.429	-3.68282362e+00	1.61374268e+02	-4.75786800e+01	-5.51407064e+01	-4.73777610e+01	-5.30325337e+01	-1.07704529e+00	-1.38741803e+02
695224142.857	-3.68601609e+00	1.61368668e+02	-4.75982894e+01	-5.56797439e+01	-4.73410761e+01	-5.34568477e+01	-1.07266433e+00	-1.38876942e+02
695509714.286	-3.68624150e+00	1.61330443e+02	-4.75976619e+01	-5.63247072e+01	-4.73404896e+01	-5.39234886e+01	-1.07473448e+00	-1.39030115e+02
695795285.714	-3.69056507e+00	1.61350108e+02	-4.75944121e+01	-5.63958764e+01	-4.73980650e+01	-5.44617389e+01	-1.07750306e+00	-1.39201564e+02
696080857.143	-3.69341186e+00	1.61357661e+02	-4.76377029e+01	-5.76253838e+01	-4.74030344e+01	-5.50083370e+01	-1.07990372e+00	-1.39320562e+02
696366428.571	-3.68559019e+00	1.61337451e+02	-4.76386112e+01	-5.79238919e+01	-4.73994535e+01	-5.55808005e+01	-1.08519165e+00	-1.39484538e+02
696652000	-3.69675569e+00	1.61335716e+02	-4.76664729e+01	-5.85377936e+01	-4.73681550e+01	-5.60696695e+01	-1.08829330e+00	-1.39617078e+02
696937571.429	-3.69220434e+00	1.61321897e+02	-4.76207578e+01	-5.89610107e+01	-4.74150123e+01	-5.64328315e+01	-1.08961967e+00	-1.39783831e+02
697223142.857	-3.69944938e+00	1.61318341e+02	-4.76452826e+01	-5.93062292e+01	-4.74263888e+01	-5.68391557e+01	-1.08978770e+00	-1.39975901e+02
697508714.286	-3.69508581e+00	1.61272360e+02	-4.76280876e+01	-5.97948829e+01	-4.74417456e+01	-5.71691964e+01	-1.09252671e+00	-1.40131749e+02
697794285.714	-3.69974749e+00	1.61286146e+02	-4.76683797e+01	-6.04126299e+01	-4.74321161e+01	-5.77514592e+01	-1.09592466e+00	-1.40257173e+02
698079857.143	-3.70620772e+00	1.61319843e+02	-4.76273545e+01	-6.05953634e+01	-4.74513583e+01	-5.78822333e+01	-1.09794460e+00	-1.40348931e+02
698365428.571	-3.70777726e+00	1.61295301e+02	-4.76771950e+01	-6.08895054e+01	-4.74744924e+01	-5.84094472e+01	-1.10023094e+00	-1.40493787e+02
698651000	-3.70859693e+00	1.61285685e+02	-4.77028575e+01	-6.11633330e+01	-4.74727661e+01	-5.86055792e+01	-1.09710234e+00	-1.40662731e+02
698936571.429	-3.71229791e+00	1.61309527e+02	-4.76672924e+01	-6.20691994e+01	-4.74495719e+01	-5.93738786e+01	-1.09711392e+00	-1.40790945e+02
699222142.857	-3.71615491e+00	1.61297024e+02	-4.76614614e+01	-6.22226161e+01	-4.74266733e+01	-5.94878009e+01	-1.09489638e+00	-1.40949679e+02
699507714.286	-3.71513831e+00	1.61284490e+02	-4.76762578e+01	-6.25862689e+01	-4.73989777e+01	-5.99705501e+01	-1.09717160e+00	-1.41115476e+02
699793285.714	-3.70916876e+00	1.61309921e+02	-4.76974857e+01	-6.29951700e+01	-4.74217411e+01	-6.01879979e+01	-1.10623934e+00	-1.41207072e+02
700078857.143	-3.71200941e+00	1.61313031e+02	-4.77049178e+01	-6.36233966e+01	-4.74146564e+01	-6.03220957e+01	-1.11161859e+00	-1.41308509e+02
700364428.571	-3.71828884e+00	1.61277833e+02	-4.76823670e+01	-6.39510368e+01	-4.74064409e+01	-6.09367016e+01	-1.11284119e+00	-1.41495377e+02
700650000	-3.71763010e+00	1.61291811e+02	-4.77239502e+01	-6.42826361e+01	-4.73904774e+01	-6.13279436e+01	-1.10793383e+00	-1.41620268e+02
700935571.429	-3.71905891e+00	1.61265695e+02	-4.76944981e+01	-6.45268919e+01	-4.73921230e+01	-6.16155041e+01	-1.11069938e+00	-1.41791223e+02
701221142.857	-3.72219322e+00	1.61304535e+02	-4.76584868e+01	-6.51524010e+01	-4.73758442e+01	-6.20792181e+01	-1.11980738e+00	-1.41924062e+02
701506714.286	-3.72213671e+00	1.61273321e+02	-4.76757801e+01	-6.56248005e+01	-4.73413285e+01	-6.22998978e+01	-1.11774816e+00	-1.42022499e+02
701792285.714	-3.72857898e+00	1.61260402e+02	-4.77157186e+01	-6.60201060e+01	-4.73400819e+01	-6.27285328e+01	-1.12657938e+00	-1.42208810e+02
702077857.143	-3.72618163e+00	1.61259799e+02	-4.76424113e+01	-6.55547636e+01	-4.73359566e+01	-6.30212111e+01	-1.12808441e+00	-1.42377798e+02
702363428.571	-3.73025688e+00	1.61266020e+02	-4.76047657e+01	-6.62305261e+01	-4.72998632e+01	-6.34775561e+01	-1.13361422e+00	-1.42511712e+02
702649000	-3.73365868e+00	1.61283113e+02	-4.76381540e+01	-6.68003797e+01	-4.72987169e+01	-6.38926999e+01	-1.13268840e+00	-1.42706412e+02
702934571.429	-3.73681029e+00	1.61238761e+02	-4.76796897e+01	-6.72526176e+01	-4.72861053e+01	-6.43388468e+01	-1.13162942e+00	-1.42886156e+02
703220142.857	-3.73996547e+00	1.61263765e+02	-4.76233904e+01	-6.74411617e+01	-4.72922494e+01	-6.46268229e+01	-1.13525480e+00	-1.43040615e+02
703505714.286	-3.73187713e+00	1.61254461e+02	-4.76556641e+01	-6.78295243e+01	-4.72836432e+01	-6.53115004e+01	-1.13506342e+00	-1.43159658e+02
703791285.714	-3.73939398e+00	1.61244219e+02	-4.76831267e+01	-6.83163956e+01	-4.72738722e+01	-6.52589728e+01	-1.13903073e+00	-1.43300873e+02
704076857.143	-3.74564599e+00	1.61227563e+02	-4.76394059e+01	-6.87025117e+01	-4.72407000e+01	-6.56591707e+01	-1.14010057e+00	-1.43394549e+02
704362428.571	-3.75294857e+00	1.61206611e+02	-4.76448580e+01	-6.87588828e+01	-4.72178988e+01	-6.60390989e+01	-1.14286742e+00	-1.43483799e+02
704648000	-3.75340607e+00	1.61235533e+02	-4.76480170e+01	-6.91876705e+01	-4.72146701e+01	-6.62161685e+01	-1.14543523e+00	-1.43576972e+02
704933571.429	-3.75131536e+00	1.61240291e+02	-4.76302268e+01	-6.99642544e+01	-4.72143705e+01	-6.67047338e+01	-1.14991244e+00	-1.43749819e+02
705219142.857	-3.75216541e+00	1.61279798e+02	-4.76289755e+01	-6.97565127e+01	-4.71985979e+01	-6.71293586e+01	-1.15443697e+00	-1.43928649e+02
705504714.286	-3.75418518e+00	1.61270285e+02	-4.76351023e+01	-7.00269426e+01	-4.71871714e+01	-6.71492855e+01	-1.15298435e+00	-1.44070454e+02
705790285.714	-3.76287154e+00	1.61237139e+02	-4.76295101e+01	-7.05974136e+01	-4.71715953e+01	-6.76190879e+01	-1.15821490e+00	-1.44256906e+02
706075857.143	-3.76258218e+00	1.61260642e+02	-4.76198632e+01	-7.06455689e+01	-4.71546974e+01	-6.80559927e+01	-1.15860727e+00	-1.44400881e+02
706361428.571	-3.76806748e+00	1.61258583e+02	-4.76197576e+01	-7.08840493e+01	-4.71443367e+01	-6.82251290e+01	-1.15924921e+00	-1.44524086e+02
706647000	-3.77236437e+00	1.61247703e+02	-4.76255873e+01	-7.14561649e+01	-4.71078910e+01	-6.84877461e+01	-1.15710142e+00	-1.44679442e+02
706932571.429	-3.77643664e+00	1.61258116e+02	-4.75521496e+01	-7.13163216e+01	-4.70755266e+01	-6.87696431e+01	-1.15622682e+00	-1.44818640e+02
707218142.857	-3.77521733e+00	1.61249060e+02	-4.75469505e+01	-7.16595765e+01	-4.70467409e+01	-6.90533341e+01	-1.15524008e+00	-1.44934498e+02
707503714.286	-3.77928548e+00	1.61279175e+02	-4.75593297e+01	-7.19507573e+01	-4.70312026e+01	-6.91252693e+01	-1.16182860e+00	-1.45066850e+02
707789285.714	-3.77450018e+00	1.61311537e+02	-4.75236089e+01	-7.23424624e+01	-4.70117608e+01	-6.96282584e+01	-1.16446722e+00	-1.45171717e+02
708074857.143	-3.78175410e+00	1.61272016e+02	-4.74604991e+01	-7.25291049e+01	-4.69814555e+01	-6.98517987e+01	-1.16712287e+00	-1.45258513e+02
708360428.571	-3.78091630e+00	1.61285158e+02	-4.74451177e+01	-7.24038999e+01	-4.69240972e+01	-7.00176168e+01	-1.17363530e+00	-1.45335956e+02
708646000	-3.78594239e+00	1.61246814e+02	-4.73907305e+01	-7.25525619e+01	-4.69013595e+01	-7.02529930e+01	-1.17172392e+00	-1.45466360e+02
708931571.429	-3.79607645e+00	1.61284332e+02	-4.73671131e+01	-7.30157019e+01	-4.68602782e+01	-7.07006626e+01	-1.17130119e+00	-1.45613731e+02
709217142.857	-3.79569564e+00	1.61274538e+02	-4.73393471e+01	-7.33043912e+01	-4.67750266e+01	-7.09510169e+01	-1.17354505e+00	-1.45763635e+02
709502714.286	-3.79951972e+00	1.61306775e+02	-4.72563532e+01	-7.35285213e+01	-4.67272873e+01	-7.12776477e+01	-1.17872026e+00	-1.45934866e+02
709788285.714	-3.80051051e+00	1.61255031e+02	-4.72514490e+01	-7.40053281e+01	-4.67065512e+01	-7.13295005e+01	-1.18398600e+00	-1.46082948e+02
710073857.143	-3.80209672e+00	1.61280971e+02	-4.72034682e+01	-7.40456144e+01	-4.66395078e+01	-7.18266362e+01	-1.19256563e+00	-1.46219300e+02
710359428.571	-3.80503625e+00	1.61222762e+02	-4.71247377e+01	-7.43477990e+01	-4.66152413e+01	-7.21715682e+01	-1.19784757e+00	-1.46401679e+02
710645000	-3.81268288e+00	1.61256996e+02	-4.70872916e+01	-7.48857899e+01	-4.65199902e+01	-7.24652718e+01	-1.19423387e+00	-1.46587971e+02
710930571.429	-3.81381272e+00	1.61289682e+02	-4.69823837e+01	-7.50561773e+01	-4.64837098e+01	-7.30170458e+01	-1.19459456e+00	-1.46709290e+02
711216142.857	-3.81372820e+00	1.61273280e+02	-4.69664842e+01	-7.56313733e+01	-4.63811573e+01	-7.35191089e+01	-1.19631726e+00	-1.46845344e+02
711501714.286	-3.81848378e+00	1.61265735e+02	-4.69227171e+01	-7.59160913e+01	-4.63496917e+01	-7.39242631e+01	-1.19544832e+00	-1.46963212e+02
711787285.714	-3.82245761e+00	1.61247352e+02	-4.68786283e+01	-7.63974820e+01	-4.62725891e+01	-7.43865293e+01	-1.20698666e+00	-1.47106957e+02
712072857.143	-3.82280051e+00	1.61278894e+02	-4.67719579e+01	-7.71058076e+01	-4.62085880e+01	-7.49092841e+01	-1.21512617e+00	-1.47220800e+02
712358428.571	-3.82579997e+00	1.61278030e+02	-4.67303523e+01	-7.74222177e+01	-4.61482894e+01	-7.53584830e+01	-1.22365521e+00	-1.47319184e+02
712644000	-3.82509683e+00	1.61325396e+02	-4.66276221e+01	-7.77191314e+01	-4.61045227e+01	-7.58648177e+01	-1.22556682e+00	-1.47463798e+02
712929571.429	-3.82719613e+00	1.61311819e+02	-4.66001111e+01	-7.83265482e+01	-4.60308499e+01	-7.66726077e+01	-1.22571689e+00	-1.47586876e+02
713215142.857	-3.82537673e+00	1.61330235e+02	-4.65346887e+01	-7.91848538e+01	-4.59472336e+01	-7.70970591e+01	-1.22487722e+00	-1.47808077e+02
713500714.286	-3.82927949e+00	1.61288686e+02	-4.64767471e+01	-7.96221240e+01	-4.58825648e+01	-7.78130183e+01	-1.22714223e+00	-1.47983478e+02
713786285.714	-3.83187054e+00	1.61284902e+02	-4.64489452e+01	-8.01482932e+01	-4.58645582e+01	-7.84093811e+01	-1.22542639e+00	-1.48132234e+02
714071857.143	-3.83738013e+00	1.61284516e+02	-4.63939858e+01	-8.10185026e+01	-4.57970950e+01	-7.91995363e+01	-1.23285212e+00	-1.48253104e+02
714357428.571	-3.84020719e+00	1.61299429e+02	-4.63668297e+01	-8.12714153e+01	-4.57374366e+01	-7.97717755e+01	-1.23566313e+00	-1.48395865e+02
714643000	-3.84530219e+00	1.61311907e+02	-4.63016105e+01	-8.19095686e+01	-4.56850917e+01	-8.05361853e+01	-1.23627538e+00	-1.48539473e+02
714928571.429	-3.84357834e+00	1.61350362e+02	-4.62817586e+01	-8.25807181e+01	-4.56636128e+01	-8.12751031e+01	-1.23943596e+00	-1.48712136e+02
715214142.857	-3.84624633e+00	1.61330729e+02	-4.62059969e+01	-8.34507795e+01	-4.56217941e+01	-8.19678309e+01	-1.24773711e+00	-1.48879841e+02
715499714.286	-3.85469474e+00	1.61296723e+02	-4.62008226e+01	-8.41070892e+01	-4.55735048e+01	-8.25598273e+01	-1.24569521e+00	-1.49000504e+02
715785285.714	-3.85748864e+00	1.61313929e+02	-4.61762071e+01	-8.48056219e+01	-4.55549629e+01	-8.33715975e+01	-1.25216890e+00	-1.49167745e+02
716070857.143	-3.85960865e+00	1.61325414e+02	-4.61499494e+01	-8.54113442e+01	-4.54882940e+01	-8.41602883e+01	-1.26470570e+00	-1.49281748e+02
716356428.571	-3.86321045e+00	1.61297185e+02	-4.61008574e+01	-8.61340025e+01	-4.54710319e+01	-8.49511157e+01	-1.27069807e+00	-1.49457244e+02
716642000	-3.86701355e+00	1.61299346e+02	-4.60809838e+01	-8.66904963e+01	-4.54425317e+01	-8.56825686e+01	-1.27957008e+00	-1.49610209e+02
716927571.429	-3.86992556e+00	1.61319172e+02	-4.60592933e+01	-8.76043327e+01	-4.54435305e+01	-8.64517394e+01	-1.28836069e+00	-1.49781099e+02
717213142.857	-3.87341969e+00	1.61323177e+02	-4.60226913e+01	-8.83410257e+01	-4.54287185e+01	-8.72744836e+01	-1.29099241e+00	-1.49908805e+02
717498714.286	-3.86968744e+00	1.61328779e+02	-4.60628201e+01	-8.91021954e+01	-4.54124453e+01	-8.79893731e+01	-1.29261997e+00	-1.50032507e+02
717784285.714	-3.87656399e+00	1.61308738e+02	-4.60383897e+01	-8.97583548e+01	-4.53902464e+01	-8.90201130e+01	-1.29052771e+00	-1.50146154e+02
718069857.143	-3.87839140e+00	1.61310639e+02	-4.60316677e+01	-9.05008822e+01	-4.53769813e+01	-8.97830894e+01	-1.29240790e+00	-1.50290782e+02
718355428.571	-3.88867109e+00	1.61309249e+02	-4.60283514e+01	-9.11644603e+01	-4.53448701e+01	-9.03241044e+01	-1.29615564e+00	-1.50397186e+02
718641000	-3.88786405e+00	1.61309155e+02	-4.60221763e+01	-9.21629179e+01	-4.53561828e+01	-9.10353000e+01	-1.30123021e+00	-1.50548252e+02
718926571.429	-3.89122384e+00	1.61319523e+02	-4.60293285e+01	-9.27156213e+01	-4.53850699e+01	-9.20192134e+01	-1.30222557e+00	-1.50697406e+02
719212142.857	-3.89374445e+00	1.61312428e+02	-4.60424027e+01	-9.33805503e+01	-4.53913310e+01	-9.26098198e+01	-1.30165605e+00	-1.50845860e+02
719497714.286	-3.89892494e+00	1.61350940e+02	-4.60337405e+01	-9.41877955e+01	-4.53889175e+01	-9.34486697e+01	-1.30052933e+00	-1.51013043e+02
719783285.714	-3.90191474e+00	1.61311813e+02	-4.60306244e+01	-9.46007002e+01	-4.54196912e+01	-9.38970799e+01	-1.29109581e+00	-1.51238121e+02
720068857.143	-3.90694474e+00	1.61335659e+02	-4.60665040e+01	-9.54068311e+01	-4.54156907e+01	-9.47111338e+01	-1.29102763e+00	-1.51424705e+02
720354428.571	-3.91196314e+00	1.61337218e+02	-4.60611840e+01	-9.59431127e+01	-4.54164230e+01	-9.55357861e+01	-1.29697506e+00	-1.51565441e+02
720640000	-3.91076935e+00	1.61337120e+02	-4.60999907e+01	-9.64955437e+01	-4.54370915e+01	-9.61005597e+01	-1.30830933e+00	-1.51729183e+02
720925571.429	-3.91528016e+00	1.61339086e+02	-4.61028861e+01	-9.69899062e+01	-4.54260819e+01	-9.65900376e+01	-1.30012839e+00	-1.51851985e+02
721211142.857	-3.91422033e+00	1.61355344e+02	-4.61085674e+01	-9.76587678e+01	-4.54786661e+01	-9.70583444e+01	-1.29533500e+00	-1.51961570e+02
721496714.286	-3.92054697e+00	1.61327819e+02	-4.61773444e+01	-9.78903664e+01	-4.54767923e+01	-9.79048668e+01	-1.30726032e+00	-1.52058814e+02
721782285.714	-3.91875630e+00	1.61305534e+02	-4.61435760e+01	-9.85062513e+01	-4.55199232e+01	-9.81495436e+01	-1.31076296e+00	-1.52180340e+02
722067857.143	-3.92159534e+00	1.61300632e+02	-4.61818535e+01	-9.91401178e+01	-4.55180059e+01	-9.87413801e+01	-1.30974034e+00	-1.52295365e+02
722353428.571	-3.92693372e+00	1.61303086e+02	-4.61987436e+01	-9.94541506e+01	-4.55227957e+01	-9.93345307e+01	-1.31390104e+00	-1.52366103e+02
722639000	-3.92879593e+00	1.61299257e+02	-4.61981048e+01	-9.99538098e+01	-4.55200526e+01	-9.97899498e+01	-1.31653620e+00	-1.52499192e+02
722924571.429	-3.93073770e+00	1.61285383e+02	-4.61846672e+01	-1.00445212e+02	-4.55714598e+01	-1.00281821e+02	-1.32443728e+00	-1.52647077e+02
723210142.857	-3.93418359e+00	1.61287051e+02	-4.62066889e+01	-1.00862214e+02	-4.55597429e+01	-1.00814319e+02	-1.32406506e+00	-1.52816377e+02
723495714.286	-3.94187343e+00	1.61304335e+02	-4.62169597e+01	-1.01183005e+02	-4.55801677e+01	-1.01259912e+02	-1.32902307e+00	-1.52906618e+02
723781285.714	-3.94791733e+00	1.61300161e+02	-4.62449734e+01	-1.01625771e+02	-4.55804447e+01	-1.01771913e+02	-1.33406821e+00	-1.53065629e+02
724066857.143	-3.95424389e+00	1.61295509e+02	-4.62638518e+01	-1.01955124e+02	-4.55899157e+01	-1.02156123e+02	-1.33972903e+00	-1.53183168e+02
724352428.571	-3.95505486e+00	1.61291742e+02	-4.62379902e+01	-1.02322444e+02	-4.55818872e+01	-1.02593166e+02	-1.34791831e+00	-1.53343106e+02
724638000	-3.95483636e+00	1.61331836e+02	-4.62693738e+01	-1.02605187e+02	-4.56014194e+01	-1.03195203e+02	-1.35263245e+00	-1.53495211e+02
724923571.429	-3.95570936e+00	1.61309197e+02	-4.62681870e+01	-1.03119273e+02	-4.56051013e+01	-1.03533347e+02	-1.35700591e+00	-1.53637466e+02
725209142.857	-3.95739729e+00	1.61286624e+02	-4.62555523e+01	-1.03184062e+02	-4.56218676e+01	-1.04073904e+02	-1.35623535e+00	-1.53794265e+02
725494714.286	-3.96392958e+00	1.61251405e+02	-4.62774556e+01	-1.03817960e+02	-4.56304020e+01	-1.04556182e+02	-1.35867246e+00	-1.53983233e+02
725780285.714	-3.96753859e+00	1.61266464e+02	-4.62495511e+01	-1.04248171e+02	-4.56260910e+01	-1.05151290e+02	-1.37113447e+00	-1.54189499e+02
726065857.143	-3.96759447e+00	1.61280054e+02	-4.62172214e+01	-1.04747178e+02	-4.56403695e+01	-1.05618074e+02	-1.37035259e+00	-1.54294989e+02
726351428.571	-3.97194143e+00	1.61306634e+02	-4.62202469e+01	-1.05110854e+02	-4.56053532e+01	-1.06112466e+02	-1.36609783e+00	-1.54405837e+02
726637000	-3.97730832e+00	1.61264764e+02	-4.62110421e+01	-1.05432919e+02	-4.56131668e+01	-1.06601142e+02	-1.38007629e+00	-1.54493582e+02
726922571.429	-3.97732264e+00	1.61266124e+02	-4.61949493e+01	-1.06025703e+02	-4.55795072e+01	-1.06828862e+02	-1.38941903e+00	-1.54615435e+02
727208142.857	-3.97922368e+00	1.61255425e+02	-4.61693472e+01	-1.06656385e+02	-4.56208279e+01	-1.07373210e+02	-1.38958663e+00	-1.54799353e+02
727493714.286	-3.98655045e+00	1.61258336e+02	-4.61879997e+01	-1.07016364e+02	-4.55991160e+01	-1.07910893e+02	-1.38635552e+00	-1.54892356e+02
727779285.714	-3.99096416e+00	1.61261753e+02	-4.61657270e+01	-1.07297709e+02	-4.55638641e+01	-1.08637354e+02	-1.38405147e+00	-1.55092378e+02
728064857.143	-3.99232277e+00	1.61268643e+02	-4.61243527e+01	-1.07968003e+02	-4.56073735e+01	-1.09040114e+02	-1.38894982e+00	-1.55209435e+02
728350428.571	-3.99988139e+00	1.61265591e+02	-4.61508451e+01	-1.08417408e+02	-4.55906201e+01	-1.09429036e+02	-1.39646871e+00	-1.55387963e+02
728636000	-3.99928699e+00	1.61257274e+02	-4.61455143e+01	-1.08848123e+02	-4.55841322e+01	-1.09927385e+02	-1.40680199e+00	-1.55519071e+02
728921571.429	-4.00432518e+00	1.61228017e+02	-4.61816224e+01	-1.09366681e+02	-4.56063181e+01	-1.10597275e+02	-1.41591521e+00	-1.55743998e+02
729207142.857	-4.00508793e+00	1.61213039e+02	-4.61526876e+01	-1.09994192e+02	-4.56300389e+01	-1.11049774e+02	-1.41352797e+00	-1.55903969e+02
729492714.286	-4.00955201e+00	1.61185605e+02	-4.61486242e+01	-1.10342722e+02	-4.56116680e+01	-1.11610076e+02	-1.41692453e+00	-1.56000458e+02
729778285.714	-4.01065466e+00	1.61175601e+02	-4.61459293e+01	-1.11084132e+02	-4.56163465e+01	-1.12154692e+02	-1.41755923e+00	-1.56125797e+02
730063857.143	-4.01627109e+00	1.61179606e+02	-4.61396306e+01	-1.11595037e+02	-4.56269602e+01	-1.12700542e+02	-1.42101440e+00	-1.56287179e+02
730349428.571	-4.01718461e+00	1.61165367e+02	-4.61255846e+01	-1.11957757e+02	-4.56659372e+01	-1.13095094e+02	-1.42010929e+00	-1.56438798e+02
730635000	-4.02388891e+00	1.61151583e+02	-4.61374431e+01	-1.12540814e+02	-4.56474620e+01	-1.13670506e+02	-1.41998294e+00	-1.56573695e+02
730920571.429	-4.02768217e+00	1.61163898e+02	-4.61835855e+01	-1.13156009e+02	-4.56797419e+01	-1.14328455e+02	-1.42084679e+00	-1.56728155e+02
731206142.857	-4.02801434e+00	1.61096128e+02	-4.61675971e+01	-1.13433781e+02	-4.56868863e+01	-1.14821011e+02	-1.43089064e+00	-1.56917381e+02
731491714.286	-4.02940009e+00	1.61091585e+02	-4.62015762e+01	-1.14075556e+02	-4.56834834e+01	-1.15230019e+02	-1.43402179e+00	-1.57051750e+02
731777285.714	-4.03101829e+00	1.61088173e+02	-4.61904574e+01	-1.14417086e+02	-4.57382808e+01	-1.15530277e+02	-1.44037718e+00	-1.57242774e+02
732062857.143	-4.03533835e+00	1.61021867e+02	-4.62097332e+01	-1.14952091e+02	-4.57264853e+01	-1.16226388e+02	-1.45183957e+00	-1.57348311e+02
732348428.571	-4.03470138e+00	1.61001676e+02	-4.62138277e+01	-1.15314072e+02	-4.57788330e+01	-1.16636873e+02	-1.45677469e+00	-1.57528979e+02
732634000	-4.03909870e+00	1.61035413e+02	-4.62515110e+01	-1.15710854e+02	-4.57714504e+01	-1.16961541e+02	-1.46919213e+00	-1.57660605e+02
732919571.429	-4.04559404e+00	1.61024676e+02	-4.62540158e+01	-1.16063408e+02	-4.57956461e+01	-1.17346741e+02	-1.47426232e+00	-1.57737963e+02
733205142.857	-4.04726666e+00	1.61036608e+02	-4.62753543e+01	-1.16541649e+02	-4.58200397e+01	-1.17872672e+02	-1.47701370e+00	-1.57888064e+02
733490714.286	-4.05387318e+00	1.61027451e+02	-4.63089845e+01	-1.16890760e+02	-4.58404875e+01	-1.18041962e+02	-1.48565479e+00	-1.58030898e+02
733776285.714	-4.05522125e+00	1.60986266e+02	-4.63218475e+01	-1.17249947e+02	-4.58715336e+01	-1.18618375e+02	-1.48675956e+00	-1.58182393e+02
734061857.143	-4.05457369e+00	1.60970822e+02	-4.63356501e+01	-1.17657843e+02	-4.58736375e+01	-1.19086390e+02	-1.48312164e+00	-1.58348407e+02
734347428.571	-4.05814213e+00	1.60923166e+02	-4.63444875e+01	-1.17985737e+02	-4.58680472e+01	-1.19264069e+02	-1.49035862e+00	-1.58478817e+02
734633000	-4.05949518e+00	1.60944185e+02	-4.63443784e+01	-1.18140862e+02	-4.59100791e+01	-1.19761864e+02	-1.49552267e+00	-1.58627532e+02
734918571.429	-4.06084155e+00	1.60940081e+02	-4.63733036e+01	-1.18477086e+02	-4.59108720e+01	-1.20082930e+02	-1.49890151e+00	-1.58803346e+02
735204142.857	-4.06314297e+00	1.60921998e+02	-4.63353929e+01	-1.18880348e+02	-4.59256971e+01	-1.20335799e+02	-1.50928399e+00	-1.58895361e+02
735489714.286	-4.06185802e+00	1.60887771e+02	-4.63588223e+01	-1.19205151e+02	-4.59507058e+01	-1.20761998e+02	-1.51422310e+00	-1.59120052e+02
735775285.714	-4.06673814e+00	1.60879835e+02	-4.63641568e+01	-1.19440919e+02	-4.59648787e+01	-1.20940317e+02	-1.52348547e+00	-1.59292716e+02
736060857.143	-4.07015267e+00	1.60874941e+02	-4.63751306e+01	-1.19560086e+02	-4.59559927e+01	-1.21274872e+02	-1.52777407e+00	-1.59462629e+02
736346428.571	-4.07640007e+00	1.60871513e+02	-4.63775197e+01	-1.19870226e+02	-4.59821303e+01	-1.21725590e+02	-1.52890593e+00	-1.59615731e+02
736632000	-4.07866784e+00	1.60867954e+02	-4.63909298e+01	-1.19964892e+02	-4.60016135e+01	-1.21993703e+02	-1.54501432e+00	-1.59696406e+02
736917571.429	-4.07856429e+00	1.60855796e+02	-4.63535717e+01	-1.20285448e+02	-4.59833094e+01	-1.22150883e+02	-1.54540873e+00	-1.59867518e+02
737203142.857	-4.07896173e+00	1.60826445e+02	-4.63526715e+01	-1.20752303e+02	-4.59845820e+01	-1.22571013e+02	-1.54180370e+00	-1.60024081e+02
737488714.286	-4.08080803e+00	1.60826840e+02	-4.63745550e+01	-1.20970473e+02	-4.60043363e+01	-1.22849909e+02	-1.54408223e+00	-1.60157508e+02
737774285.714	-4.08136415e+00	1.60826600e+02	-4.63251676e+01	-1.21282857e+02	-4.60035600e+01	-1.23221007e+02	-1.55394390e+00	-1.60301225e+02
738059857.143	-4.08654977e+00	1.60804079e+02	-4.63247730e+01	-1.21573158e+02	-4.59970464e+01	-1.23420558e+02	-1.55557712e+00	-1.60510598e+02
738345428.571	-4.08559566e+00	1.60785595e+02	-4.63346864e+01	-1.21800220e+02	-4.60110031e+01	-1.23654019e+02	-1.55890731e+00	-1.60659845e+02
738631000	-4.09091836e+00	1.60756401e+02	-4.63343397e+01	-1.22313765e+02	-4.59765316e+01	-1.24043303e+02	-1.56633474e+00	-1.60874784e+02
738916571.429	-4.09172549e+00	1.60711614e+02	-4.62928288e+01	-1.22424036e+02	-4.59890413e+01	-1.24274541e+02	-1.57376766e+00	-1.61003599e+02
739202142.857	-4.09884813e+00	1.60695783e+02	-4.62890172e+01	-1.22754022e+02	-4.59863110e+01	-1.24659642e+02	-1.58894350e+00	-1.61149453e+02
739487714.286	-4.09656647e+00	1.60683961e+02	-4.62455908e+01	-1.23186145e+02	-4.59963009e+01	-1.24954054e+02	-1.59769295e+00	-1.61310843e+02
739773285.714	-4.09337404e+00	1.60664409e+02	-4.62348972e+01	-1.23557776e+02	-4.59564710e+01	-1.25164449e+02	-1.59743282e+00	-1.61529154e+02
740058857.143	-4.10026042e+00	1.60681613e+02	-4.62338119e+01	-1.23659331e+02	-4.59416164e+01	-1.25537566e+02	-1.59722329e+00	-1.61700730e+02
740344428.571	-4.10296313e+00	1.60613413e+02	-4.62010291e+01	-1.24189093e+02	-4.59326079e+01	-1.25742174e+02	-1.59716784e+00	-1.61817005e+02
740630000	-4.10048535e+00	1.60607790e+02	-4.62089481e+01	-1.24494250e+02	-4.59302745e+01	-1.26156063e+02	-1.60876882e+00	-1.61984464e+02
740915571.429	-4.10336542e+00	1.60601326e+02	-4.62039555e+01	-1.24962680e+02	-4.58990516e+01	-1.26657880e+02	-1.61897591e+00	-1.62079027e+02
741201142.857	-4.10324818e+00	1.60585879e+02	-4.61730488e+01	-1.25145381e+02	-4.59074318e+01	-1.26922648e+02	-1.62980946e+00	-1.62200063e+02
741486714.286	-4.10376276e+00	1.60572903e+02	-4.61316583e+01	-1.25718832e+02	-4.59048196e+01	-1.27040936e+02	-1.63004937e+00	-1.62424258e+02
741772285.714	-4.11138649e+00	1.60554507e+02	-4.61489596e+01	-1.25675153e+02	-4.59161847e+01	-1.27506192e+02	-1.63653255e+00	-1.62611974e+02
742057857.143	-4.10474356e+00	1.60564564e+02	-4.60864609e+01	-1.26468443e+02	-4.58860274e+01	-1.27984178e+02	-1.63377743e+00	-1.62781484e+02
742343428.571	-4.11035876e+00	1.60519038e+02	-4.61419117e+01	-1.26672225e+02	-4.58675165e+01	-1.28176609e+02	-1.64202303e+00	-1.62908357e+02
742629000	-4.11066051e+00	1.60460321e+02	-4.60752183e+01	-1.27007605e+02	-4.58779636e+01	-1.28440238e+02	-1.64400241e+00	-1.63042675e+02
742914571.429	-4.11172318e+00	1.60463029e+02	-4.60773734e+01	-1.27478998e+02	-4.58546862e+01	-1.28988219e+02	-1.64905375e+00	-1.63240668e+02
743200142.857	-4.11316527e+00	1.60486251e+02	-4.60587574e+01	-1.27620983e+02	-4.58391019e+01	-1.29161809e+02	-1.65491318e+00	-1.63373366e+02
743485714.286	-4.11225137e+00	1.60454685e+02	-4.60208667e+01	-1.27929968e+02	-4.58371874e+01	-1.29475919e+02	-1.66410626e+00	-1.63568835e+02
743771285.714	-4.11032647e+00	1.60441563e+02	-4.60194178e+01	-1.28336004e+02	-4.58378874e+01	-1.30060338e+02	-1.66468107e+00	-1.63712302e+02
744056857.143	-4.11245669e+00	1.60434065e+02	-4.60259621e+01	-1.28711926e+02	-4.58028536e+01	-1.30391339e+02	-1.67728289e+00	-1.63915731e+02
744342428.571	-4.11763957e+00	1.60444653e+02	-4.59780080e+01	-1.29152964e+02	-4.57986264e+01	-1.30595401e+02	-1.68815360e+00	-1.64073297e+02
744628000	-4.11760563e+00	1.60375441e+02	-4.59769259e+01	-1.29431277e+02	-4.57913192e+01	-1.30910088e+02	-1.69516031e+00	-1.64247540e+02
744913571.429	-4.11734351e+00	1.60388012e+02	-4.59661036e+01	-1.29765829e+02	-4.57742457e+01	-1.31408345e+02	-1.69646189e+00	-1.64362831e+02
745199142.857	-4.12859196e+00	1.60394351e+02	-4.59350923e+01	-1.30228875e+02	-4.57248760e+01	-1.31614106e+02	-1.69711459e+00	-1.64552927e+02
745484714.286	-4.12471848e+00	1.60385204e+02	-4.59140107e+01	-1.30507844e+02	-4.57320527e+01	-1.32096673e+02	-1.70253809e+00	-1.64691894e+02
745770285.714	-4.13312046e+00	1.60407277e+02	-4.58802518e+01	-1.31015950e+02	-4.56809415e+01	-1.32360296e+02	-1.70811997e+00	-1.64885483e+02
746055857.143	-4.13457040e+00	1.60417616e+02	-4.58577230e+01	-1.31209467e+02	-4.56785861e+01	-1.32687785e+02	-1.71392584e+00	-1.65011148e+02
746341428.571	-4.13540773e+00	1.60415857e+02	-4.58405356e+01	-1.31505876e+02	-4.56470328e+01	-1.33157791e+02	-1.72006532e+00	-1.65143571e+02
746627000	-4.13467881e+00	1.60367877e+02	-4.57826704e+01	-1.31860063e+02	-4.56528253e+01	-1.33626195e+02	-1.72126793e+00	-1.65260827e+02
746912571.429	-4.13178854e+00	1.60381107e+02	-4.57613949e+01	-1.32336054e+02	-4.56443976e+01	-1.33898653e+02	-1.72339129e+00	-1.65438858e+02
747198142.857	-4.13568040e+00	1.60335610e+02	-4.57549329e+01	-1.32758603e+02	-4.56063567e+01	-1.34359710e+02	-1.72617273e+00	-1.65573470e+02
747483714.286	-4.13628220e+00	1.60325264e+02	-4.56596910e+01	-1.32537273e+02	-4.55754654e+01	-1.34968935e+02	-1.73854724e+00	-1.65744483e+02
747769285.714	-4.13544104e+00	1.60379760e+02	-4.56926621e+01	-1.33388594e+02	-4.55800670e+01	-1.35154073e+02	-1.74352489e+00	-1.65927244e+02
748054857.143	-4.13912776e+00	1.60335330e+02	-4.56346931e+01	-1.34661792e+02	-4.55531573e+01	-1.35674474e+02	-1.74459674e+00	-1.66108540e+02
748340428.571	-4.13962142e+00	1.60331970e+02	-4.55699482e+01	-1.34573582e+02	-4.55447969e+01	-1.36107450e+02	-1.75723099e+00	-1.66309301e+02
748626000	-4.14417452e+00	1.60314421e+02	-4.56371570e+01	-1.35525702e+02	-4.55231434e+01	-1.36746130e+02	-1.75996149e+00	-1.66423396e+02
748911571.429	-4.14500678e+00	1.60316512e+02	-4.56174464e+01	-1.35347799e+02	-4.55511260e+01	-1.37152823e+02	-1.77111457e+00	-1.66565575e+02
749197142.857	-4.14430155e+00	1.60293478e+02	-4.56085718e+01	-1.35913227e+02	-4.55055391e+01	-1.37554878e+02	-1.77181690e+00	-1.66757650e+02
749482714.286	-4.14737732e+00	1.60283352e+02	-4.56777313e+01	-1.36149438e+02	-4.55066394e+01	-1.38085037e+02	-1.77557884e+00	-1.66917527e+02
749768285.714	-4.15469370e+00	1.60297629e+02	-4.56780393e+01	-1.37688111e+02	-4.55170097e+01	-1.38309215e+02	-1.78092310e+00	-1.67074641e+02
750053857.143	-4.15634119e+00	1.60334772e+02	-4.55749097e+01	-1.37308806e+02	-4.54869142e+01	-1.38641721e+02	-1.77480204e+00	-1.67217982e+02
750339428.571	-4.16000587e+00	1.60335029e+02	-4.56409679e+01	-1.37436102e+02	-4.55228370e+01	-1.39345310e+02	-1.77599409e+00	-1.67388427e+02
750625000	-4.15820507e+00	1.60331143e+02	-4.55203098e+01	-1.38524850e+02	-4.54871739e+01	-1.39803208e+02	-1.78441800e+00	-1.67533365e+02
750910571.429	-4.15724098e+00	1.60308196e+02	-4.55229655e+01	-1.38741572e+02	-4.55198181e+01	-1.40410335e+02	-1.78495695e+00	-1.67711905e+02
751196142.857	-4.16269668e+00	1.60287708e+02	-4.55297992e+01	-1.39393701e+02	-4.55047940e+01	-1.40370674e+02	-1.78443927e+00	-1.67825634e+02
751481714.286	-4.16621947e+00	1.60289258e+02	-4.54673028e+01	-1.40081468e+02	-4.55275124e+01	-1.40939536e+02	-1.78805462e+00	-1.67976508e+02
751767285.714	-4.16468296e+00	1.60273936e+02	-4.55230540e+01	-1.40079887e+02	-4.55197310e+01	-1.41262224e+02	-1.78902354e+00	-1.68123205e+02
752052857.143	-4.17021682e+00	1.60321440e+02	-4.55020610e+01	-1.41519371e+02	-4.54946363e+01	-1.41845142e+02	-1.79320757e+00	-1.68246388e+02
752338428.571	-4.17804185e+00	1.60341391e+02	-4.55014920e+01	-1.40430003e+02	-4.55038683e+01	-1.42113241e+02	-1.79748016e+00	-1.68426278e+02
752624000	-4.17705408e+00	1.60316563e+02	-4.55860879e+01	-1.41183157e+02	-4.55171813e+01	-1.42389975e+02	-1.79975084e+00	-1.68537836e+02
752909571.429	-4.17745797e+00	1.60275434e+02	-4.54574580e+01	-1.41582147e+02	-4.54827138e+01	-1.42897911e+02	-1.80939870e+00	-1.68707717e+02
753195142.857	-4.18104183e+00	1.60232140e+02	-4.54842311e+01	-1.42871301e+02	-4.54788213e+01	-1.43113730e+02	-1.81147800e+00	-1.68841128e+02
753480714.286	-4.18570957e+00	1.60220838e+02	-4.55329345e+01	-1.43121903e+02	-4.54780071e+01	-1.43424049e+02	-1.81815400e+00	-1.68996618e+02
753766285.714	-4.17969296e+00	1.60261114e+02	-4.55308445e+01	-1.42781846e+02	-4.55009129e+01	-1.43687907e+02	-1.82877325e+00	-1.69144420e+02
754051857.143	-4.18041214e+00	1.60227873e+02	-4.54770685e+01	-1.43201201e+02	-4.54960497e+01	-1.44258445e+02	-1.82363736e+00	-1.69306149e+02
754337428.571	-4.17838793e+00	1.60193513e+02	-4.54818483e+01	-1.43997154e+02	-4.54914567e+01	-1.44415324e+02	-1.83221515e+00	-1.69463301e+02
754623000	-4.17501891e+00	1.60203876e+02	-4.54833740e+01	-1.44231649e+02	-4.54719342e+01	-1.44720268e+02	-1.83802147e+00	-1.69619565e+02
754908571.429	-4.17821796e+00	1.60183482e+02	-4.54596569e+01	-1.44917352e+02	-4.54539813e+01	-1.45230926e+02	-1.84040166e+00	-1.69759927e+02
755194142.857	-4.18071357e+00	1.60160654e+02	-4.55049113e+01	-1.44874787e+02	-4.54389986e+01	-1.45427634e+02	-1.83870628e+00	-1.69895286e+02
755479714.286	-4.18792476e+00	1.60132519e+02	-4.54902816e+01	-1.45694662e+02	-4.54693316e+01	-1.45747758e+02	-1.84833343e+00	-1.70018585e+02
755765285.714	-4.18074803e+00	1.60122289e+02	-4.54219199e+01	-1.45700602e+02	-4.54413705e+01	-1.45998464e+02	-1.85184522e+00	-1.70176836e+02
756050857.143	-4.17581533e+00	1.60119373e+02	-4.54724366e+01	-1.46365782e+02	-4.54249917e+01	-1.46239482e+02	-1.85654693e+00	-1.70329116e+02
756336428.571	-4.18337482e+00	1.60092248e+02	-4.54580463e+01	-1.46248437e+02	-4.54233141e+01	-1.46626264e+02	-1.85728748e+00	-1.70482841e+02
756622000	-4.18669721e+00	1.60062492e+02	-4.54610109e+01	-1.46734723e+02	-4.54403949e+01	-1.47101476e+02	-1.86019336e+00	-1.70625732e+02
756907571.429	-4.18778973e+00	1.60079309e+02	-4.54148606e+01	-1.47265652e+02	-4.54142396e+01	-1.47340085e+02	-1.85955042e+00	-1.70819624e+02
757193142.857	-4.18829684e+00	1.60099232e+02	-4.54362293e+01	-1.47680581e+02	-4.54360023e+01	-1.47614699e+02	-1.85559834e+00	-1.70980509e+02
757478714.286	-4.19322453e+00	1.60076335e+02	-4.54817429e+01	-1.47924697e+02	-4.53844528e+01	-1.47885495e+02	-1.85823940e+00	-1.71164689e+02
757764285.714	-4.18810506e+00	1.60094705e+02	-4.54716436e+01	-1.48108846e+02	-4.53977553e+01	-1.48211165e+02	-1.86587276e+00	-1.71306596e+02
758049857.143	-4.19569552e+00	1.60116607e+02	-4.53330370e+01	-1.48334455e+02	-4.53823196e+01	-1.48368409e+02	-1.87361258e+00	-1.71420034e+02
758335428.571	-4.19615446e+00	1.60092431e+02	-4.54525003e+01	-1.48525428e+02	-4.53687802e+01	-1.48668535e+02	-1.88512597e+00	-1.71530094e+02
758621000	-4.20201551e+00	1.60074406e+02	-4.53551312e+01	-1.48368061e+02	-4.53622601e+01	-1.48886296e+02	-1.88451245e+00	-1.71696209e+02
758906571.429	-4.20039480e+00	1.60088444e+02	-4.54236230e+01	-1.49413915e+02	-4.53374869e+01	-1.49135841e+02	-1.89428244e+00	-1.71871605e+02
759192142.857	-4.20477874e+00	1.60088224e+02	-4.53227412e+01	-1.49367733e+02	-4.53429684e+01	-1.49342826e+02	-1.89403284e+00	-1.71974305e+02
759477714.286	-4.20178396e+00	1.60067466e+02	-4.54075483e+01	-1.49820045e+02	-4.53142355e+01	-1.49594034e+02	-1.90693994e+00	-1.72145297e+02
759763285.714	-4.20109575e+00	1.60029175e+02	-4.53194561e+01	-1.50195299e+02	-4.53212604e+01	-1.49736644e+02	-1.90884033e+00	-1.72349845e+02
760048857.143	-4.20445703e+00	1.60022576e+02	-4.53265265e+01	-1.50105775e+02	-4.52662134e+01	-1.49974051e+02	-1.91586318e+00	-1.72480178e+02
760334428.571	-4.21068075e+00	1.59998480e+02	-4.53242058e+01	-1.50770869e+02	-4.52577853e+01	-1.50237277e+02	-1.92187760e+00	-1.72624893e+02
760620000	-4.20063785e+00	1.60018016e+02	-4.52818755e+01	-1.50857665e+02	-4.52314543e+01	-1.50351782e+02	-1.92573296e+00	-1.72773179e+02
760905571.429	-4.21672219e+00	1.59977578e+02	-4.52873329e+01	-1.50909572e+02	-4.52259472e+01	-1.50593194e+02	-1.92461683e+00	-1.72921981e+02
761191142.857	-4.21282240e+00	1.59997684e+02	-4.52133090e+01	-1.50860563e+02	-4.51478306e+01	-1.50819081e+02	-1.92555227e+00	-1.73052243e+02
761476714.286	-4.21818179e+00	1.60043991e+02	-4.52147926e+01	-1.51169704e+02	-4.51677172e+01	-1.50998994e+02	-1.93306619e+00	-1.73160087e+02
761762285.714	-4.21660185e+00	1.59999979e+02	-4.51980212e+01	-1.51041507e+02	-4.50692072e+01	-1.51113257e+02	-1.94163775e+00	-1.73293812e+02
762047857.143	-4.22065576e+00	1.60029512e+02	-4.51505982e+01	-1.51565582e+02	-4.50402074e+01	-1.51461097e+02	-1.94637995e+00	-1.73372120e+02
762333428.571	-4.21830275e+00	1.59993082e+02	-4.51292754e+01	-1.51986647e+02	-4.50177884e+01	-1.51639682e+02	-1.95236674e+00	-1.73498654e+02
762619000	-4.22237010e+00	1.59960299e+02	-4.50603117e+01	-1.52385905e+02	-4.49707870e+01	-1.51765079e+02	-1.95411975e+00	-1.73584618e+02
762904571.429	-4.22707825e+00	1.59997340e+02	-4.50357011e+01	-1.52152720e+02	-4.49362928e+01	-1.52026311e+02	-1.95371663e+00	-1.73734276e+02
763190142.857	-4.22698068e+00	1.60026010e+02	-4.49494285e+01	-1.52572574e+02	-4.48967749e+01	-1.52425208e+02	-1.96135264e+00	-1.73908049e+02
763475714.286	-4.22799066e+00	1.59981604e+02	-4.48500164e+01	-1.52594764e+02	-4.48300792e+01	-1.52797106e+02	-1.97261616e+00	-1.74010424e+02
763761285.714	-4.22742868e+00	1.59962535e+02	-4.48471226e+01	-1.53121025e+02	-4.47763728e+01	-1.52883059e+02	-1.97868118e+00	-1.74176274e+02
764046857.143	-4.23154521e+00	1.60045727e+02	-4.48289359e+01	-1.53486711e+02	-4.46957406e+01	-1.53127962e+02	-1.98681146e+00	-1.74393057e+02
764332428.571	-4.23091222e+00	1.60023415e+02	-4.48225098e+01	-1.53937695e+02	-4.46315599e+01	-1.53613924e+02	-1.99428493e+00	-1.74593780e+02
764618000	-4.23588133e+00	1.60030340e+02	-4.47245012e+01	-1.54298898e+02	-4.45788097e+01	-1.54021666e+02	-2.00014284e+00	-1.74716935e+02
764903571.429	-4.22987085e+00	1.59973897e+02	-4.45773928e+01	-1.54808271e+02	-4.45072176e+01	-1.54357590e+02	-2.00329369e+00	-1.74876866e+02
765189142.857	-4.23190353e+00	1.60006183e+02	-4.45634734e+01	-1.55215405e+02	-4.44590957e+01	-1.54728759e+02	-2.01356355e+00	-1.75011081e+02
765474714.286	-4.23502867e+00	1.60012907e+02	-4.44479210e+01	-1.55434063e+02	-4.44002460e+01	-1.55283433e+02	-2.01802418e+00	-1.75144675e+02
765760285.714	-4.23746228e+00	1.59966427e+02	-4.43954712e+01	-1.56340514e+02	-4.43624885e+01	-1.55569572e+02	-2.02050409e+00	-1.75243425e+02
766045857.143	-4.23613375e+00	1.59983104e+02	-4.44408383e+01	-1.56216283e+02	-4.42640621e+01	-1.56148449e+02	-2.02681756e+00	-1.75373825e+02
766331428.571	-4.24229937e+00	1.59935745e+02	-4.43120821e+01	-1.56912122e+02	-4.42081263e+01	-1.56721822e+02	-2.03674291e+00	-1.75464982e+02
766617000	-4.23870538e+00	1.59976663e+02	-4.42639400e+01	-1.57340717e+02	-4.41862151e+01	-1.57180755e+02	-2.04849474e+00	-1.75579932e+02
766902571.429	-4.24582940e+00	1.59987848e+02	-4.42408973e+01	-1.57944375e+02	-4.41333806e+01	-1.57674706e+02	-2.05990044e+00	-1.75757812e+02
767188142.857	-4.24366186e+00	1.60037551e+02	-4.41704921e+01	-1.58560992e+02	-4.40753602e+01	-1.58126755e+02	-2.07266848e+00	-1.75866064e+02
767473714.286	-4.24645167e+00	1.60051708e+02	-4.41021161e+01	-1.59104301e+02	-4.40467841e+01	-1.58521587e+02	-2.07519900e+00	-1.76010230e+02
767759285.714	-4.25060093e+00	1.60047108e+02	-4.40868329e+01	-1.59486102e+02	-4.40142207e+01	-1.59282878e+02	-2.07920634e+00	-1.76189907e+02
768044857.143	-4.25566171e+00	1.59999571e+02	-4.40258957e+01	-1.60247568e+02	-4.39461495e+01	-1.59841828e+02	-2.07823140e+00	-1.76361599e+02
768330428.571	-4.25805051e+00	1.60025051e+02	-4.39824688e+01	-1.60685346e+02	-4.38875311e+01	-1.60519498e+02	-2.08393328e+00	-1.76512518e+02
768616000	-4.26059956e+00	1.59989798e+02	-4.38898237e+01	-1.61524509e+02	-4.38495208e+01	-1.60980040e+02	-2.08856698e+00	-1.76703290e+02
768901571.429	-4.26408668e+00	1.59985332e+02	-4.39604329e+01	-1.62016595e+02	-4.38431371e+01	-1.61535774e+02	-2.09560810e+00	-1.76869568e+02
769187142.857	-4.26427316e+00	1.59990492e+02	-4.38831646e+01	-1.62325386e+02	-4.37833653e+01	-1.62091066e+02	-2.10053544e+00	-1.77048030e+02
769472714.286	-4.26356805e+00	1.60040054e+02	-4.38199251e+01	-1.63367435e+02	-4.37356857e+01	-1.62550239e+02	-2.10602960e+00	-1.77164898e+02
769758285.714	-4.25703227e+00	1.60029708e+02	-4.37734459e+01	-1.63828956e+02	-4.36953272e+01	-1.63132683e+02	-2.11550340e+00	-1.77313123e+02
770043857.143	-4.26587622e+00	1.60014553e+02	-4.37733253e+01	-1.64370678e+02	-4.36653374e+01	-1.63694269e+02	-2.12390805e+00	-1.77446343e+02
770329428.571	-4.26447973e+00	1.59994168e+02	-4.37573433e+01	-1.64934425e+02	-4.36337698e+01	-1.64440289e+02	-2.12978301e+00	-1.77603503e+02
770615000	-4.26747655e+00	1.60012645e+02	-4.35863543e+01	-1.65542432e+02	-4.35885054e+01	-1.64823169e+02	-2.13143394e+00	-1.77761017e+02
770900571.429	-4.26824251e+00	1.60032774e+02	-4.36578079e+01	-1.65905864e+02	-4.35766671e+01	-1.65423153e+02	-2.13470589e+00	-1.77837735e+02
771186142.857	-4.27023284e+00	1.60002802e+02	-4.36450477e+01	-1.66523087e+02	-4.35463023e+01	-1.65911233e+02	-2.14213346e+00	-1.77977034e+02
771471714.286	-4.27320424e+00	1.60016761e+02	-4.36186937e+01	-1.67219258e+02	-4.35212018e+01	-1.66570970e+02	-2.14072042e+00	-1.78065551e+02
771757285.714	-4.27218091e+00	1.60013554e+02	-4.35536703e+01	-1.67830126e+02	-4.34795750e+01	-1.67253291e+02	-2.14320137e+00	-1.78198596e+02
772042857.143	-4.27511294e+00	1.60020220e+02	-4.35572053e+01	-1.68230104e+02	-4.34405791e+01	-1.67507864e+02	-2.14691971e+00	-1.78328594e+02
772328428.571	-4.27866205e+00	1.60058392e+02	-4.34882040e+01	-1.68995974e+02	-4.33896843e+01	-1.68075893e+02	-2.15358684e+00	-1.78516841e+02
772614000	-4.27772248e+00	1.60024944e+02	-4.34593410e+01	-1.69449382e+02	-4.33581256e+01	-1.68623230e+02	-2.15795896e+00	-1.78697108e+02
772899571.429	-4.28199677e+00	1.60050051e+02	-4.34550108e+01	-1.70609461e+02	-4.34330383e+01	-1.69270368e+02	-2.15922193e+00	-1.78877643e+02
773185142.857	-4.28280951e+00	1.60022748e+02	-4.33918870e+01	-1.70301342e+02	-4.33660978e+01	-1.69672956e+02	-2.17223153e+00	-1.79017356e+02
773470714.286	-4.28467466e+00	1.60053303e+02	-4.34072022e+01	-1.71435140e+02	-4.33909164e+01	-1.70586463e+02	-2.17556378e+00	-1.79138030e+02
773756285.714	-4.28148423e+00	1.60045307e+02	-4.33575522e+01	-1.72267957e+02	-4.33259181e+01	-1.70876819e+02	-2.18042749e+00	-1.79286866e+02
774041857.143	-4.28296073e+00	1.60101794e+02	-4.33368736e+01	-1.72462372e+02	-4.33196504e+01	-1.71327170e+02	-2.18992780e+00	-1.79436118e+02
774327428.571	-4.29107399e+00	1.60082424e+02	-4.32850001e+01	-1.73094743e+02	-4.32624605e+01	-1.72343797e+02	-2.19979403e+00	-1.79643581e+02
774613000	-4.29424793e+00	1.60073714e+02	-4.32948688e+01	-1.73557775e+02	-4.32218656e+01	-1.72763155e+02	-2.20478287e+00	-1.79797178e+02
774898571.429	-4.29455922e+00	1.60043864e+02	-4.31752962e+01	-1.74173168e+02	-4.31733898e+01	-1.73676796e+02	-2.21094454e+00	-1.79943076e+02
775184142.857	-4.29446770e+00	1.60089248e+02	-4.32039629e+01	-1.74571657e+02	-4.32052456e+01	-1.74199392e+02	-2.21308144e+00	1.79863250e+02
775469714.286	-4.30078822e+00	1.60078888e+02	-4.31395691e+01	-1.75454002e+02	-4.31297762e+01	-1.74795546e+02	-2.22501830e+00	1.79780841e+02
775755285.714	-4.30496941e+00	1.60096756e+02	-4.30762045e+01	-1.76424162e+02	-4.31068621e+01	-1.75242371e+02	-2.22998530e+00	1.79606402e+02
776040857.143	-4.30344781e+00	1.60085728e+02	-4.30904447e+01	-1.77180291e+02	-4.30632228e+01	-1.75983127e+02	-2.22881885e+00	1.79543129e+02
776326428.571	-4.30935400e+00	1.60118030e+02	-4.31386271e+01	-1.77687922e+02	-4.30873375e+01	-1.76500540e+02	-2.23535258e+00	1.79435289e+02
776612000	-4.31508953e+00	1.60123118e+02	-4.30783454e+01	-1.78202152e+02	-4.30328148e+01	-1.77593556e+02	-2.22958244e+00	1.79357453e+02
776897571.429	-4.31042588e+00	1.60119175e+02	-4.30239087e+01	-1.78762711e+02	-4.29999824e+01	-1.78189459e+02	-2.23540950e+00	1.79214879e+02
777183142.857	-4.30831016e+00	1.60140562e+02	-4.30117798e+01	-1.79644615e+02	-4.29624358e+01	-1.78600155e+02	-2.24722511e+00	1.79114659e+02
777468714.286	-4.31729068e+00	1.60117088e+02	-4.30209180e+01	1.79663267e+02	-4.29658816e+01	-1.79723710e+02	-2.24425084e+00	1.78920875e+02
777754285.714	-4.31835726e+00	1.60132077e+02	-4.29976860e+01	1.78932429e+02	-4.29500376e+01	1.79763833e+02	-2.24555067e+00	1.78712554e+02
778039857.143	-4.31918425e+00	1.60138497e+02	-4.30094497e+01	1.78149631e+02	-4.29609820e+01	1.79623079e+02	-2.25849948e+00	1.78575944e+02
778325428.571	-4.32118511e+00	1.60155676e+02	-4.30095560e+01	1.77511259e+02	-4.29057965e+01	1.78475914e+02	-2.26441254e+00	1.78380349e+02
778611000	-4.32455708e+00	1.60180532e+02	-4.29567633e+01	1.77266462e+02	-4.29276109e+01	1.78076893e+02	-2.27566809e+00	1.78240720e+02
778896571.429	-4.32544439e+00	1.60191276e+02	-4.28485602e+01	1.76588165e+02	-4.28817747e+01	1.77445660e+02	-2.27755996e+00	1.78125742e+02
779182142.857	-4.33340669e+00	1.60203710e+02	-4.29637449e+01	1.75762752e+02	-4.28679938e+01	1.76367556e+02	-2.28691232e+00	1.77950441e+02
779467714.286	-4.33540617e+00	1.60224689e+02	-4.29691137e+01	1.74349153e+02	-4.28772285e+01	1.75846110e+02	-2.28526610e+00	1.77779039e+02
779753285.714	-4.33597513e+00	1.60198824e+02	-4.29060861e+01	1.74186802e+02	-4.28901594e+01	1.75390420e+02	-2.28846290e+00	1.77564158e+02
780038857.143	-4.34173095e+00	1.60210579e+02	-4.29803825e+01	1.73773447e+02	-4.28307224e+01	1.74850060e+02	-2.29046169e+00	1.77381649e+02
780324428.571	-4.33856787e+00	1.60192324e+02	-4.29278456e+01	1.72708290e+02	-4.29057460e+01	1.74226581e+02	-2.30196102e+00	1.77277473e+02
780610000	-4.34028492e+00	1.60224146e+02	-4.29154023e+01	1.72040665e+02	-4.28708409e+01	1.73465036e+02	-2.31153247e+00	1.77111973e+02
780895571.429	-4.33979634e+00	1.60238215e+02	-4.29193716e+01	1.70716519e+02	-4.28699058e+01	1.72254351e+02	-2.31011832e+00	1.76989328e+02
781181142.857	-4.34181940e+00	1.60239169e+02	-4.29687123e+01	1.70665390e+02	-4.28837746e+01	1.72031465e+02	-2.32262795e+00	1.76891602e+02
781466714.286	-4.34801686e+00	1.60255614e+02	-4.29631577e+01	1.69797039e+02	-4.28902551e+01	1.71784863e+02	-2.32860069e+00	1.76756206e+02
781752285.714	-4.34902401e+00	1.60241238e+02	-4.29493063e+01	1.69376149e+02	-4.28396730e+01	1.70742064e+02	-2.33915815e+00	1.76567764e+02
782037857.143	-4.34926740e+00	1.60270325e+02	-4.29396128e+01	1.68975526e+02	-4.29254577e+01	1.69996306e+02	-2.35101779e+00	1.76386739e+02
782323428.571	-4.35000267e+00	1.60293741e+02	-4.30258931e+01	1.68039636e+02	-4.28691638e+01	1.69697122e+02	-2.35790093e+00	1.76261067e+02
782609000	-4.35568438e+00	1.60279861e+02	-4.30366721e+01	1.67607423e+02	-4.29486033e+01	1.69189076e+02	-2.36895741e+00	1.76128267e+02
782894571.429	-4.36343798e+00	1.60266968e+02	-4.30267456e+01	1.67454933e+02	-4.29043547e+01	1.68391808e+02	-2.37440303e+00	1.75928505e+02
783180142.857	-4.36380654e+00	1.60289999e+02	-4.29974235e+01	1.66079111e+02	-4.28753658e+01	1.67605750e+02	-2.38813332e+00	1.75800675e+02
783465714.286	-4.36812504e+00	1.60288421e+02	-4.30543762e+01	1.65963019e+02	-4.29114054e+01	1.67447881e+02	-2.39312120e+00	1.75645427e+02
783751285.714	-4.36857922e+00	1.60293599e+02	-4.30735806e+01	1.65407976e+02	-4.29264833e+01	1.67226260e+02	-2.39687568e+00	1.75473855e+02
784036857.143	-4.36898052e+00	1.60311576e+02	-4.30785326e+01	1.65084854e+02	-4.29770468e+01	1.66080327e+02	-2.40245394e+00	1.75267826e+02
784322428.571	-4.37149959e+00	1.60332937e+02	-4.30631743e+01	1.64408491e+02	-4.29507053e+01	1.65439277e+02	-2.40489600e+00	1.75114449e+02
784608000	-4.37293174e+00	1.60327957e+02	-4.31031298e+01	1.63867152e+02	-4.29753611e+01	1.64679215e+02	-2.41078570e+00	1.74986466e+02
784893571.429	-4.38036872e+00	1.60319683e+02	-4.31573516e+01	1.63584510e+02	-4.30019852e+01	1.64690029e+02	-2.41881906e+00	1.74778282e+02
785179142.857	-4.38057982e+00	1.60344798e+02	-4.31013910e+01	1.63148941e+02	-4.30190373e+01	1.64418501e+02	-2.42915285e+00	1.74647769e+02
785464714.286	-4.38338928e+00	1.60378349e+02	-4.31338283e+01	1.62792202e+02	-4.29367182e+01	1.63707244e+02	-2.42866553e+00	1.74519018e+02
785750285.714	-4.38169788e+00	1.60385539e+02	-4.32011202e+01	1.62153932e+02	-4.29625314e+01	1.63480846e+02	-2.43745540e+00	1.74304397e+02
786035857.143	-4.38877392e+00	1.60387365e+02	-4.31212931e+01	1.61872537e+02	-4.29431719e+01	1.63047868e+02	-2.44380586e+00	1.74158451e+02
786321428.571	-4.38596459e+00	1.60380468e+02	-4.31675878e+01	1.61127647e+02	-4.30239483e+01	1.62206128e+02	-2.45254183e+00	1.73989491e+02
786607000	-4.39254180e+00	1.60387128e+02	-4.31697353e+01	1.60968406e+02	-4.29993405e+01	1.61732808e+02	-2.45698397e+00	1.73848304e+02
786892571.429	-4.39385067e+00	1.60403862e+02	-4.31682066e+01	1.60511867e+02	-4.29783205e+01	1.61073203e+02	-2.47394187e+00	1.73726411e+02
787178142.857	-4.39316113e+00	1.60397326e+02	-4.31453785e+01	1.59783902e+02	-4.29636054e+01	1.60964559e+02	-2.48124260e+00	1.73505583e+02
787463714.286	-4.40060450e+00	1.60440554e+02	-4.31264788e+01	1.59577926e+02	-4.29530714e+01	1.60543370e+02	-2.48715227e+00	1.73296895e+02
787749285.714	-4.39938423e+00	1.60450765e+02	-4.31836582e+01	1.59204352e+02	-4.29954530e+01	1.60507561e+02	-2.49697191e+00	1.73167845e+02
788034857.143	-4.40462104e+00	1.60427747e+02	-4.31342705e+01	1.58891868e+02	-4.29812109e+01	1.59837459e+02	-2.51031787e+00	1.73004874e+02
788320428.571	-4.40247945e+00	1.60436712e+02	-4.31402443e+01	1.58368633e+02	-4.29516526e+01	1.59369604e+02	-2.51076155e+00	1.72849201e+02
788606000	-4.41028048e+00	1.60459452e+02	-4.31529148e+01	1.57851182e+02	-4.30298201e+01	1.58769603e+02	-2.52188592e+00	1.72710023e+02
788891571.429	-4.41209902e+00	1.60429546e+02	-4.31272108e+01	1.57450041e+02	-4.29100524e+01	1.58331157e+02	-2.53165182e+00	1.72562707e+02
789177142.857	-4.41875062e+00	1.60447964e+02	-4.31341385e+01	1.56739104e+02	-4.29175795e+01	1.58297139e+02	-2.53859425e+00	1.72425365e+02
789462714.286	-4.41946289e+00	1.60488903e+02	-4.31459167e+01	1.56416504e+02	-4.29916951e+01	1.57385688e+02	-2.55422304e+00	1.72232801e+02
789748285.714	-4.41982220e+00	1.60499981e+02	-4.31306954e+01	1.55912150e+02	-4.28980403e+01	1.56699374e+02	-2.56778363e+00	1.72115482e+02
790033857.143	-4.42467176e+00	1.60503285e+02	-4.31272834e+01	1.55582709e+02	-4.29491340e+01	1.56420926e+02	-2.58660699e+00	1.71935194e+02
790319428.571	-4.42764043e+00	1.60486689e+02	-4.31322791e+01	1.55028935e+02	-4.29278627e+01	1.55910196e+02	-2.58975668e+00	1.71870234e+02
790605000	-4.43345708e+00	1.60483340e+02	-4.31230993e+01	1.54682481e+02	-4.29235577e+01	1.55101962e+02	-2.60456474e+00	1.71691095e+02
790890571.429	-4.43141474e+00	1.60463800e+02	-4.30955573e+01	1.53937140e+02	-4.28676088e+01	1.54883814e+02	-2.61484391e+00	1.71505962e+02
791176142.857	-4.43361769e+00	1.60465108e+02	-4.30254866e+01	1.53527090e+02	-4.29113421e+01	1.54684725e+02	-2.61135290e+00	1.71335719e+02
791461714.286	-4.43596265e+00	1.60480514e+02	-4.30906815e+01	1.53196644e+02	-4.29211536e+01	1.53783736e+02	-2.62328496e+00	1.71202255e+02
791747285.714	-4.44420131e+00	1.60477965e+02	-4.30658508e+01	1.52954569e+02	-4.28686246e+01	1.53340145e+02	-2.62969386e+00	1.71100251e+02
792032857.143	-4.44888775e+00	1.60509608e+02	-4.30381458e+01	1.52547513e+02	-4.28082531e+01	1.53152223e+02	-2.63952026e+00	1.70920577e+02
792318428.571	-4.45047319e+00	1.60479755e+02	-4.30745351e+01	1.51846720e+02	-4.28873388e+01	1.52406060e+02	-2.64828678e+00	1.70801862e+02
792604000	-4.44666667e+00	1.60476725e+02	-4.30638807e+01	1.51385236e+02	-4.28711558e+01	1.52517009e+02	-2.65514527e+00	1.70625425e+02
792889571.429	-4.44865086e+00	1.60487349e+02	-4.30097070e+01	1.51156956e+02	-4.28562106e+01	1.51769548e+02	-2.67018040e+00	1.70500777e+02
793175142.857	-4.45367540e+00	1.60478364e+02	-4.30613131e+01	1.50539032e+02	-4.28354806e+01	1.51226313e+02	-2.67638135e+00	1.70259480e+02
793460714.286	-4.45957126e+00	1.60479859e+02	-4.30304448e+01	1.50127791e+02	-4.28054430e+01	1.50594248e+02	-2.69056690e+00	1.70122559e+02
793746285.714	-4.45706733e+00	1.60502442e+02	-4.30387163e+01	1.49517618e+02	-4.28411748e+01	1.50123006e+02	-2.69390673e+00	1.69955630e+02
794031857.143	-4.46100033e+00	1.60501552e+02	-4.30159256e+01	1.48903538e+02	-4.27679821e+01	1.49371441e+02	-2.70451588e+00	1.69800415e+02
794317428.571	-4.46270986e+00	1.60519534e+02	-4.29989345e+01	1.48720390e+02	-4.28358770e+01	1.49286303e+02	-2.71143688e+00	1.69669106e+02
794603000	-4.46440723e+00	1.60518462e+02	-4.29710112e+01	1.48118684e+02	-4.28393195e+01	1.48217913e+02	-2.71569967e+00	1.69519346e+02
794888571.429	-4.47291196e+00	1.60492525e+02	-4.29851756e+01	1.47509709e+02	-4.27361036e+01	1.47957609e+02	-2.72348896e+00	1.69393629e+02
795174142.857	-4.47034761e+00	1.60491609e+02	-4.29621503e+01	1.47093847e+02	-4.27822855e+01	1.47750229e+02	-2.72999662e+00	1.69239607e+02
795459714.286	-4.47218355e+00	1.60459458e+02	-4.29591168e+01	1.46598932e+02	-4.27653029e+01	1.46722782e+02	-2.73799103e+00	1.69083694e+02
795745285.714	-4.47771568e+00	1.60476906e+02	-4.29436831e+01	1.45996699e+02	-4.27124371e+01	1.46077694e+02	-2.74157333e+00	1.68939324e+02
796030857.143	-4.47714655e+00	1.60490516e+02	-4.29313790e+01	1.45510032e+02	-4.27566854e+01	1.45636428e+02	-2.75403598e+00	1.68803954e+02
796316428.571	-4.48069592e+00	1.60521888e+02	-4.29191789e+01	1.44876968e+02	-4.27508949e+01	1.45143880e+02	-2.75903780e+00	1.68616512e+02
796602000	-4.48450581e+00	1.60529865e+02	-4.29134791e+01	1.44789421e+02	-4.27814794e+01	1.44865428e+02	-2.75849720e+00	1.68444431e+02
796887571.429	-4.48484820e+00	1.60526426e+02	-4.28481803e+01	1.44084507e+02	-4.27249652e+01	1.44239964e+02	-2.77299870e+00	1.68262127e+02
797173142.857	-4.48954449e+00	1.60563882e+02	-4.28741523e+01	1.43903399e+02	-4.26948920e+01	1.43686108e+02	-2.78095797e+00	1.68095015e+02
797458714.286	-4.49028891e+00	1.60544996e+02	-4.28978624e+01	1.43079801e+02	-4.27836115e+01	1.42936798e+02	-2.78780889e+00	1.67926187e+02
797744285.714	-4.48802092e+00	1.60537851e+02	-4.28655132e+01	1.42699009e+02	-4.27784535e+01	1.43063291e+02	-2.79827624e+00	1.67749031e+02
798029857.143	-4.49623581e+00	1.60539768e+02	-4.28589275e+01	1.42392059e+02	-4.26932760e+01	1.42364217e+02	-2.79889259e+00	1.67630762e+02
798315428.571	-4.50065235e+00	1.60532004e+02	-4.28599236e+01	1.41198330e+02	-4.27106371e+01	1.41839689e+02	-2.81182162e+00	1.67457758e+02
798601000	-4.50018984e+00	1.60521281e+02	-4.28967287e+01	1.41131497e+02	-4.27199240e+01	1.41070701e+02	-2.81232339e+00	1.67329125e+02
798886571.429	-4.49854416e+00	1.60540947e+02	-4.28857173e+01	1.40708614e+02	-4.26741369e+01	1.41118053e+02	-2.81843394e+00	1.67158497e+02
799172142.857	-4.50089750e+00	1.60556103e+02	-4.28191756e+01	1.40368416e+02	-4.26862645e+01	1.39730527e+02	-2.81640487e+00	1.67010349e+02
799457714.286	-4.50073686e+00	1.60556811e+02	-4.28286441e+01	1.39650180e+02	-4.27490492e+01	1.39813496e+02	-2.82618195e+00	1.66779693e+02
799743285.714	-4.50686144e+00	1.60583835e+02	-4.28264558e+01	1.39348496e+02	-4.26956896e+01	1.38790232e+02	-2.83418563e+00	1.66623170e+02
800028857.143	-4.50758331e+00	1.60572417e+02	-4.28802475e+01	1.38360538e+02	-4.27091103e+01	1.37951005e+02	-2.84639056e+00	1.66431433e+02
800314428.571	-4.50779335e+00	1.60615007e+02	-4.28331745e+01	1.37840859e+02	-4.26294250e+01	1.37910429e+02	-2.85490246e+00	1.66283754e+02
800600000	-4.51268351e+00	1.60586632e+02	-4.28251835e+01	1.37457108e+02	-4.26840657e+01	1.36903997e+02	-2.85833112e+00	1.66141982e+02
800885571.429	-4.50746055e+00	1.60581116e+02	-4.28129777e+01	1.36774301e+02	-4.27101522e+01	1.36358323e+02	-2.86905026e+00	1.65945875e+02
801171142.857	-4.51464601e+00	1.60554376e+02	-4.28049473e+01	1.36281375e+02	-4.26930069e+01	1.36123485e+02	-2.87683582e+00	1.65756175e+02
801456714.286	-4.50798403e+00	1.60565187e+02	-4.28301056e+01	1.35699042e+02	-4.26797566e+01	1.35581719e+02	-2.88016972e+00	1.65593815e+02
801742285.714	-4.51545359e+00	1.60550405e+02	-4.28196918e+01	1.35310669e+02	-4.27231508e+01	1.35236708e+02	-2.89228467e+00	1.65427769e+02
802027857.143	-4.51539239e+00	1.60577450e+02	-4.28453860e+01	1.34485798e+02	-4.27361742e+01	1.34735926e+02	-2.89070827e+00	1.65272193e+02
802313428.571	-4.51946322e+00	1.60555597e+02	-4.27855717e+01	1.34526743e+02	-4.27169252e+01	1.34116160e+02	-2.90225927e+00	1.65091676e+02
802599000	-4.52280995e+00	1.60554225e+02	-4.28894314e+01	1.33840758e+02	-4.26512474e+01	1.33268376e+02	-2.90228894e+00	1.64901931e+02
802884571.429	-4.52143608e+00	1.60571069e+02	-4.28280094e+01	1.33200518e+02	-4.26847932e+01	1.33164690e+02	-2.90468000e+00	1.64727989e+02
803170142.857	-4.52134968e+00	1.60561895e+02	-4.28582982e+01	1.32417203e+02	-4.26901358e+01	1.32503315e+02	-2.92147346e+00	1.64565845e+02
803455714.286	-4.52102046e+00	1.60572762e+02	-4.28112768e+01	1.32455257e+02	-4.27130457e+01	1.31488363e+02	-2.93248821e+00	1.64404777e+02
803741285.714	-4.52264366e+00	1.60573152e+02	-4.28084767e+01	1.31733831e+02	-4.26870004e+01	1.31174764e+02	-2.94048979e+00	1.64274066e+02
804026857.143	-4.52413387e+00	1.60621436e+02	-4.27896797e+01	1.31371215e+02	-4.26964274e+01	1.30758843e+02	-2.94507899e+00	1.64073737e+02
804312428.571	-4.52851622e+00	1.60595010e+02	-4.28205079e+01	1.30769908e+02	-4.27567622e+01	1.30003838e+02	-2.94955923e+00	1.63925053e+02
804598000	-4.53077194e+00	1.60588800e+02	-4.28191393e+01	1.30251642e+02	-4.27155678e+01	1.29684015e+02	-2.96269641e+00	1.63735132e+02
804883571.429	-4.53609887e+00	1.60579746e+02	-4.27958312e+01	1.29615801e+02	-4.27269036e+01	1.29030823e+02	-2.96624810e+00	1.63606155e+02
805169142.857	-4.53461047e+00	1.60561065e+02	-4.27969204e+01	1.29206937e+02	-4.27124238e+01	1.28679891e+02	-2.97762473e+00	1.63457069e+02
805454714.286	-4.52721295e+00	1.60643892e+02	-4.28152949e+01	1.28817236e+02	-4.27199646e+01	1.28391161e+02	-2.98895762e+00	1.63338221e+02
805740285.714	-4.53002683e+00	1.60621506e+02	-4.28163735e+01	1.28154840e+02	-4.27593382e+01	1.27680652e+02	-2.99940436e+00	1.63107541e+02
806025857.143	-4.53767837e+00	1.60649702e+02	-4.28449925e+01	1.27545366e+02	-4.27337760e+01	1.27391715e+02	-3.00866105e+00	1.62944000e+02
806311428.571	-4.54264502e+00	1.60633295e+02	-4.28045454e+01	1.27110308e+02	-4.28238566e+01	1.26636263e+02	-3.01392081e+00	1.62781607e+02
806597000	-4.54255538e+00	1.60659141e+02	-4.27755837e+01	1.26619994e+02	-4.28030303e+01	1.25800344e+02	-3.02122827e+00	1.62631517e+02
806882571.429	-4.54374230e+00	1.60687046e+02	-4.28378538e+01	1.26177323e+02	-4.27891139e+01	1.25532036e+02	-3.03718864e+00	1.62496626e+02
807168142.857	-4.54085566e+00	1.60697358e+02	-4.28366653e+01	1.25286492e+02	-4.27662173e+01	1.25317577e+02	-3.05281414e+00	1.62284604e+02
807453714.286	-4.53740664e+00	1.60742295e+02	-4.28591547e+01	1.25063196e+02	-4.27948406e+01	1.24673616e+02	-3.05458212e+00	1.62170146e+02
807739285.714	-4.54348190e+00	1.60772889e+02	-4.28577520e+01	1.24812753e+02	-4.28588436e+01	1.24281273e+02	-3.07195993e+00	1.61945452e+02
808024857.143	-4.54908842e+00	1.60750107e+02	-4.28866956e+01	1.24112204e+02	-4.28671144e+01	1.23778291e+02	-3.09395778e+00	1.61752622e+02
808310428.571	-4.55060189e+00	1.60743032e+02	-4.28655384e+01	1.23672512e+02	-4.28878375e+01	1.23230848e+02	-3.10018730e+00	1.61632023e+02
808596000	-4.54364571e+00	1.60751660e+02	-4.28926458e+01	1.23329284e+02	-4.28199238e+01	1.22649709e+02	-3.11749802e+00	1.61500995e+02
808881571.429	-4.54910396e+00	1.60780285e+02	-4.28632666e+01	1.23040320e+02	-4.28864178e+01	1.22489764e+02	-3.12448774e+00	1.61368235e+02
809167142.857	-4.54758197e+00	1.60784909e+02	-4.28869037e+01	1.22540826e+02	-4.28923632e+01	1.22314975e+02	-3.13340644e+00	1.61263372e+02
809452714.286	-4.55530722e+00	1.60787412e+02	-4.28892439e+01	1.22181209e+02	-4.29195878e+01	1.21838083e+02	-3.14257712e+00	1.61092985e+02
809738285.714	-4.56112957e+00	1.60860044e+02	-4.29103422e+01	1.21869526e+02	-4.28973243e+01	1.21444140e+02	-3.15806763e+00	1.60979482e+02
810023857.143	-4.55703122e+00	1.60860512e+02	-4.28861429e+01	1.21513363e+02	-4.29162892e+01	1.20859635e+02	-3.16254617e+00	1.60857123e+02
810309428.571	-4.56307340e+00	1.60898048e+02	-4.28842289e+01	1.21109037e+02	-4.28851199e+01	1.20840764e+02	-3.17367336e+00	1.60721147e+02
810595000	-4.56904934e+00	1.60913386e+02	-4.28711531e+01	1.20664600e+02	-4.29090917e+01	1.20400033e+02	-3.18237331e+00	1.60594213e+02
810880571.429	-4.56913878e+00	1.60953563e+02	-4.28495552e+01	1.20352646e+02	-4.28843968e+01	1.19860247e+02	-3.18342842e+00	1.60457876e+02
811166142.857	-4.57977969e+00	1.60954246e+02	-4.28583479e+01	1.19882532e+02	-4.28749629e+01	1.19523531e+02	-3.19056677e+00	1.60371429e+02
811451714.286	-4.57310935e+00	1.60999500e+02	-4.28442824e+01	1.19439161e+02	-4.29021546e+01	1.18966266e+02	-3.20289201e+00	1.60239628e+02
811737285.714	-4.57178637e+00	1.60981361e+02	-4.28260066e+01	1.19040569e+02	-4.29031250e+01	1.18366284e+02	-3.21458075e+00	1.60121172e+02
812022857.143	-4.57374934e+00	1.60970623e+02	-4.28198595e+01	1.18540621e+02	-4.28759790e+01	1.18079621e+02	-3.22424936e+00	1.59966735e+02
812308428.571	-4.57900535e+00	1.60962835e+02	-4.27868360e+01	1.18063129e+02	-4.29016662e+01	1.17293442e+02	-3.23275906e+00	1.59847293e+02
812594000	-4.57930034e+00	1.61006594e+02	-4.27664505e+01	1.17604138e+02	-4.28575883e+01	1.16965707e+02	-3.24139573e+00	1.59739145e+02
812879571.429	-4.58112165e+00	1.61000195e+02	-4.27656333e+01	1.17148293e+02	-4.28412061e+01	1.16903359e+02	-3.25550206e+00	1.59608660e+02
813165142.857	-4.58652081e+00	1.61015565e+02	-4.27599421e+01	1.16755910e+02	-4.28057585e+01	1.16231605e+02	-3.27114073e+00	1.59499527e+02
813450714.286	-4.59180745e+00	1.61038609e+02	-4.27305207e+01	1.16164296e+02	-4.28043215e+01	1.15842449e+02	-3.27253279e+00	1.59364799e+02
813736285.714	-4.59546864e+00	1.61012696e+02	-4.27248567e+01	1.15591599e+02	-4.28396352e+01	1.15291307e+02	-3.28239253e+00	1.59238387e+02
814021857.143	-4.59771560e+00	1.61042436e+02	-4.27002833e+01	1.15083375e+02	-4.27786363e+01	1.14625245e+02	-3.28711634e+00	1.59158490e+02
814307428.571	-4.59179475e+00	1.61040811e+02	-4.26827656e+01	1.14758866e+02	-4.28251997e+01	1.14481502e+02	-3.30058111e+00	1.59047598e+02
814593000	-4.59964435e+00	1.61083728e+02	-4.26854100e+01	1.14213841e+02	-4.28209397e+01	1.14092455e+02	-3.30429650e+00	1.58892850e+02
814878571.429	-4.59505445e+00	1.61084441e+02	-4.26513994e+01	1.13684642e+02	-4.27376422e+01	1.13397737e+02	-3.30887661e+00	1.58839618e+02
815164142.857	-4.59778804e+00	1.61108374e+02	-4.26429089e+01	1.13244368e+02	-4.27958195e+01	1.13465894e+02	-3.32265223e+00	1.58742737e+02
815449714.286	-4.59793998e+00	1.61091228e+02	-4.26186295e+01	1.12675793e+02	-4.27798288e+01	1.12453346e+02	-3.32821250e+00	1.58612338e+02
815735285.714	-4.60436200e+00	1.61104208e+02	-4.26267573e+01	1.12036490e+02	-4.27919435e+01	1.12252574e+02	-3.33446596e+00	1.58485789e+02
816020857.143	-4.60029008e+00	1.61133805e+02	-4.26009159e+01	1.11394016e+02	-4.28124085e+01	1.11869409e+02	-3.34625947e+00	1.58401920e+02
816306428.571	-4.61207665e+00	1.61094040e+02	-4.26087325e+01	1.10701266e+02	-4.27830176e+01	1.11162970e+02	-3.35437066e+00	1.58335451e+02
816592000	-4.61455903e+00	1.61162540e+02	-4.25662812e+01	1.10463224e+02	-4.28458124e+01	1.10935184e+02	-3.36644032e+00	1.58249581e+02
816877571.429	-4.61139556e+00	1.61162168e+02	-4.25833071e+01	1.09888881e+02	-4.27748573e+01	1.10109135e+02	-3.37769822e+00	1.58191677e+02
817163142.857	-4.61355127e+00	1.61142392e+02	-4.25846791e+01	1.09425347e+02	-4.27401686e+01	1.10215610e+02	-3.39138523e+00	1.58098130e+02
817448714.286	-4.61041658e+00	1.61166427e+02	-4.25637480e+01	1.08791175e+02	-4.27071303e+01	1.09262161e+02	-3.40022747e+00	1.57988001e+02
817734285.714	-4.61063069e+00	1.61173543e+02	-4.25710961e+01	1.08179327e+02	-4.27582233e+01	1.08759778e+02	-3.41428009e+00	1.57891333e+02
818019857.143	-4.61729481e+00	1.61183402e+02	-4.25549519e+01	1.07534900e+02	-4.27126983e+01	1.08191597e+02	-3.42092403e+00	1.57680091e+02
818305428.571	-4.61824327e+00	1.61207298e+02	-4.25614367e+01	1.06890333e+02	-4.26940118e+01	1.07665076e+02	-3.42831780e+00	1.57530237e+02
818591000	-4.62110222e+00	1.61235760e+02	-4.25507930e+01	1.06396468e+02	-4.27512203e+01	1.07331688e+02	-3.44073841e+00	1.57386591e+02
818876571.429	-4.62303051e+00	1.61210959e+02	-4.25628339e+01	1.05796162e+02	-4.27338973e+01	1.06404916e+02	-3.44521830e+00	1.57267953e+02
819162142.857	-4.62545407e+00	1.61246764e+02	-4.25868458e+01	1.05335617e+02	-4.27384362e+01	1.06218900e+02	-3.45578752e+00	1.57152589e+02
819447714.286	-4.62840206e+00	1.61216221e+02	-4.25408054e+01	1.04964501e+02	-4.27397150e+01	1.05701060e+02	-3.46436009e+00	1.56995849e+02
819733285.714	-4.62949094e+00	1.61238226e+02	-4.25666300e+01	1.04019841e+02	-4.27317009e+01	1.05216792e+02	-3.47624879e+00	1.56844441e+02
820018857.143	-4.62805272e+00	1.61271851e+02	-4.25803115e+01	1.03482153e+02	-4.27598670e+01	1.04721304e+02	-3.48169481e+00	1.56768684e+02
820304428.571	-4.63263922e+00	1.61281201e+02	-4.25611085e+01	1.03135789e+02	-4.27675619e+01	1.04180198e+02	-3.48598806e+00	1.56643296e+02
820590000	-4.62963016e+00	1.61296257e+02	-4.26037036e+01	1.02346075e+02	-4.27777155e+01	1.04190888e+02	-3.50096457e+00	1.56572205e+02
820875571.429	-4.63343265e+00	1.61310312e+02	-4.26200061e+01	1.02047269e+02	-4.27708314e+01	1.03264124e+02	-3.50385822e+00	1.56450470e+02
821161142.857	-4.64140680e+00	1.61307191e+02	-4.26445626e+01	1.01606003e+02	-4.27554613e+01	1.02972441e+02	-3.51661554e+00	1.56344434e+02
821446714.286	-4.64260310e+00	1.61273797e+02	-4.26297713e+01	1.01100845e+02	-4.28229214e+01	1.02467166e+02	-3.52927449e+00	1.56222888e+02
821732285.714	-4.64472157e+00	1.61310307e+02	-4.26582040e+01	1.00532222e+02	-4.27901023e+01	1.01925137e+02	-3.54630647e+00	1.56117888e+02
822017857.143	-4.64834290e+00	1.61338046e+02	-4.26693692e+01	1.00117861e+02	-4.28746913e+01	1.01635302e+02	-3.55227360e+00	1.55945010e+02
822303428.571	-4.64943355e+00	1.61359682e+02	-4.26840242e+01	9.95968272e+01	-4.28284637e+01	1.01295778e+02	-3.55822790e+00	1.55825070e+02
822589000	-4.65206453e+00	1.61410940e+02	-4.27219157e+01	9.93421777e+01	-4.28932032e+01	1.00508124e+02	-3.56880232e+00	1.55725256e+02
822874571.429	-4.65371363e+00	1.61399234e+02	-4.26932241e+01	9.89144685e+01	-4.29081246e+01	1.00270974e+02	-3.58159584e+00	1.55615814e+02
823160142.857	-4.65070039e+00	1.61404850e+02	-4.26965679e+01	9.83129331e+01	-4.28688700e+01	1.00054146e+02	-3.59179219e+00	1.55469929e+02
823445714.286	-4.65368150e+00	1.61416884e+02	-4.27138356e+01	9.79690624e+01	-4.29331299e+01	9.95524255e+01	-3.60474418e+00	1.55363980e+02
823731285.714	-4.65663966e+00	1.61389185e+02	-4.27512461e+01	9.75016574e+01	-4.28866426e+01	9.92152190e+01	-3.62073306e+00	1.55249132e+02
824016857.143	-4.65338512e+00	1.61468109e+02	-4.27240687e+01	9.71870148e+01	-4.29022985e+01	9.87619706e+01	-3.63110467e+00	1.55142390e+02
824302428.571	-4.65771963e+00	1.61445853e+02	-4.27418279e+01	9.68633859e+01	-4.28752274e+01	9.87243244e+01	-3.64063539e+00	1.55030332e+02
824588000	-4.66061202e+00	1.61442549e+02	-4.27449077e+01	9.64117984e+01	-4.28782991e+01	9.81575863e+01	-3.64654106e+00	1.54935326e+02
824873571.429	-4.66699300e+00	1.61467937e+02	-4.27163436e+01	9.60604611e+01	-4.28544088e+01	9.76888119e+01	-3.65631302e+00	1.54818061e+02
825159142.857	-4.66708151e+00	1.61473121e+02	-4.27045651e+01	9.56311477e+01	-4.28564830e+01	9.77590021e+01	-3.67558951e+00	1.54716159e+02
825444714.286	-4.66705590e+00	1.61488534e+02	-4.27144759e+01	9.52882930e+01	-4.28689013e+01	9.70466588e+01	-3.68387400e+00	1.54606849e+02
825730285.714	-4.67217079e+00	1.61509246e+02	-4.27048576e+01	9.49181216e+01	-4.28147695e+01	9.72023095e+01	-3.69354026e+00	1.54432060e+02
826015857.143	-4.67509722e+00	1.61522275e+02	-4.27207690e+01	9.43816094e+01	-4.27904031e+01	9.61621898e+01	-3.70935942e+00	1.54339989e+02
826301428.571	-4.67339160e+00	1.61542262e+02	-4.26929076e+01	9.40131469e+01	-4.27445356e+01	9.60772111e+01	-3.71691334e+00	1.54192495e+02
826587000	-4.68220859e+00	1.61565574e+02	-4.26774730e+01	9.37370294e+01	-4.28024590e+01	9.60063838e+01	-3.73402435e+00	1.54063420e+02
826872571.429	-4.68239270e+00	1.61533710e+02	-4.26784481e+01	9.30803071e+01	-4.28024957e+01	9.50021314e+01	-3.74815944e+00	1.53959881e+02
827158142.857	-4.68495153e+00	1.61565565e+02	-4.26404880e+01	9.27741794e+01	-4.27633470e+01	9.47462745e+01	-3.75750773e+00	1.53853953e+02
827443714.286	-4.69003244e+00	1.61596864e+02	-4.26146082e+01	9.22827195e+01	-4.27066535e+01	9.47721601e+01	-3.77884223e+00	1.53674099e+02
827729285.714	-4.69118779e+00	1.61642003e+02	-4.26091445e+01	9.19178565e+01	-4.26989832e+01	9.43709181e+01	-3.78639235e+00	1.53594479e+02
828014857.143	-4.68735678e+00	1.61633808e+02	-4.26025505e+01	9.15624553e+01	-4.26442749e+01	9.34131831e+01	-3.81106559e+00	1.53460680e+02
828300428.571	-4.69389658e+00	1.61629772e+02	-4.25508857e+01	9.09316417e+01	-4.26794285e+01	9.35683667e+01	-3.81865679e+00	1.53361927e+02
828586000	-4.70202971e+00	1.61633823e+02	-4.25675175e+01	9.07238090e+01	-4.26387516e+01	9.30629615e+01	-3.82647237e+00	1.53289908e+02
828871571.429	-4.69707071e+00	1.61622144e+02	-4.25502341e+01	9.00235235e+01	-4.26567107e+01	9.26294579e+01	-3.84440096e+00	1.53139263e+02
829157142.857	-4.70660767e+00	1.61661314e+02	-4.25312613e+01	8.95520941e+01	-4.26607969e+01	9.19804392e+01	-3.86676440e+00	1.53039945e+02
829442714.286	-4.70653980e+00	1.61708979e+02	-4.25233022e+01	8.91052639e+01	-4.25859078e+01	9.12779671e+01	-3.87403152e+00	1.52936437e+02
829728285.714	-4.70238951e+00	1.61693360e+02	-4.25027042e+01	8.86007499e+01	-4.25893865e+01	9.13200447e+01	-3.89031268e+00	1.52851019e+02
830013857.143	-4.71285460e+00	1.61729190e+02	-4.24854565e+01	8.81282744e+01	-4.25195239e+01	9.02227775e+01	-3.90636240e+00	1.52733077e+02
830299428.571	-4.70889513e+00	1.61729042e+02	-4.24715129e+01	8.74229986e+01	-4.25352122e+01	8.97148308e+01	-3.91342534e+00	1.52769042e+02
830585000	-4.70726414e+00	1.61723163e+02	-4.24468261e+01	8.66866912e+01	-4.24962780e+01	8.92713784e+01	-3.92669223e+00	1.52763526e+02
830870571.429	-4.70639201e+00	1.61763715e+02	-4.24366452e+01	8.61169852e+01	-4.24962103e+01	8.89084963e+01	-3.94039839e+00	1.52627499e+02
831156142.857	-4.70263324e+00	1.61762468e+02	-4.24541815e+01	8.57022983e+01	-4.24977063e+01	8.84566130e+01	-3.95765064e+00	1.52603809e+02
831441714.286	-4.70868854e+00	1.61767411e+02	-4.24292527e+01	8.50855299e+01	-4.24987905e+01	8.77586312e+01	-3.96641658e+00	1.52545317e+02
831727285.714	-4.71440604e+00	1.61786285e+02	-4.24246451e+01	8.43257098e+01	-4.24880736e+01	8.73751506e+01	-3.97942258e+00	1.52559518e+02
832012857.143	-4.71893007e+00	1.61797582e+02	-4.24105184e+01	8.40887387e+01	-4.24613112e+01	8.61450590e+01	-3.99839875e+00	1.52458007e+02
832298428.571	-4.72024499e+00	1.61804195e+02	-4.24239933e+01	8.33691410e+01	-4.24336177e+01	8.61168943e+01	-4.00749436e+00	1.52347891e+02
832584000	-4.72384754e+00	1.61837373e+02	-4.24277033e+01	8.28404072e+01	-4.24486836e+01	8.56107198e+01	-4.01891402e+00	1.52273082e+02
832869571.429	-4.72323303e+00	1.61867794e+02	-4.24343703e+01	8.23399046e+01	-4.24707305e+01	8.49078577e+01	-4.04326712e+00	1.52211740e+02
833155142.857	-4.72839269e+00	1.61887960e+02	-4.24163779e+01	8.18222684e+01	-4.24835334e+01	8.39680878e+01	-4.05383687e+00	1.52153781e+02
833440714.286	-4.73078878e+00	1.61869342e+02	-4.24485879e+01	8.13696506e+01	-4.25053001e+01	8.42284786e+01	-4.07287073e+00	1.52052783e+02
833726285.714	-4.72934903e+00	1.61883810e+02	-4.24310803e+01	8.07952235e+01	-4.24665966e+01	8.34890823e+01	-4.08672243e+00	1.52038006e+02
834011857.143	-4.72739624e+00	1.61930995e+02	-4.24485733e+01	8.03056778e+01	-4.24927951e+01	8.37040914e+01	-4.09230805e+00	1.52021357e+02
834297428.571	-4.73683418e+00	1.61922862e+02	-4.24331728e+01	7.98139083e+01	-4.24734006e+01	8.27454696e+01	-4.10058070e+00	1.52005402e+02
834583000	-4.74537066e+00	1.61915935e+02	-4.24683305e+01	7.92385444e+01	-4.24905971e+01	8.24151520e+01	-4.11363973e+00	1.51889010e+02
834868571.429	-4.74776237e+00	1.61916030e+02	-4.24731249e+01	7.89068512e+01	-4.24423912e+01	8.18451936e+01	-4.11854084e+00	1.51841884e+02
835154142.857	-4.74611343e+00	1.61959776e+02	-4.24546362e+01	7.83618477e+01	-4.24378649e+01	8.16052814e+01	-4.13264157e+00	1.51735870e+02
835439714.286	-4.74543359e+00	1.61983633e+02	-4.24663164e+01	7.79829050e+01	-4.24490799e+01	8.12728046e+01	-4.13756437e+00	1.51703985e+02
835725285.714	-4.75554580e+00	1.61960793e+02	-4.24550378e+01	7.75405263e+01	-4.24319152e+01	8.06197033e+01	-4.15253040e+00	1.51684208e+02
836010857.143	-4.75371545e+00	1.61983183e+02	-4.24554755e+01	7.70916477e+01	-4.23677847e+01	8.06045518e+01	-4.16056290e+00	1.51563021e+02
836296428.571	-4.75982904e+00	1.61999539e+02	-4.24419459e+01	7.65860921e+01	-4.23989646e+01	8.00829428e+01	-4.16552071e+00	1.51564384e+02
836582000	-4.76260980e+00	1.62018558e+02	-4.24366363e+01	7.62862169e+01	-4.24112127e+01	7.93651842e+01	-4.17868307e+00	1.51510399e+02
836867571.429	-4.76780116e+00	1.62068254e+02	-4.24442935e+01	7.57091407e+01	-4.24025054e+01	7.92035075e+01	-4.18052713e+00	1.51418101e+02
837153142.857	-4.76952087e+00	1.62062009e+02	-4.24092957e+01	7.52229797e+01	-4.23381961e+01	7.85086491e+01	-4.18653007e+00	1.51415081e+02
837438714.286	-4.77451699e+00	1.62053218e+02	-4.23843073e+01	7.48455826e+01	-4.22812138e+01	7.78786201e+01	-4.19102367e+00	1.51341645e+02
837724285.714	-4.76835323e+00	1.62074857e+02	-4.23965904e+01	7.42962718e+01	-4.23024496e+01	7.76345459e+01	-4.19450610e+00	1.51276590e+02
838009857.143	-4.76542905e+00	1.62060144e+02	-4.23597363e+01	7.38680452e+01	-4.23001539e+01	7.69357867e+01	-4.19693510e+00	1.51147439e+02
838295428.571	-4.77484665e+00	1.62078167e+02	-4.23510125e+01	7.33742994e+01	-4.22394729e+01	7.63701819e+01	-4.21684296e+00	1.51090210e+02
838581000	-4.77737276e+00	1.62086273e+02	-4.23189637e+01	7.27449792e+01	-4.23059721e+01	7.63153095e+01	-4.21813098e+00	1.51001516e+02
838866571.429	-4.78477445e+00	1.62135057e+02	-4.23266563e+01	7.22841758e+01	-4.21981153e+01	7.55385936e+01	-4.22396355e+00	1.50920008e+02
839152142.857	-4.78580156e+00	1.62139359e+02	-4.23163752e+01	7.17336557e+01	-4.22070203e+01	7.53720816e+01	-4.22552904e+00	1.50892554e+02
839437714.286	-4.79178037e+00	1.62169330e+02	-4.22968151e+01	7.12915948e+01	-4.21480164e+01	7.42892146e+01	-4.22433242e+00	1.50751771e+02
839723285.714	-4.79006409e+00	1.62172912e+02	-4.22673196e+01	7.07064526e+01	-4.21636230e+01	7.40698118e+01	-4.23505245e+00	1.50727821e+02
840008857.143	-4.79545379e+00	1.62178889e+02	-4.22406580e+01	7.02450924e+01	-4.22102956e+01	7.37964517e+01	-4.23950412e+00	1.50645442e+02
840294428.571	-4.79255400e+00	1.62182389e+02	-4.22455424e+01	6.96776690e+01	-4.21006263e+01	7.31287875e+01	-4.24011094e+00	1.50489436e+02
840580000	-4.79570498e+00	1.62178448e+02	-4.22418131e+01	6.91290574e+01	-4.20749708e+01	7.25613146e+01	-4.24808316e+00	1.50390714e+02
840865571.429	-4.80011823e+00	1.62210905e+02	-4.22273842e+01	6.85485957e+01	-4.20298864e+01	7.17289580e+01	-4.26003952e+00	1.50324668e+02
841151142.857	-4.80616798e+00	1.62232427e+02	-4.21944673e+01	6.80308119e+01	-4.20735549e+01	7.15187870e+01	-4.26145544e+00	1.50211899e+02
841436714.286	-4.80467441e+00	1.62233943e+02	-4.21809192e+01	6.74380165e+01	-4.20269862e+01	7.09581860e+01	-4.25589890e+00	1.50056184e+02
841722285.714	-4.81019950e+00	1.62240661e+02	-4.21894212e+01	6.67249912e+01	-4.20162738e+01	7.03471388e+01	-4.26827395e+00	1.49979022e+02
842007857.143	-4.80921542e+00	1.62236732e+02	-4.21613574e+01	6.62990827e+01	-4.20051652e+01	6.96586454e+01	-4.26862876e+00	1.49825087e+02
842293428.571	-4.81222946e+00	1.62268129e+02	-4.21625151e+01	6.56978255e+01	-4.20101458e+01	6.92987184e+01	-4.27357929e+00	1.49740551e+02
842579000	-4.81822079e+00	1.62261560e+02	-4.21451617e+01	6.50405403e+01	-4.19292496e+01	6.86373144e+01	-4.28303217e+00	1.49633856e+02
842864571.429	-4.82259399e+00	1.62281177e+02	-4.21125461e+01	6.46172416e+01	-4.18951502e+01	6.76196128e+01	-4.29142439e+00	1.49554028e+02
843150142.857	-4.82243701e+00	1.62316523e+02	-4.21133022e+01	6.38508759e+01	-4.19356987e+01	6.70742960e+01	-4.29527124e+00	1.49444455e+02
843435714.286	-4.82274756e+00	1.62285490e+02	-4.20658589e+01	6.32436893e+01	-4.19155278e+01	6.63868823e+01	-4.29542054e+00	1.49332588e+02
843721285.714	-4.82746252e+00	1.62356617e+02	-4.20714886e+01	6.26065809e+01	-4.18984102e+01	6.56949559e+01	-4.29411829e+00	1.49184917e+02
844006857.143	-4.83029756e+00	1.62380580e+02	-4.20702472e+01	6.20174245e+01	-4.18515575e+01	6.55837300e+01	-4.30715685e+00	1.49089859e+02
844292428.571	-4.82884597e+00	1.62371495e+02	-4.20553461e+01	6.13482341e+01	-4.18845875e+01	6.44685831e+01	-4.30107721e+00	1.48970173e+02
844578000	-4.82834603e+00	1.62394759e+02	-4.20682999e+01	6.05841871e+01	-4.18047667e+01	6.37377232e+01	-4.31593778e+00	1.48815337e+02
844863571.429	-4.83487447e+00	1.62380221e+02	-4.20555475e+01	6.00544966e+01	-4.18130205e+01	6.30214762e+01	-4.32498077e+00	1.48708608e+02
845149142.857	-4.84165034e+00	1.62376827e+02	-4.20485086e+01	5.92861327e+01	-4.18479516e+01	6.23582732e+01	-4.33073394e+00	1.48593311e+02
845434714.286	-4.84319124e+00	1.62383611e+02	-4.20440746e+01	5.87287493e+01	-4.17699107e+01	6.20002167e+01	-4.33995970e+00	1.48529446e+02
845720285.714	-4.84664700e+00	1.62370325e+02	-4.20661139e+01	5.79202816e+01	-4.18175103e+01	6.08665744e+01	-4.34433890e+00	1.48409668e+02
846005857.143	-4.84939880e+00	1.62425579e+02	-4.20565724e+01	5.71578749e+01	-4.18628685e+01	6.04701930e+01	-4.35015238e+00	1.48290678e+02
846291428.571	-4.85098559e+00	1.62462456e+02	-4.20392636e+01	5.66173695e+01	-4.18582925e+01	5.94971533e+01	-4.36490947e+00	1.48189824e+02
846577000	-4.85483010e+00	1.62425967e+02	-4.20921305e+01	5.56548038e+01	-4.18236013e+01	5.87845538e+01	-4.36872406e+00	1.48122342e+02
846862571.429	-4.85753894e+00	1.62426002e+02	-4.20842293e+01	5.51713327e+01	-4.18552719e+01	5.82456362e+01	-4.37711308e+00	1.47923551e+02
847148142.857	-4.86301723e+00	1.62440755e+02	-4.20985847e+01	5.44300638e+01	-4.18262545e+01	5.72972049e+01	-4.38410052e+00	1.47881598e+02
847433714.286	-4.86705095e+00	1.62433391e+02	-4.21216321e+01	5.39079371e+01	-4.18654836e+01	5.70700846e+01	-4.39667099e+00	1.47760481e+02
847719285.714	-4.86494295e+00	1.62431571e+02	-4.21278538e+01	5.32507937e+01	-4.19446320e+01	5.58709743e+01	-4.40268231e+00	1.47616070e+02
848004857.143	-4.87142916e+00	1.62476929e+02	-4.21532805e+01	5.27085448e+01	-4.18802936e+01	5.55639987e+01	-4.40599186e+00	1.47538362e+02
848290428.571	-4.87552201e+00	1.62514749e+02	-4.21719935e+01	5.19122924e+01	-4.19458644e+01	5.48140926e+01	-4.41896778e+00	1.47367980e+02
848576000	-4.88698233e+00	1.62561498e+02	-4.22002657e+01	5.12429861e+01	-4.19432227e+01	5.43450934e+01	-4.41811385e+00	1.47269713e+02
848861571.429	-4.88492309e+00	1.62527835e+02	-4.22251761e+01	5.06332287e+01	-4.19865165e+01	5.35594678e+01	-4.42662137e+00	1.47208503e+02
849147142.857	-4.88729757e+00	1.62521237e+02	-4.22204706e+01	5.00129179e+01	-4.19690188e+01	5.30580884e+01	-4.43002479e+00	1.47033267e+02
849432714.286	-4.88663740e+00	1.62506237e+02	-4.22395612e+01	4.95431474e+01	-4.19271362e+01	5.26371757e+01	-4.43860079e+00	1.46934154e+02
849718285.714	-4.88738297e+00	1.62498609e+02	-4.22576107e+01	4.88966826e+01	-4.19769579e+01	5.19324549e+01	-4.44175037e+00	1.46795124e+02
850003857.143	-4.89256113e+00	1.62515788e+02	-4.22885673e+01	4.84248565e+01	-4.20216362e+01	5.13421897e+01	-4.44750227e+00	1.46660268e+02
850289428.571	-4.89528218e+00	1.62516984e+02	-4.23096731e+01	4.77542801e+01	-4.20106102e+01	5.04606264e+01	-4.45110973e+00	1.46620646e+02
850575000	-4.89975097e+00	1.62543365e+02	-4.23252964e+01	4.72068702e+01	-4.19887605e+01	5.04873967e+01	-4.45335539e+00	1.46491120e+02
850860571.429	-4.90563081e+00	1.62530509e+02	-4.23531498e+01	4.66264972e+01	-4.20305360e+01	4.93704709e+01	-4.46160022e+00	1.46388784e+02
851146142.857	-4.90596570e+00	1.62578903e+02	-4.23567315e+01	4.61441350e+01	-4.20564434e+01	4.90620489e+01	-4.46708963e+00	1.46251788e+02
851431714.286	-4.91265608e+00	1.62568055e+02	-4.23774036e+01	4.54784338e+01	-4.19809719e+01	4.80565388e+01	-4.46863135e+00	1.46117693e+02
851717285.714	-4.91501554e+00	1.62566579e+02	-4.23747388e+01	4.47767313e+01	-4.20694682e+01	4.76572686e+01	-4.47720608e+00	1.45998542e+02
852002857.143	-4.91597658e+00	1.62571018e+02	-4.24058220e+01	4.42265511e+01	-4.20762342e+01	4.71119233e+01	-4.47894475e+00	1.45817548e+02
852288428.571	-4.92075456e+00	1.62568470e+02	-4.24132382e+01	4.38669824e+01	-4.20812749e+01	4.64171568e+01	-4.48312157e+00	1.45778580e+02
852574000	-4.91727414e+00	1.62591861e+02	-4.24271868e+01	4.32046501e+01	-4.20865889e+01	4.58497500e+01	-4.49102551e+00	1.45597101e+02
852859571.429	-4.92148177e+00	1.62575555e+02	-4.24131742e+01	4.25873319e+01	-4.20850024e+01	4.53608861e+01	-4.50013120e+00	1.45534924e+02
853145142.857	-4.92320987e+00	1.62566497e+02	-4.24642599e+01	4.20226998e+01	-4.21336183e+01	4.41437106e+01	-4.50291645e+00	1.45412056e+02
853430714.286	-4.92917276e+00	1.62595226e+02	-4.24766722e+01	4.15554359e+01	-4.21997559e+01	4.41595806e+01	-4.50916122e+00	1.45258193e+02
853716285.714	-4.93476871e+00	1.62570355e+02	-4.24924858e+01	4.09482246e+01	-4.21539259e+01	4.36608944e+01	-4.51034215e+00	1.45176237e+02
854001857.143	-4.93484497e+00	1.62558059e+02	-4.24892096e+01	4.02278617e+01	-4.21568321e+01	4.27485435e+01	-4.51798320e+00	1.45022039e+02
854287428.571	-4.93255669e+00	1.62553064e+02	-4.25184224e+01	3.95981280e+01	-4.21725073e+01	4.21352324e+01	-4.51599213e+00	1.44912204e+02
854573000	-4.93368582e+00	1.62565241e+02	-4.25549303e+01	3.91182906e+01	-4.22434199e+01	4.15889099e+01	-4.51804681e+00	1.44771845e+02
854858571.429	-4.93805138e+00	1.62595565e+02	-4.25468701e+01	3.84834529e+01	-4.22109371e+01	4.10698798e+01	-4.51786974e+00	1.44648242e+02
855144142.857	-4.93985220e+00	1.62585211e+02	-4.25806203e+01	3.80151702e+01	-4.22160229e+01	4.02958959e+01	-4.52190768e+00	1.44501490e+02
855429714.286	-4.94518730e+00	1.62589872e+02	-4.26171461e+01	3.72279103e+01	-4.22996980e+01	3.92822810e+01	-4.52326874e+00	1.44379231e+02
855715285.714	-4.94156714e+00	1.62589417e+02	-4.26351960e+01	3.67589085e+01	-4.22876516e+01	3.91068561e+01	-4.53124627e+00	1.44250285e+02
856000857.143	-4.94370277e+00	1.62568542e+02	-4.26661070e+01	3.61380013e+01	-4.22966681e+01	3.85360969e+01	-4.52611489e+00	1.44110609e+02
856286428.571	-4.94253352e+00	1.62570552e+02	-4.26695807e+01	3.54560799e+01	-4.23045525e+01	3.76597518e+01	-4.53200358e+00	1.43935080e+02
856572000	-4.95137826e+00	1.62549738e+02	-4.27098946e+01	3.49817713e+01	-4.23118289e+01	3.73576715e+01	-4.53753731e+00	1.43792245e+02
856857571.429	-4.95947363e+00	1.62554521e+02	-4.27202466e+01	3.43457432e+01	-4.23592737e+01	3.65680200e+01	-4.54055056e+00	1.43712645e+02
857143142.857	-4.96102376e+00	1.62546983e+02	-4.27527055e+01	3.38502566e+01	-4.23716242e+01	3.61329359e+01	-4.54636681e+00	1.43554070e+02
857428714.286	-4.95673831e+00	1.62576180e+02	-4.27717910e+01	3.31522201e+01	-4.23987651e+01	3.54119222e+01	-4.54801083e+00	1.43374970e+02
857714285.714	-4.96548762e+00	1.62576612e+02	-4.28284004e+01	3.26630495e+01	-4.24419890e+01	3.52991361e+01	-4.55241015e+00	1.43259196e+02
857999857.143	-4.96071924e+00	1.62624381e+02	-4.28476448e+01	3.19879920e+01	-4.24761389e+01	3.41515706e+01	-4.55252466e+00	1.43143912e+02
858285428.571	-4.96777383e+00	1.62589695e+02	-4.28685592e+01	3.14996250e+01	-4.24923666e+01	3.39447362e+01	-4.55853432e+00	1.42971305e+02
858571000	-4.96444544e+00	1.62572732e+02	-4.29175667e+01	3.09153275e+01	-4.25298918e+01	3.31160449e+01	-4.57134699e+00	1.42851724e+02
858856571.429	-4.97283055e+00	1.62576992e+02	-4.29342179e+01	3.03351514e+01	-4.25849948e+01	3.18831888e+01	-4.57776015e+00	1.42683188e+02
859142142.857	-4.96978054e+00	1.62571330e+02	-4.30012550e+01	2.96520427e+01	-4.26671528e+01	3.19101492e+01	-4.58435719e+00	1.42554021e+02
859427714.286	-4.97694127e+00	1.62569074e+02	-4.30365811e+01	2.90027576e+01	-4.26343965e+01	3.11065197e+01	-4.59229914e+00	1.42383310e+02
859713285.714	-4.97692393e+00	1.62571523e+02	-4.30707690e+01	2.85256140e+01	-4.26556348e+01	3.08879338e+01	-4.59466046e+00	1.42233949e+02
859998857.143	-4.97711889e+00	1.62578305e+02	-4.31106082e+01	2.79236282e+01	-4.27223178e+01	2.98861978e+01	-4.60086194e+00	1.42130803e+02
860284428.571	-4.97939949e+00	1.62576099e+02	-4.31907407e+01	2.74283013e+01	-4.27621454e+01	2.99372006e+01	-4.61269302e+00	1.41992903e+02
860570000	-4.97419644e+00	1.62547853e+02	-4.32086663e+01	2.69116226e+01	-4.28088700e+01	2.92725832e+01	-4.61595255e+00	1.41790011e+02
860855571.429	-4.98071444e+00	1.62590149e+02	-4.32678816e+01	2.63639202e+01	-4.28511825e+01	2.85411475e+01	-4.61637569e+00	1.41627167e+02
861141142.857	-4.97648095e+00	1.62599686e+02	-4.33207592e+01	2.59800662e+01	-4.29315194e+01	2.82171877e+01	-4.61525385e+00	1.41503746e+02
861426714.286	-4.98274482e+00	1.62573238e+02	-4.33777346e+01	2.56216919e+01	-4.29465915e+01	2.76352918e+01	-4.63590534e+00	1.41352237e+02
861712285.714	-4.98001652e+00	1.62595432e+02	-4.34374677e+01	2.51421723e+01	-4.30135413e+01	2.72115974e+01	-4.63856208e+00	1.41206276e+02
861997857.143	-4.97782130e+00	1.62579932e+02	-4.34837193e+01	2.48807514e+01	-4.29911283e+01	2.68533382e+01	-4.64025659e+00	1.41069889e+02
862283428.571	-4.97747012e+00	1.62590905e+02	-4.35276217e+01	2.44996101e+01	-4.30886509e+01	2.66294329e+01	-4.63942983e+00	1.40981630e+02
862569000	-4.98405322e+00	1.62593370e+02	-4.35622194e+01	2.41744094e+01	-4.31172146e+01	2.59430683e+01	-4.64077549e+00	1.40854373e+02
862854571.429	-4.98245515e+00	1.62590844e+02	-4.36365414e+01	2.38082298e+01	-4.31206223e+01	2.60026647e+01	-4.63909258e+00	1.40696366e+02
863140142.857	-4.98704901e+00	1.62591371e+02	-4.36640173e+01	2.35711092e+01	-4.31752044e+01	2.54146069e+01	-4.64749300e+00	1.40569289e+02
863425714.286	-4.98734240e+00	1.62582056e+02	-4.37242941e+01	2.34290772e+01	-4.32005707e+01	2.51076759e+01	-4.64866925e+00	1.40420969e+02
863711285.714	-4.99122114e+00	1.62549230e+02	-4.37200418e+01	2.31441139e+01	-4.32478028e+01	2.49430287e+01	-4.65035946e+00	1.40279025e+02
863996857.143	-4.98885346e+00	1.62522953e+02	-4.37426594e+01	2.28067724e+01	-4.33077360e+01	2.42521171e+01	-4.65387419e+00	1.40185942e+02
864282428.571	-4.99743120e+00	1.62557734e+02	-4.37844784e+01	2.26531123e+01	-4.33372605e+01	2.43799247e+01	-4.65621264e+00	1.40049648e+02
864568000	-4.99688674e+00	1.62539515e+02	-4.37963420e+01	2.24046505e+01	-4.32966544e+01	2.41703025e+01	-4.66087848e+00	1.39927472e+02
864853571.429	-4.99725204e+00	1.62520807e+02	-4.38222065e+01	2.21512416e+01	-4.33098886e+01	2.36963798e+01	-4.65512912e+00	1.39791365e+02
865139142.857	-4.99628718e+00	1.62537824e+02	-4.38327318e+01	2.17891831e+01	-4.33244143e+01	2.32966624e+01	-4.66114854e+00	1.39615685e+02
865424714.286	-4.99407242e+00	1.62565703e+02	-4.38425740e+01	2.16220422e+01	-4.33742116e+01	2.26442527e+01	-4.65687790e+00	1.39573310e+02
865710285.714	-4.99143293e+00	1.62537845e+02	-4.38553998e+01	2.12701177e+01	-4.34203718e+01	2.27847873e+01	-4.65444686e+00	1.39409850e+02
865995857.143	-4.99209956e+00	1.62546720e+02	-4.38709240e+01	2.10305629e+01	-4.33153818e+01	2.23726408e+01	-4.65623106e+00	1.39267913e+02
866281428.571	-4.99083929e+00	1.62541043e+02	-4.38978449e+01	2.08320875e+01	-4.33616865e+01	2.22875128e+01	-4.65867319e+00	1.39131669e+02
866567000	-4.99472257e+00	1.62583371e+02	-4.39038698e+01	2.05961444e+01	-4.34342020e+01	2.18827688e+01	-4.66997535e+00	1.38941172e+02
866852571.429	-4.99286234e+00	1.62550182e+02	-4.38579194e+01	2.02506466e+01	-4.34456668e+01	2.16639990e+01	-4.66304528e+00	1.38795051e+02
867138142.857	-4.99438912e+00	1.62532171e+02	-4.38970628e+01	1.98144653e+01	-4.34422939e+01	2.10553381e+01	-4.66460468e+00	1.38669281e+02
867423714.286	-4.99476398e+00	1.62541028e+02	-4.38820415e+01	1.95851227e+01	-4.34751056e+01	2.06112823e+01	-4.66800056e+00	1.38546629e+02
867709285.714	-4.99894107e+00	1.62552537e+02	-4.39055746e+01	1.91915130e+01	-4.34492536e+01	2.03134753e+01	-4.67010568e+00	1.38347725e+02
867994857.143	-4.99688666e+00	1.62561835e+02	-4.38901098e+01	1.88760800e+01	-4.34576274e+01	2.01109428e+01	-4.66932328e+00	1.38243600e+02
868280428.571	-5.00156212e+00	1.62578548e+02	-4.39027437e+01	1.85123603e+01	-4.34685927e+01	1.96777978e+01	-4.66875478e+00	1.38030131e+02
868566000	-5.00177166e+00	1.62577740e+02	-4.39019090e+01	1.81198352e+01	-4.35052345e+01	1.95176741e+01	-4.67123212e+00	1.37836925e+02
868851571.429	-5.00182942e+00	1.62600088e+02	-4.38952610e+01	1.76548331e+01	-4.34136110e+01	1.87902801e+01	-4.67394700e+00	1.37709444e+02
869137142.857	-4.99778466e+00	1.62620907e+02	-4.38770418e+01	1.72850410e+01	-4.35105033e+01	1.83275004e+01	-4.67255803e+00	1.37556336e+02
869422714.286	-4.99798905e+00	1.62629448e+02	-4.38867653e+01	1.67930236e+01	-4.34306228e+01	1.80442837e+01	-4.68249864e+00	1.37389820e+02
869708285.714	-4.99887391e+00	1.62619873e+02	-4.38809440e+01	1.65955288e+01	-4.34761603e+01	1.76829986e+01	-4.68482633e+00	1.37223588e+02
869993857.143	-4.99971340e+00	1.62639329e+02	-4.38901538e+01	1.60386182e+01	-4.34579913e+01	1.75358935e+01	-4.69087424e+00	1.37108485e+02
870279428.571	-4.99898301e+00	1.62622393e+02	-4.38841879e+01	1.54803623e+01	-4.34577525e+01	1.67103460e+01	-4.69387418e+00	1.36941205e+02
870565000	-5.00136866e+00	1.62659831e+02	-4.38856207e+01	1.50192926e+01	-4.34711485e+01	1.61372789e+01	-4.70564155e+00	1.36856842e+02
870850571.429	-5.00391425e+00	1.62683677e+02	-4.38526542e+01	1.45308910e+01	-4.35568819e+01	1.57427157e+01	-4.71173677e+00	1.36736492e+02
871136142.857	-5.00961207e+00	1.62720018e+02	-4.39032214e+01	1.42491348e+01	-4.35034057e+01	1.51448360e+01	-4.71217833e+00	1.36586120e+02
871421714.286	-5.00622169e+00	1.62689694e+02	-4.38601750e+01	1.39278238e+01	-4.34786821e+01	1.52139787e+01	-4.71612710e+00	1.36532939e+02
871707285.714	-5.00654358e+00	1.62762227e+02	-4.38751606e+01	1.33493221e+01	-4.35633019e+01	1.45707378e+01	-4.73060200e+00	1.36355529e+02
871992857.143	-5.00964697e+00	1.62718346e+02	-4.38735089e+01	1.28933805e+01	-4.35257388e+01	1.39199503e+01	-4.74311239e+00	1.36305288e+02
872278428.571	-5.01319348e+00	1.62745833e+02	-4.38894799e+01	1.24121635e+01	-4.34976747e+01	1.38985594e+01	-4.75749741e+00	1.36204492e+02
872564000	-5.01155092e+00	1.62717091e+02	-4.39155056e+01	1.18678656e+01	-4.35508093e+01	1.31111503e+01	-4.75530353e+00	1.36102457e+02
872849571.429	-5.01037715e+00	1.62736604e+02	-4.39032906e+01	1.12715956e+01	-4.35628869e+01	1.27008713e+01	-4.76191778e+00	1.35960651e+02
873135142.857	-5.00601624e+00	1.62744514e+02	-4.39256741e+01	1.09973650e+01	-4.36095745e+01	1.22715676e+01	-4.77742161e+00	1.35881999e+02
873420714.286	-5.00725618e+00	1.62745408e+02	-4.39260903e+01	1.02890287e+01	-4.35582881e+01	1.16813167e+01	-4.78586040e+00	1.35715335e+02
873706285.714	-5.00993979e+00	1.62753267e+02	-4.39277419e+01	1.00654589e+01	-4.36196966e+01	1.07638733e+01	-4.78604578e+00	1.35568593e+02
873991857.143	-5.00976329e+00	1.62803532e+02	-4.39515886e+01	9.25931299e+00	-4.35386338e+01	1.05886651e+01	-4.79615909e+00	1.35391506e+02
874277428.571	-5.00930026e+00	1.62817615e+02	-4.39636083e+01	8.80683154e+00	-4.35542643e+01	1.01528444e+01	-4.79242541e+00	1.35223641e+02
874563000	-5.00965026e+00	1.62814842e+02	-4.39852856e+01	8.51897551e+00	-4.36102193e+01	1.00193599e+01	-4.80611030e+00	1.35112428e+02
874848571.429	-5.01223133e+00	1.62810031e+02	-4.40017982e+01	7.89747739e+00	-4.36814931e+01	9.71724989e+00	-4.80820905e+00	1.34988987e+02
875134142.857	-5.01223015e+00	1.62857799e+02	-4.39858394e+01	7.38865148e+00	-4.36896780e+01	8.66097027e+00	-4.81998392e+00	1.34827216e+02
875419714.286	-5.01105350e+00	1.62855587e+02	-4.39830097e+01	6.99176857e+00	-4.36723049e+01	8.12338641e+00	-4.83169545e+00	1.34724185e+02
875705285.714	-5.00601528e+00	1.62861978e+02	-4.40384255e+01	6.53097628e+00	-4.35988881e+01	7.60783159e+00	-4.82870058e+00	1.34556217e+02
875990857.143	-5.01069121e+00	1.62848143e+02	-4.40413083e+01	6.03717130e+00	-4.36667965e+01	7.44783404e+00	-4.83876828e+00	1.34454098e+02
876276428.571	-5.01203280e+00	1.62881477e+02	-4.40295833e+01	5.86495780e+00	-4.37072808e+01	6.82241802e+00	-4.84775347e+00	1.34377274e+02
876562000	-5.01090182e+00	1.62859046e+02	-4.40803975e+01	5.21098668e+00	-4.37552169e+01	6.58002254e+00	-4.84411953e+00	1.34198295e+02
876847571.429	-5.01799349e+00	1.62912901e+02	-4.40945215e+01	4.62866738e+00	-4.38001452e+01	6.26958119e+00	-4.85817635e+00	1.34053282e+02
877133142.857	-5.01782817e+00	1.62928928e+02	-4.40865256e+01	4.30048226e+00	-4.37686533e+01	5.59492013e+00	-4.86185498e+00	1.33934153e+02
877418714.286	-5.01675582e+00	1.62902340e+02	-4.40985902e+01	3.67957684e+00	-4.37750181e+01	5.09469622e+00	-4.87390164e+00	1.33811453e+02
877704285.714	-5.01492266e+00	1.62893778e+02	-4.41230398e+01	3.27099985e+00	-4.38181562e+01	4.70868315e+00	-4.87062068e+00	1.33605654e+02
877989857.143	-5.01541075e+00	1.62931228e+02	-4.41595860e+01	2.80535364e+00	-4.38104360e+01	3.84168855e+00	-4.88460851e+00	1.33502477e+02
878275428.571	-5.01635574e+00	1.62958872e+02	-4.41605744e+01	2.33498432e+00	-4.38461912e+01	3.65947763e+00	-4.88794605e+00	1.33361051e+02
878561000	-5.02058274e+00	1.62986644e+02	-4.41942702e+01	1.93844381e+00	-4.39022299e+01	3.48766872e+00	-4.88760600e+00	1.33255621e+02
878846571.429	-5.02361249e+00	1.62986888e+02	-4.42035938e+01	1.34323173e+00	-4.38794539e+01	2.75355839e+00	-4.89638216e+00	1.33100179e+02
879132142.857	-5.01949971e+00	1.63012429e+02	-4.42249442e+01	1.07690082e+00	-4.39739705e+01	2.69868577e+00	-4.90576353e+00	1.33045583e+02
879417714.286	-5.02763117e+00	1.63045665e+02	-4.42188134e+01	6.44623360e-01	-4.38613191e+01	2.04239034e+00	-4.90605019e+00	1.32957283e+02
879703285.714	-5.02836310e+00	1.63039680e+02	-4.42487147e+01	1.65745674e-01	-4.39058904e+01	1.20989666e+00	-4.91184007e+00	1.32815113e+02
879988857.143	-5.02134254e+00	1.63037856e+02	-4.42768168e+01	-3.14542397e-01	-4.39896302e+01	6.95437383e-01	-4.92313322e+00	1.32689466e+02
880274428.571	-5.02556619e+00	1.63013033e+02	-4.42716527e+01	-7.18729011e-01	-4.40046917e+01	3.22071602e-01	-4.93786318e+00	1.32551846e+02
880560000	-5.01994485e+00	1.63061307e+02	-4.42972395e+01	-1.08331133e+00	-4.40386127e+01	2.11323792e-01	-4.93468818e+00	1.32422970e+02
880845571.429	-5.02603486e+00	1.63071454e+02	-4.43271234e+01	-1.67125172e+00	-4.40932922e+01	-3.32117621e-01	-4.94847049e+00	1.32298474e+02
881131142.857	-5.02923365e+00	1.63074214e+02	-4.43205770e+01	-2.14102656e+00	-4.40674766e+01	-1.04271860e+00	-4.96097160e+00	1.32110110e+02
881416714.286	-5.01819845e+00	1.63021593e+02	-4.43348473e+01	-2.45674205e+00	-4.40742645e+01	-1.12148824e+00	-4.96035308e+00	1.31964907e+02
881702285.714	-5.01689366e+00	1.63013791e+02	-4.43603287e+01	-2.92734367e+00	-4.40361245e+01	-1.75203926e+00	-4.97351198e+00	1.31817813e+02
881987857.143	-5.02561720e+00	1.63042194e+02	-4.43887047e+01	-3.48956833e+00	-4.41691704e+01	-2.61589607e+00	-4.98529071e+00	1.31688144e+02
882273428.571	-5.02116249e+00	1.63055354e+02	-4.44250589e+01	-3.94805065e+00	-4.41464892e+01	-2.92687743e+00	-4.99884800e+00	1.31560390e+02
882559000	-5.01421060e+00	1.63085028e+02	-4.44110801e+01	-4.45503241e+00	-4.41300797e+01	-2.73937892e+00	-5.00791381e+00	1.31420196e+02
882844571.429	-5.02232210e+00	1.63112171e+02	-4.44482922e+01	-5.06397699e+00	-4.42436419e+01	-4.08749902e+00	-5.01571291e+00	1.31301988e+02
883130142.857	-5.02344527e+00	1.63104470e+02	-4.44339894e+01	-5.54350235e+00	-4.42071460e+01	-4.19362758e+00	-5.02454380e+00	1.31120938e+02
883415714.286	-5.02378102e+00	1.63124617e+02	-4.45010507e+01	-5.80747394e+00	-4.42364454e+01	-4.65749934e+00	-5.02999840e+00	1.31031950e+02
883701285.714	-5.01824100e+00	1.63137478e+02	-4.45081721e+01	-6.29505978e+00	-4.42512429e+01	-4.88453219e+00	-5.04280390e+00	1.30864816e+02
883986857.143	-5.01902895e+00	1.63132404e+02	-4.44915916e+01	-6.80811287e+00	-4.43052656e+01	-5.54930811e+00	-5.05547506e+00	1.30727504e+02
884272428.571	-5.03041935e+00	1.63155969e+02	-4.45108806e+01	-7.36590136e+00	-4.42983057e+01	-6.03603686e+00	-5.06006024e+00	1.30553397e+02
884558000	-5.02864603e+00	1.63173699e+02	-4.45615117e+01	-7.86193962e+00	-4.43490582e+01	-6.59801063e+00	-5.07563779e+00	1.30478891e+02
884843571.429	-5.02874262e+00	1.63138788e+02	-4.45814822e+01	-8.37453266e+00	-4.43795573e+01	-7.44441355e+00	-5.07346298e+00	1.30355028e+02
885129142.857	-5.02559308e+00	1.63185446e+02	-4.45922370e+01	-8.81161843e+00	-4.44182336e+01	-6.92918890e+00	-5.08349240e+00	1.30270786e+02
885414714.286	-5.03044874e+00	1.63187508e+02	-4.46482143e+01	-9.26138306e+00	-4.44593507e+01	-7.40980782e+00	-5.09916602e+00	1.30119224e+02
885700285.714	-5.01626577e+00	1.63160357e+02	-4.46609809e+01	-9.76544549e+00	-4.45627445e+01	-8.41317916e+00	-5.10717644e+00	1.30053551e+02
885985857.143	-5.02336779e+00	1.63186039e+02	-4.47195060e+01	-1.02818288e+01	-4.45907639e+01	-8.97262591e+00	-5.11704302e+00	1.29978091e+02
886271428.571	-5.02366266e+00	1.63225226e+02	-4.47478471e+01	-1.08607709e+01	-4.46291142e+01	-9.20205739e+00	-5.12276933e+00	1.29920167e+02
886557000	-5.02063943e+00	1.63221014e+02	-4.47886812e+01	-1.10749883e+01	-4.46635278e+01	-9.86629597e+00	-5.12732705e+00	1.29877908e+02
886842571.429	-5.02032566e+00	1.63259311e+02	-4.48330720e+01	-1.16068704e+01	-4.47647696e+01	-1.02861923e+01	-5.14549632e+00	1.29750006e+02
887128142.857	-5.02120096e+00	1.63255171e+02	-4.48775771e+01	-1.20184405e+01	-4.46777659e+01	-1.05271084e+01	-5.15466413e+00	1.29647400e+02
887413714.286	-5.01953501e+00	1.63233204e+02	-4.48932936e+01	-1.22511924e+01	-4.47938056e+01	-1.06827092e+01	-5.17193890e+00	1.29633496e+02
887699285.714	-5.01470181e+00	1.63286100e+02	-4.49413631e+01	-1.27332982e+01	-4.48619663e+01	-1.07857612e+01	-5.18687575e+00	1.29544265e+02
887984857.143	-5.01903003e+00	1.63296035e+02	-4.49861480e+01	-1.29147276e+01	-4.49697173e+01	-1.14413134e+01	-5.20661947e+00	1.29404059e+02
888270428.571	-5.01875129e+00	1.63290876e+02	-4.50066471e+01	-1.32010372e+01	-4.49378858e+01	-1.21363119e+01	-5.21743981e+00	1.29270207e+02
888556000	-5.01661065e+00	1.63325922e+02	-4.50843746e+01	-1.33027329e+01	-4.50365390e+01	-1.16066854e+01	-5.23025346e+00	1.29094926e+02
888841571.429	-5.01395550e+00	1.63332508e+02	-4.51177103e+01	-1.39040794e+01	-4.49289038e+01	-1.17040020e+01	-5.25114561e+00	1.29026486e+02
889127142.857	-5.00742520e+00	1.63335287e+02	-4.51573327e+01	-1.41897303e+01	-4.50454671e+01	-1.22308549e+01	-5.25999606e+00	1.28861945e+02
889412714.286	-5.01288978e+00	1.63359756e+02	-4.51514563e+01	-1.42884991e+01	-4.50945805e+01	-1.34164677e+01	-5.28004212e+00	1.28782782e+02
889698285.714	-5.00385058e+00	1.63381129e+02	-4.51856797e+01	-1.46882482e+01	-4.50478357e+01	-1.33108582e+01	-5.29368153e+00	1.28635736e+02
889983857.143	-5.01556725e+00	1.63394481e+02	-4.52339794e+01	-1.47670492e+01	-4.51429585e+01	-1.28110594e+01	-5.30860648e+00	1.28536473e+02
890269428.571	-5.00565684e+00	1.63405341e+02	-4.52375819e+01	-1.51591114e+01	-4.51063622e+01	-1.38704002e+01	-5.32623353e+00	1.28414677e+02
890555000	-5.01148158e+00	1.63422093e+02	-4.52835255e+01	-1.56407753e+01	-4.51153696e+01	-1.40749311e+01	-5.34367401e+00	1.28367852e+02
890840571.429	-5.01070383e+00	1.63462885e+02	-4.52751644e+01	-1.56869145e+01	-4.51206814e+01	-1.46514588e+01	-5.36505629e+00	1.28277673e+02
891126142.857	-5.00364198e+00	1.63412848e+02	-4.53162345e+01	-1.58437965e+01	-4.50988969e+01	-1.43195738e+01	-5.37832319e+00	1.28210840e+02
891411714.286	-5.00710098e+00	1.63444593e+02	-4.53010750e+01	-1.61718013e+01	-4.51472188e+01	-1.42432466e+01	-5.40229572e+00	1.28107781e+02
891697285.714	-5.00515640e+00	1.63464301e+02	-4.53266186e+01	-1.63104576e+01	-4.51639469e+01	-1.54186034e+01	-5.40933919e+00	1.28013727e+02
891982857.143	-5.00233854e+00	1.63435780e+02	-4.53138781e+01	-1.66160410e+01	-4.52330459e+01	-1.41577446e+01	-5.43713584e+00	1.27973038e+02
892268428.571	-5.00535577e+00	1.63497852e+02	-4.53385319e+01	-1.68810800e+01	-4.53477505e+01	-1.53266763e+01	-5.44583573e+00	1.27860070e+02
892554000	-5.01229876e+00	1.63519799e+02	-4.53610274e+01	-1.72059659e+01	-4.52313519e+01	-1.58768993e+01	-5.46974386e+00	1.27857547e+02
892839571.429	-5.00921160e+00	1.63529645e+02	-4.54021050e+01	-1.72881046e+01	-4.53387541e+01	-1.62299855e+01	-5.48743941e+00	1.27813505e+02
893125142.857	-5.00615920e+00	1.63560089e+02	-4.54248434e+01	-1.78794819e+01	-4.53061933e+01	-1.65864013e+01	-5.50577371e+00	1.27708638e+02
893410714.286	-5.00987971e+00	1.63541173e+02	-4.54142872e+01	-1.77915386e+01	-4.52584287e+01	-1.65825617e+01	-5.51536259e+00	1.27659197e+02
893696285.714	-5.00412394e+00	1.63587015e+02	-4.54372506e+01	-1.81085752e+01	-4.52008373e+01	-1.67366989e+01	-5.52912013e+00	1.27597687e+02
893981857.143	-4.99950662e+00	1.63596529e+02	-4.54685331e+01	-1.84947914e+01	-4.53287370e+01	-1.69169472e+01	-5.54782220e+00	1.27616990e+02
894267428.571	-4.99833684e+00	1.63622196e+02	-4.54197624e+01	-1.88285529e+01	-4.52834043e+01	-1.71624926e+01	-5.56399608e+00	1.27590166e+02
894553000	-5.00112889e+00	1.63631985e+02	-4.55039516e+01	-1.91380026e+01	-4.53597928e+01	-1.78614373e+01	-5.57424109e+00	1.27430741e+02
894838571.429	-5.00163524e+00	1.63684483e+02	-4.54921415e+01	-1.93526939e+01	-4.52742203e+01	-1.81336941e+01	-5.59049391e+00	1.27379190e+02
895124142.857	-5.00479939e+00	1.63654721e+02	-4.54876326e+01	-1.94616427e+01	-4.53940836e+01	-1.79318591e+01	-5.60133096e+00	1.27310083e+02
895409714.286	-5.01007998e+00	1.63694484e+02	-4.55285749e+01	-1.99050625e+01	-4.53113498e+01	-1.78291177e+01	-5.61636187e+00	1.27203138e+02
895695285.714	-5.00660868e+00	1.63666160e+02	-4.54790366e+01	-2.01070127e+01	-4.53600645e+01	-1.87687494e+01	-5.63373342e+00	1.27141936e+02
895980857.143	-5.00713403e+00	1.63694995e+02	-4.55190047e+01	-2.03659705e+01	-4.53504311e+01	-1.92281142e+01	-5.64239602e+00	1.27072264e+02
896266428.571	-5.00621966e+00	1.63695011e+02	-4.54651797e+01	-2.06680278e+01	-4.53096362e+01	-1.96351351e+01	-5.65907401e+00	1.26989613e+02
896552000	-5.00421034e+00	1.63704758e+02	-4.54779171e+01	-2.08355620e+01	-4.53571503e+01	-2.01205976e+01	-5.67051213e+00	1.26883325e+02
896837571.429	-5.00310599e+00	1.63727334e+02	-4.54875564e+01	-2.11626796e+01	-4.53487672e+01	-1.98141154e+01	-5.67418094e+00	1.26854736e+02
897123142.857	-5.00549960e+00	1.63696626e+02	-4.55173502e+01	-2.12342632e+01	-4.53177495e+01	-2.10792651e+01	-5.68561661e+00	1.26696746e+02
897408714.286	-5.00560718e+00	1.63749436e+02	-4.54739556e+01	-2.15461877e+01	-4.53783798e+01	-2.12723330e+01	-5.69069206e+00	1.26686702e+02
897694285.714	-5.00305997e+00	1.63778956e+02	-4.54917491e+01	-2.20170341e+01	-4.53617612e+01	-2.06114236e+01	-5.70660167e+00	1.26665228e+02
897979857.143	-5.00173694e+00	1.63816290e+02	-4.54837220e+01	-2.21953873e+01	-4.53359146e+01	-2.12019696e+01	-5.71541256e+00	1.26523372e+02
898265428.571	-5.00578469e+00	1.63809245e+02	-4.54734052e+01	-2.25438659e+01	-4.53588011e+01	-2.12021886e+01	-5.73140421e+00	1.26443233e+02
898551000	-5.00600539e+00	1.63851260e+02	-4.54927594e+01	-2.28285956e+01	-4.53810956e+01	-2.21311434e+01	-5.74652413e+00	1.26368888e+02
898836571.429	-5.00151438e+00	1.63916699e+02	-4.54806345e+01	-2.29667173e+01	-4.53747278e+01	-2.20416547e+01	-5.75814792e+00	1.26317166e+02
899122142.857	-5.00798243e+00	1.63860328e+02	-4.54347077e+01	-2.34575984e+01	-4.52842846e+01	-2.20907066e+01	-5.77055782e+00	1.26208024e+02
899407714.286	-5.00316708e+00	1.63886426e+02	-4.54478788e+01	-2.33461439e+01	-4.53768590e+01	-2.32525898e+01	-5.78113463e+00	1.26207411e+02
899693285.714	-5.01196383e+00	1.63896400e+02	-4.54319950e+01	-2.37992381e+01	-4.53693097e+01	-2.30415714e+01	-5.78804240e+00	1.26072137e+02
899978857.143	-5.01035265e+00	1.63934851e+02	-4.54076639e+01	-2.43073624e+01	-4.53158186e+01	-2.32572311e+01	-5.80211504e+00	1.25989921e+02
900264428.571	-5.00693454e+00	1.63951810e+02	-4.54170943e+01	-2.43982518e+01	-4.53713354e+01	-2.35302752e+01	-5.81914678e+00	1.25864879e+02
900550000	-5.01285690e+00	1.63955936e+02	-4.53939213e+01	-2.47341111e+01	-4.53347984e+01	-2.44201968e+01	-5.84153465e+00	1.25853048e+02
900835571.429	-5.01044429e+00	1.63941043e+02	-4.53829486e+01	-2.52863485e+01	-4.54005120e+01	-2.46742449e+01	-5.84902328e+00	1.25778813e+02
901121142.857	-5.00976488e+00	1.63987518e+02	-4.53867996e+01	-2.58650696e+01	-4.52789457e+01	-2.50923111e+01	-5.87196419e+00	1.25698053e+02
901406714.286	-5.00120519e+00	1.64026310e+02	-4.53893101e+01	-2.61318682e+01	-4.51976729e+01	-2.51157748e+01	-5.87775215e+00	1.25597976e+02
901692285.714	-5.00523002e+00	1.64027689e+02	-4.53458041e+01	-2.64288418e+01	-4.53442002e+01	-2.55397117e+01	-5.89661822e+00	1.25512748e+02
901977857.143	-5.00678504e+00	1.64031936e+02	-4.53248157e+01	-2.69576201e+01	-4.51481035e+01	-2.57402923e+01	-5.90845913e+00	1.25488523e+02
902263428.571	-5.00423197e+00	1.64059075e+02	-4.53212812e+01	-2.74027595e+01	-4.51967045e+01	-2.59189563e+01	-5.92119452e+00	1.25418397e+02
902549000	-5.00720069e+00	1.64057440e+02	-4.53340683e+01	-2.75118658e+01	-4.52171465e+01	-2.68108711e+01	-5.92073606e+00	1.25361252e+02
902834571.429	-5.00275026e+00	1.64090372e+02	-4.53041983e+01	-2.80781108e+01	-4.52377561e+01	-2.76252844e+01	-5.93674690e+00	1.25296195e+02
903120142.857	-4.99798534e+00	1.64080112e+02	-4.52867216e+01	-2.84406081e+01	-4.52295986e+01	-2.80526163e+01	-5.94920925e+00	1.25270824e+02
903405714.286	-5.00393521e+00	1.64148617e+02	-4.52686223e+01	-2.90903799e+01	-4.52406907e+01	-2.80026357e+01	-5.95335500e+00	1.25145105e+02
903691285.714	-4.99768374e+00	1.64173174e+02	-4.52849173e+01	-2.94669685e+01	-4.51892490e+01	-2.88969330e+01	-5.96498911e+00	1.25076354e+02
903976857.143	-4.99938213e+00	1.64194991e+02	-4.52684824e+01	-2.99778636e+01	-4.52235776e+01	-2.85894128e+01	-5.97494110e+00	1.25017450e+02
904262428.571	-5.00038877e+00	1.64209057e+02	-4.52427092e+01	-3.04189267e+01	-4.52155788e+01	-2.94791406e+01	-5.98666789e+00	1.24962692e+02
904548000	-4.99779215e+00	1.64244610e+02	-4.52594713e+01	-3.09526428e+01	-4.52069355e+01	-3.03205718e+01	-6.00512985e+00	1.24875681e+02
904833571.429	-5.00188222e+00	1.64258283e+02	-4.52538455e+01	-3.14251347e+01	-4.52389843e+01	-2.98979156e+01	-6.01645782e+00	1.24792765e+02
905119142.857	-5.00200929e+00	1.64281496e+02	-4.52635342e+01	-3.16466022e+01	-4.52516940e+01	-3.06078394e+01	-6.02722402e+00	1.24818823e+02
905404714.286	-5.00115824e+00	1.64276800e+02	-4.52988603e+01	-3.22550715e+01	-4.52028667e+01	-3.12626707e+01	-6.03772494e+00	1.24709183e+02
905690285.714	-5.00171093e+00	1.64268015e+02	-4.52354367e+01	-3.25555672e+01	-4.52252865e+01	-3.14499167e+01	-6.05465235e+00	1.24642960e+02
905975857.143	-4.99747515e+00	1.64289071e+02	-4.52568831e+01	-3.30474362e+01	-4.51643554e+01	-3.13379171e+01	-6.05901522e+00	1.24616306e+02
906261428.571	-5.00163425e+00	1.64347278e+02	-4.52429255e+01	-3.35394158e+01	-4.51430038e+01	-3.28029695e+01	-6.06303525e+00	1.24531109e+02
906547000	-4.99719978e+00	1.64364018e+02	-4.52437986e+01	-3.39790989e+01	-4.52276199e+01	-3.23135169e+01	-6.07362870e+00	1.24442450e+02
906832571.429	-5.00146029e+00	1.64366283e+02	-4.52699037e+01	-3.47261228e+01	-4.52664256e+01	-3.36440846e+01	-6.09018324e+00	1.24248917e+02
907118142.857	-5.00344559e+00	1.64388729e+02	-4.52762770e+01	-3.50230226e+01	-4.52288756e+01	-3.37119500e+01	-6.10213358e+00	1.24173553e+02
907403714.286	-5.00249791e+00	1.64447983e+02	-4.52797780e+01	-3.54882946e+01	-4.51428293e+01	-3.38913596e+01	-6.10778465e+00	1.24075950e+02
907689285.714	-5.00584599e+00	1.64478762e+02	-4.52712773e+01	-3.57772340e+01	-4.52922838e+01	-3.50911056e+01	-6.11089766e+00	1.23937498e+02
907974857.143	-5.00347578e+00	1.64475415e+02	-4.52649563e+01	-3.64165580e+01	-4.52758831e+01	-3.46725909e+01	-6.13033656e+00	1.23933214e+02
908260428.571	-5.00301229e+00	1.64478447e+02	-4.52744617e+01	-3.67383596e+01	-4.52044710e+01	-3.54667238e+01	-6.14557105e+00	1.23809669e+02
908546000	-5.00050631e+00	1.64484296e+02	-4.52797318e+01	-3.71258226e+01	-4.53423935e+01	-3.57477347e+01	-6.15855860e+00	1.23772089e+02
908831571.429	-5.00257954e+00	1.64520477e+02	-4.52713382e+01	-3.75984884e+01	-4.51910776e+01	-3.64878991e+01	-6.17477439e+00	1.23731207e+02
909117142.857	-5.00682703e+00	1.64538599e+02	-4.53097655e+01	-3.80540391e+01	-4.52036936e+01	-3.67189681e+01	-6.18773417e+00	1.23686853e+02
909402714.286	-5.00889495e+00	1.64527277e+02	-4.52975439e+01	-3.85528544e+01	-4.52054414e+01	-3.71094972e+01	-6.19682231e+00	1.23559859e+02
909688285.714	-5.00279550e+00	1.64560416e+02	-4.52537925e+01	-3.87925662e+01	-4.52276407e+01	-3.78372945e+01	-6.21079951e+00	1.23465137e+02
909973857.143	-5.00290801e+00	1.64563269e+02	-4.53008232e+01	-3.92223767e+01	-4.53230634e+01	-3.80137036e+01	-6.21725834e+00	1.23388806e+02
910259428.571	-4.99946648e+00	1.64559774e+02	-4.52858827e+01	-3.99812087e+01	-4.52746527e+01	-3.85979785e+01	-6.22380108e+00	1.23298622e+02
910545000	-5.00611424e+00	1.64577222e+02	-4.52903658e+01	-4.02929864e+01	-4.53016209e+01	-3.86399687e+01	-6.24680249e+00	1.23277218e+02
910830571.429	-5.01013057e+00	1.64602699e+02	-4.52957286e+01	-4.06533344e+01	-4.52630199e+01	-3.92350530e+01	-6.25982093e+00	1.23115302e+02
911116142.857	-5.00704591e+00	1.64652005e+02	-4.53418879e+01	-4.13417596e+01	-4.52349844e+01	-3.99414103e+01	-6.28341440e+00	1.23099739e+02
911401714.286	-5.00820070e+00	1.64682402e+02	-4.53268169e+01	-4.16206990e+01	-4.52653541e+01	-4.07096076e+01	-6.28596480e+00	1.23017515e+02
911687285.714	-5.00964092e+00	1.64716595e+02	-4.53031643e+01	-4.21326289e+01	-4.52962771e+01	-4.05075025e+01	-6.29416913e+00	1.22978252e+02
911972857.143	-5.01004427e+00	1.64676144e+02	-4.53483255e+01	-4.24302464e+01	-4.51735029e+01	-4.04710839e+01	-6.31316768e+00	1.22924597e+02
912258428.571	-5.00956261e+00	1.64706894e+02	-4.53518756e+01	-4.31896581e+01	-4.52452432e+01	-4.13491562e+01	-6.33024324e+00	1.22884677e+02
912544000	-5.00999160e+00	1.64705060e+02	-4.53503691e+01	-4.34021652e+01	-4.53006215e+01	-4.19347217e+01	-6.33940701e+00	1.22786767e+02
912829571.429	-5.01117385e+00	1.64725857e+02	-4.53185940e+01	-4.39299722e+01	-4.52377150e+01	-4.28642154e+01	-6.36106395e+00	1.22729069e+02
913115142.857	-5.00536524e+00	1.64713725e+02	-4.53417207e+01	-4.43204328e+01	-4.52380180e+01	-4.30002808e+01	-6.36723839e+00	1.22735626e+02
913400714.286	-5.00742135e+00	1.64707828e+02	-4.53428422e+01	-4.46755028e+01	-4.52350706e+01	-4.34799146e+01	-6.37720605e+00	1.22678060e+02
913686285.714	-5.00501619e+00	1.64699155e+02	-4.53364350e+01	-4.54104830e+01	-4.53543752e+01	-4.35366671e+01	-6.39247474e+00	1.22612388e+02
913971857.143	-4.99997959e+00	1.64709546e+02	-4.53624520e+01	-4.57485545e+01	-4.53669420e+01	-4.43562645e+01	-6.40435418e+00	1.22515021e+02
914257428.571	-5.00813831e+00	1.64714236e+02	-4.53811280e+01	-4.59706805e+01	-4.53301348e+01	-4.50380560e+01	-6.41814126e+00	1.22547713e+02
914543000	-5.00710781e+00	1.64767960e+02	-4.53678917e+01	-4.67155650e+01	-4.53271881e+01	-4.54250619e+01	-6.41782699e+00	1.22477205e+02
914828571.429	-5.00675602e+00	1.64810228e+02	-4.53659245e+01	-4.73904157e+01	-4.53069409e+01	-4.59374413e+01	-6.43031662e+00	1.22401385e+02
915114142.857	-5.00649157e+00	1.64805651e+02	-4.53899558e+01	-4.75790183e+01	-4.53201525e+01	-4.65284130e+01	-6.43522878e+00	1.22310662e+02
915399714.286	-5.00697173e+00	1.64795877e+02	-4.53562095e+01	-4.77201641e+01	-4.53454026e+01	-4.63909864e+01	-6.43203543e+00	1.22325462e+02
915685285.714	-5.00237160e+00	1.64840688e+02	-4.53681563e+01	-4.83225625e+01	-4.54043824e+01	-4.65679712e+01	-6.44006265e+00	1.22238208e+02
915970857.143	-5.00514316e+00	1.64832308e+02	-4.53508934e+01	-4.89271719e+01	-4.53943247e+01	-4.71009828e+01	-6.45464587e+00	1.22152555e+02
916256428.571	-5.00304635e+00	1.64827816e+02	-4.53616749e+01	-4.95880397e+01	-4.53716820e+01	-4.77994134e+01	-6.46194225e+00	1.22107512e+02
916542000	-5.00308528e+00	1.64869858e+02	-4.53895601e+01	-5.00635322e+01	-4.53764665e+01	-4.81074585e+01	-6.47164156e+00	1.22063354e+02
916827571.429	-4.99931504e+00	1.64847382e+02	-4.53683870e+01	-5.03874370e+01	-4.54541148e+01	-4.84642848e+01	-6.47888785e+00	1.21968794e+02
917113142.857	-5.01077646e+00	1.64883810e+02	-4.53867915e+01	-5.12334533e+01	-4.54070152e+01	-4.96918002e+01	-6.48567970e+00	1.21920139e+02
917398714.286	-5.01036782e+00	1.64877750e+02	-4.54255804e+01	-5.17760579e+01	-4.53602485e+01	-4.97651998e+01	-6.48338080e+00	1.21874005e+02
917684285.714	-5.00895366e+00	1.64898724e+02	-4.54205104e+01	-5.22607772e+01	-4.53609990e+01	-5.00691322e+01	-6.49004338e+00	1.21825386e+02
917969857.143	-5.00139343e+00	1.64882643e+02	-4.53977174e+01	-5.25893876e+01	-4.54533158e+01	-5.11956599e+01	-6.49514140e+00	1.21812417e+02
918255428.571	-4.99931157e+00	1.64893886e+02	-4.54332874e+01	-5.34555907e+01	-4.54086117e+01	-5.15449125e+01	-6.51119391e+00	1.21672639e+02
918541000	-5.00308095e+00	1.64864324e+02	-4.54169742e+01	-5.38994724e+01	-4.54700417e+01	-5.19285573e+01	-6.51500832e+00	1.21683346e+02
918826571.429	-5.00659904e+00	1.64889224e+02	-4.54281909e+01	-5.45379501e+01	-4.55502318e+01	-5.27722105e+01	-6.50751651e+00	1.21618386e+02
919112142.857	-5.00412350e+00	1.64877411e+02	-4.54348204e+01	-5.49890799e+01	-4.54429379e+01	-5.28322268e+01	-6.51201745e+00	1.21508028e+02
919397714.286	-5.00629966e+00	1.64945706e+02	-4.54583438e+01	-5.55838246e+01	-4.54620812e+01	-5.36463080e+01	-6.50752643e+00	1.21427204e+02
919683285.714	-5.00838067e+00	1.64956058e+02	-4.54725915e+01	-5.61399302e+01	-4.54438828e+01	-5.39051594e+01	-6.51653991e+00	1.21418049e+02
919968857.143	-5.00468349e+00	1.64982710e+02	-4.55051118e+01	-5.66186941e+01	-4.54457920e+01	-5.45319363e+01	-6.51059729e+00	1.21358782e+02
920254428.571	-5.00706379e+00	1.64974628e+02	-4.54817004e+01	-5.72746223e+01	-4.55375935e+01	-5.46943649e+01	-6.52071788e+00	1.21375009e+02
920540000	-5.00264811e+00	1.64943292e+02	-4.54958500e+01	-5.76963267e+01	-4.56189424e+01	-5.56381378e+01	-6.51534001e+00	1.21326862e+02
920825571.429	-5.00421727e+00	1.64963710e+02	-4.55295666e+01	-5.82683615e+01	-4.55257171e+01	-5.57392034e+01	-6.51754171e+00	1.21263528e+02
921111142.857	-5.00245565e+00	1.64955735e+02	-4.55597376e+01	-5.90576646e+01	-4.56225012e+01	-5.66374726e+01	-6.52066402e+00	1.21207011e+02
921396714.286	-4.99819023e+00	1.64915075e+02	-4.55464800e+01	-5.96899069e+01	-4.56158686e+01	-5.71126001e+01	-6.51257528e+00	1.21180113e+02
921682285.714	-5.00029931e+00	1.64950046e+02	-4.55865450e+01	-6.03201008e+01	-4.55901391e+01	-5.72449603e+01	-6.50824290e+00	1.21139629e+02
921967857.143	-5.00271467e+00	1.64959412e+02	-4.55759679e+01	-6.10649194e+01	-4.56902078e+01	-5.87067997e+01	-6.50982197e+00	1.21041274e+02
922253428.571	-4.99944396e+00	1.64974655e+02	-4.56812238e+01	-6.14737348e+01	-4.56961610e+01	-5.87385719e+01	-6.50244788e+00	1.20969154e+02
922539000	-5.00378542e+00	1.65018895e+02	-4.56479701e+01	-6.21646288e+01	-4.57604211e+01	-5.90085449e+01	-6.49846315e+00	1.20927240e+02
922824571.429	-5.00243210e+00	1.65010859e+02	-4.56875361e+01	-6.27040808e+01	-4.57098376e+01	-5.96481538e+01	-6.50146026e+00	1.20827485e+02
923110142.857	-4.99392791e+00	1.65019555e+02	-4.57371470e+01	-6.35453479e+01	-4.57753620e+01	-6.05790548e+01	-6.49827143e+00	1.20765842e+02
923395714.286	-4.99036453e+00	1.65036685e+02	-4.57821234e+01	-6.40840548e+01	-4.57628149e+01	-6.10299281e+01	-6.49503217e+00	1.20667099e+02
923681285.714	-4.99374152e+00	1.65022059e+02	-4.58097443e+01	-6.48543938e+01	-4.58305845e+01	-6.17336472e+01	-6.49487226e+00	1.20503126e+02
923966857.143	-4.99227683e+00	1.65056970e+02	-4.58522858e+01	-6.52845741e+01	-4.58823693e+01	-6.23804720e+01	-6.50528790e+00	1.20477245e+02
924252428.571	-4.99119099e+00	1.65053348e+02	-4.59092576e+01	-6.57378831e+01	-4.60032285e+01	-6.22805911e+01	-6.49493248e+00	1.20300783e+02
924538000	-4.99082226e+00	1.65003589e+02	-4.59606892e+01	-6.66367716e+01	-4.59775058e+01	-6.28945476e+01	-6.49187227e+00	1.20286586e+02
924823571.429	-4.98449179e+00	1.65061431e+02	-4.60174553e+01	-6.70506236e+01	-4.60683256e+01	-6.36505734e+01	-6.48641558e+00	1.20135213e+02
925109142.857	-4.98162397e+00	1.65018865e+02	-4.60717881e+01	-6.77796498e+01	-4.62001884e+01	-6.42235683e+01	-6.49078442e+00	1.20032092e+02
925394714.286	-4.98626215e+00	1.65055723e+02	-4.61156341e+01	-6.81748875e+01	-4.62542094e+01	-6.46612957e+01	-6.47770665e+00	1.19920297e+02
925680285.714	-4.98213756e+00	1.65069695e+02	-4.61533910e+01	-6.88417697e+01	-4.61973813e+01	-6.54594213e+01	-6.48609518e+00	1.19814174e+02
925965857.143	-4.98259038e+00	1.65034575e+02	-4.62440305e+01	-6.92666201e+01	-4.62939181e+01	-6.60067283e+01	-6.47692127e+00	1.19734449e+02
926251428.571	-4.97443557e+00	1.65041841e+02	-4.62994501e+01	-6.99106687e+01	-4.63181399e+01	-6.59031356e+01	-6.47382527e+00	1.19633523e+02
926537000	-4.97827939e+00	1.65044736e+02	-4.64176984e+01	-7.05656386e+01	-4.63744115e+01	-6.66670416e+01	-6.46597078e+00	1.19495642e+02
926822571.429	-4.97512361e+00	1.65086632e+02	-4.64629591e+01	-7.07667112e+01	-4.63953667e+01	-6.63568437e+01	-6.46717178e+00	1.19455212e+02
927108142.857	-4.97619751e+00	1.65056614e+02	-4.65385967e+01	-7.12266752e+01	-4.66003622e+01	-6.71742319e+01	-6.46681117e+00	1.19414621e+02
927393714.286	-4.97782963e+00	1.65024512e+02	-4.65736336e+01	-7.16659763e+01	-4.65922469e+01	-6.71986082e+01	-6.47030445e+00	1.19294099e+02
927679285.714	-4.97802543e+00	1.65012287e+02	-4.67130769e+01	-7.20647678e+01	-4.66121366e+01	-6.73810168e+01	-6.46224623e+00	1.19248459e+02
927964857.143	-4.97981374e+00	1.64997857e+02	-4.67901528e+01	-7.24823592e+01	-4.66789345e+01	-6.80668148e+01	-6.46149104e+00	1.19101932e+02
928250428.571	-4.97833975e+00	1.65009376e+02	-4.68448182e+01	-7.29095934e+01	-4.67952866e+01	-6.79480833e+01	-6.46730954e+00	1.18992880e+02
928536000	-4.96665278e+00	1.65055964e+02	-4.69406147e+01	-7.30783541e+01	-4.68077285e+01	-6.87359196e+01	-6.46863055e+00	1.18891956e+02
928821571.429	-4.96702032e+00	1.65117280e+02	-4.70689560e+01	-7.34608883e+01	-4.69512773e+01	-6.86748934e+01	-6.46859548e+00	1.18725436e+02
929107142.857	-4.96473944e+00	1.65116203e+02	-4.70768034e+01	-7.38732756e+01	-4.68977722e+01	-6.85939097e+01	-6.47502630e+00	1.18631065e+02
929392714.286	-4.96169758e+00	1.65101375e+02	-4.71291553e+01	-7.40201816e+01	-4.70273794e+01	-6.92773070e+01	-6.47296799e+00	1.18546648e+02
929678285.714	-4.95678909e+00	1.65110042e+02	-4.72584054e+01	-7.42248246e+01	-4.71042336e+01	-6.99808900e+01	-6.48148613e+00	1.18475415e+02
929963857.143	-4.95040563e+00	1.65087463e+02	-4.73049061e+01	-7.42144482e+01	-4.70900192e+01	-6.91775120e+01	-6.49189863e+00	1.18372029e+02
930249428.571	-4.95424585e+00	1.65109906e+02	-4.73754812e+01	-7.45264869e+01	-4.71805215e+01	-6.95535249e+01	-6.48726710e+00	1.18198096e+02
930535000	-4.95488257e+00	1.65092402e+02	-4.74874136e+01	-7.45432532e+01	-4.72193043e+01	-6.97409400e+01	-6.48698768e+00	1.18078636e+02
930820571.429	-4.95556575e+00	1.65080394e+02	-4.75528081e+01	-7.44251363e+01	-4.72739191e+01	-6.93788726e+01	-6.48727515e+00	1.18030638e+02
931106142.857	-4.95225447e+00	1.65092149e+02	-4.76283583e+01	-7.46181677e+01	-4.73227071e+01	-6.89887847e+01	-6.48082425e+00	1.17875122e+02
931391714.286	-4.94737397e+00	1.65146217e+02	-4.76535678e+01	-7.44457795e+01	-4.73339526e+01	-6.92210045e+01	-6.49884881e+00	1.17685474e+02
931677285.714	-4.94920134e+00	1.65153143e+02	-4.77318606e+01	-7.43094637e+01	-4.73733266e+01	-6.95966042e+01	-6.48752682e+00	1.17539481e+02
931962857.143	-4.95080537e+00	1.65145834e+02	-4.77807190e+01	-7.45085933e+01	-4.74419920e+01	-6.90730796e+01	-6.49689618e+00	1.17407911e+02
932248428.571	-4.94923208e+00	1.65155192e+02	-4.77686978e+01	-7.41936659e+01	-4.73596997e+01	-6.94324920e+01	-6.50467314e+00	1.17253638e+02
932534000	-4.94360331e+00	1.65175849e+02	-4.77640869e+01	-7.42179432e+01	-4.73399455e+01	-6.86932107e+01	-6.50795784e+00	1.17105198e+02
932819571.429	-4.94265367e+00	1.65166819e+02	-4.78324255e+01	-7.43293427e+01	-4.74820952e+01	-6.88721436e+01	-6.50685634e+00	1.16964619e+02
933105142.857	-4.93841082e+00	1.65209263e+02	-4.79041842e+01	-7.41573389e+01	-4.74506981e+01	-6.85762062e+01	-6.51102927e+00	1.16817573e+02
933390714.286	-4.93371568e+00	1.65242695e+02	-4.78953471e+01	-7.38320157e+01	-4.73929326e+01	-6.90973684e+01	-6.51629934e+00	1.16645852e+02
933676285.714	-4.93875240e+00	1.65259930e+02	-4.79390738e+01	-7.39740510e+01	-4.74049713e+01	-6.89306492e+01	-6.52099974e+00	1.16530901e+02
933961857.143	-4.92998328e+00	1.65247711e+02	-4.79087184e+01	-7.40853684e+01	-4.75115813e+01	-6.88224333e+01	-6.51753446e+00	1.16412165e+02
934247428.571	-4.93147000e+00	1.65256067e+02	-4.79483657e+01	-7.39397574e+01	-4.74065741e+01	-6.94009528e+01	-6.52467049e+00	1.16289767e+02
934533000	-4.92974758e+00	1.65255136e+02	-4.79830752e+01	-7.38011188e+01	-4.73882484e+01	-6.93852875e+01	-6.53312699e+00	1.16230305e+02
934818571.429	-4.92778110e+00	1.65282939e+02	-4.79565782e+01	-7.41484066e+01	-4.73539348e+01	-6.88785935e+01	-6.53941557e+00	1.16099164e+02
935104142.857	-4.92972342e+00	1.65282395e+02	-4.79947837e+01	-7.43165732e+01	-4.73856861e+01	-6.93647743e+01	-6.54584759e+00	1.15924893e+02
935389714.286	-4.92751279e+00	1.65307916e+02	-4.79884868e+01	-7.44940070e+01	-4.73848936e+01	-6.99536051e+01	-6.54048366e+00	1.15743560e+02
935675285.714	-4.92236547e+00	1.65319057e+02	-4.79594318e+01	-7.43195645e+01	-4.73260736e+01	-6.96999390e+01	-6.55632677e+00	1.15612115e+02
935960857.143	-4.91585215e+00	1.65268827e+02	-4.80417024e+01	-7.46877763e+01	-4.73003547e+01	-6.92912187e+01	-6.56120624e+00	1.15482718e+02
936246428.571	-4.91721756e+00	1.65294383e+02	-4.80007343e+01	-7.45862786e+01	-4.72951862e+01	-6.93849214e+01	-6.56956905e+00	1.15346432e+02
936532000	-4.92199703e+00	1.65316818e+02	-4.79957121e+01	-7.41088176e+01	-4.72949138e+01	-7.05571540e+01	-6.56574397e+00	1.15158382e+02
936817571.429	-4.91974398e+00	1.65318995e+02	-4.80853737e+01	-7.47570281e+01	-4.72628098e+01	-7.00738788e+01	-6.57839687e+00	1.15026922e+02
937103142.857	-4.92003496e+00	1.65293985e+02	-4.79912881e+01	-7.47336846e+01	-4.73769521e+01	-7.08653150e+01	-6.58838620e+00	1.14906758e+02
937388714.286	-4.91790285e+00	1.65350208e+02	-4.80028159e+01	-7.47479768e+01	-4.72575638e+01	-7.07113456e+01	-6.59185911e+00	1.14829498e+02
937674285.714	-4.91425948e+00	1.65331616e+02	-4.79752366e+01	-7.50026488e+01	-4.72129734e+01	-7.05232179e+01	-6.58906939e+00	1.14686302e+02
937959857.143	-4.91719479e+00	1.65368708e+02	-4.79761684e+01	-7.59413191e+01	-4.72299447e+01	-7.13481697e+01	-6.60548398e+00	1.14530977e+02
938245428.571	-4.90968348e+00	1.65327791e+02	-4.81166424e+01	-7.41022979e+01	-4.72333151e+01	-7.11071414e+01	-6.61302373e+00	1.14388478e+02
938531000	-4.90551017e+00	1.65385663e+02	-4.79633595e+01	-7.55351649e+01	-4.72223609e+01	-7.15472101e+01	-6.61611181e+00	1.14317659e+02
938816571.429	-4.90095128e+00	1.65405293e+02	-4.79323016e+01	-7.53209352e+01	-4.72652968e+01	-7.14959786e+01	-6.63013268e+00	1.14164299e+02
939102142.857	-4.90751867e+00	1.65392504e+02	-4.80087399e+01	-7.55131327e+01	-4.73171895e+01	-7.14950353e+01	-6.63638484e+00	1.13989770e+02
939387714.286	-4.90556021e+00	1.65406514e+02	-4.79662354e+01	-7.56548660e+01	-4.72473558e+01	-7.20659065e+01	-6.64440778e+00	1.13861075e+02
939673285.714	-4.89968619e+00	1.65381994e+02	-4.79574764e+01	-7.59446922e+01	-4.73390188e+01	-7.24124297e+01	-6.65548847e+00	1.13714072e+02
939958857.143	-4.89995541e+00	1.65376457e+02	-4.79188946e+01	-7.61182574e+01	-4.72002993e+01	-7.31013190e+01	-6.66771127e+00	1.13557689e+02
940244428.571	-4.89797241e+00	1.65413511e+02	-4.79206720e+01	-7.62140443e+01	-4.71096357e+01	-7.26449421e+01	-6.66604028e+00	1.13412497e+02
940530000	-4.90173288e+00	1.65452216e+02	-4.78966387e+01	-7.65118316e+01	-4.71809125e+01	-7.31571358e+01	-6.67249646e+00	1.13266396e+02
940815571.429	-4.89417072e+00	1.65435912e+02	-4.79614400e+01	-7.68969345e+01	-4.71388301e+01	-7.30445012e+01	-6.68015525e+00	1.13174415e+02
941101142.857	-4.89830408e+00	1.65471708e+02	-4.79148040e+01	-7.66622363e+01	-4.71599818e+01	-7.45972391e+01	-6.67792933e+00	1.13095580e+02
941386714.286	-4.89112307e+00	1.65398379e+02	-4.78827661e+01	-7.70841480e+01	-4.71578441e+01	-7.46562543e+01	-6.69218587e+00	1.12980192e+02
941672285.714	-4.88677878e+00	1.65449937e+02	-4.78835776e+01	-7.73465084e+01	-4.70480997e+01	-7.44596217e+01	-6.71030373e+00	1.12903269e+02
941957857.143	-4.88492071e+00	1.65457661e+02	-4.78980818e+01	-7.76101113e+01	-4.71004537e+01	-7.43239126e+01	-6.72015939e+00	1.12835954e+02
942243428.571	-4.88438973e+00	1.65462342e+02	-4.78986989e+01	-7.78406045e+01	-4.70902487e+01	-7.49811009e+01	-6.72722275e+00	1.12764093e+02
942529000	-4.88658576e+00	1.65448967e+02	-4.78816262e+01	-7.78357178e+01	-4.70238747e+01	-7.52754062e+01	-6.73461903e+00	1.12720565e+02
942814571.429	-4.88646366e+00	1.65483026e+02	-4.78601485e+01	-7.81969829e+01	-4.70960089e+01	-7.53203647e+01	-6.75067207e+00	1.12582243e+02
943100142.857	-4.87935538e+00	1.65540390e+02	-4.78771255e+01	-7.85175417e+01	-4.71402060e+01	-7.53521631e+01	-6.74987359e+00	1.12566190e+02
943385714.286	-4.87802424e+00	1.65536667e+02	-4.78942630e+01	-7.88989135e+01	-4.70870232e+01	-7.60394878e+01	-6.76495686e+00	1.12526462e+02
943671285.714	-4.87995533e+00	1.65550126e+02	-4.79068960e+01	-7.91251163e+01	-4.70499576e+01	-7.62233918e+01	-6.78383757e+00	1.12382166e+02
943956857.143	-4.87873654e+00	1.65536871e+02	-4.79052118e+01	-7.89440444e+01	-4.70951479e+01	-7.65789084e+01	-6.79475511e+00	1.12307762e+02
944242428.571	-4.87866587e+00	1.65499216e+02	-4.79175119e+01	-7.93829702e+01	-4.71222464e+01	-7.69238858e+01	-6.79987894e+00	1.12282398e+02
944528000	-4.86764673e+00	1.65501566e+02	-4.79166213e+01	-7.95231645e+01	-4.70279787e+01	-7.78928671e+01	-6.80909340e+00	1.12149060e+02
944813571.429	-4.86517789e+00	1.65535897e+02	-4.79301469e+01	-7.93756094e+01	-4.71177712e+01	-7.77447520e+01	-6.82669936e+00	1.12185304e+02
945099142.857	-4.86014530e+00	1.65533815e+02	-4.78675082e+01	-7.97043879e+01	-4.69901253e+01	-7.71087147e+01	-6.82934770e+00	1.12086591e+02
945384714.286	-4.85669447e+00	1.65544406e+02	-4.79058898e+01	-7.99432879e+01	-4.70956920e+01	-7.76188445e+01	-6.85276358e+00	1.11980170e+02
945670285.714	-4.86250027e+00	1.65515902e+02	-4.78725293e+01	-8.00188196e+01	-4.70475353e+01	-7.75083605e+01	-6.86754687e+00	1.11867183e+02
945955857.143	-4.86096486e+00	1.65530020e+02	-4.79021531e+01	-8.03746870e+01	-4.71652029e+01	-7.79622612e+01	-6.88422064e+00	1.11899851e+02
946241428.571	-4.85396934e+00	1.65542271e+02	-4.78929562e+01	-8.05715093e+01	-4.70496118e+01	-7.79980247e+01	-6.89191566e+00	1.11761468e+02
946527000	-4.85313587e+00	1.65578373e+02	-4.79067541e+01	-8.04521137e+01	-4.69279191e+01	-7.85208201e+01	-6.90062112e+00	1.11736788e+02
946812571.429	-4.85075554e+00	1.65613014e+02	-4.78766752e+01	-8.09497941e+01	-4.71177457e+01	-7.74121082e+01	-6.92747625e+00	1.11650137e+02
947098142.857	-4.84337561e+00	1.65635053e+02	-4.78694941e+01	-8.07745867e+01	-4.70294716e+01	-7.92316066e+01	-6.94076466e+00	1.11638668e+02
947383714.286	-4.84252842e+00	1.65620498e+02	-4.78255581e+01	-8.08767278e+01	-4.69526448e+01	-7.89593847e+01	-6.94542126e+00	1.11454532e+02
947669285.714	-4.83929940e+00	1.65621559e+02	-4.77741161e+01	-8.13730669e+01	-4.69034430e+01	-7.90200269e+01	-6.95112504e+00	1.11439314e+02
947954857.143	-4.84085421e+00	1.65601653e+02	-4.77512680e+01	-8.14831906e+01	-4.69402870e+01	-7.92957343e+01	-6.95627169e+00	1.11293800e+02
948240428.571	-4.83204918e+00	1.65634304e+02	-4.76896855e+01	-8.17797137e+01	-4.69409393e+01	-7.93240931e+01	-6.96374518e+00	1.11255346e+02
948526000	-4.83337032e+00	1.65593257e+02	-4.77181296e+01	-8.20435476e+01	-4.69489142e+01	-8.00675752e+01	-6.97857519e+00	1.11276757e+02
948811571.429	-4.83459200e+00	1.65608070e+02	-4.76755109e+01	-8.20098914e+01	-4.67603949e+01	-8.02602422e+01	-6.98540856e+00	1.11235285e+02
949097142.857	-4.82804068e+00	1.65669486e+02	-4.76232847e+01	-8.24141164e+01	-4.69335109e+01	-8.01388455e+01	-7.00600799e+00	1.11234296e+02
949382714.286	-4.84036045e+00	1.65613516e+02	-4.75926586e+01	-8.25354207e+01	-4.67380650e+01	-7.96055636e+01	-7.00539381e+00	1.11009027e+02
949668285.714	-4.82602803e+00	1.65668626e+02	-4.76025769e+01	-8.26519123e+01	-4.67131514e+01	-8.03516925e+01	-7.01415542e+00	1.11019712e+02
949953857.143	-4.82130310e+00	1.65675556e+02	-4.75322549e+01	-8.28692664e+01	-4.67525979e+01	-8.11428646e+01	-7.01640340e+00	1.10847936e+02
950239428.571	-4.82081900e+00	1.65664555e+02	-4.74501388e+01	-8.35491153e+01	-4.67254087e+01	-8.19779054e+01	-7.02281394e+00	1.10877188e+02
950525000	-4.82002515e+00	1.65682371e+02	-4.74723807e+01	-8.35427375e+01	-4.67084930e+01	-8.23692770e+01	-7.02783605e+00	1.10832218e+02
950810571.429	-4.81849914e+00	1.65681463e+02	-4.74699144e+01	-8.40948655e+01	-4.66244221e+01	-8.22489106e+01	-7.05066195e+00	1.10785949e+02
951096142.857	-4.81320184e+00	1.65656274e+02	-4.74409086e+01	-8.46622988e+01	-4.66432984e+01	-8.26516423e+01	-7.05454965e+00	1.10742301e+02
951381714.286	-4.81726875e+00	1.65711608e+02	-4.74172894e+01	-8.45792283e+01	-4.65609647e+01	-8.27986828e+01	-7.04845011e+00	1.10652473e+02
951667285.714	-4.81003036e+00	1.65700451e+02	-4.73504647e+01	-8.52723784e+01	-4.66245619e+01	-8.34654703e+01	-7.07070195e+00	1.10630650e+02
951952857.143	-4.81046796e+00	1.65704884e+02	-4.73521445e+01	-8.55064231e+01	-4.65389132e+01	-8.41877765e+01	-7.07488163e+00	1.10623929e+02
952238428.571	-4.80751479e+00	1.65697842e+02	-4.73077917e+01	-8.59713200e+01	-4.63957799e+01	-8.45231149e+01	-7.08567796e+00	1.10554058e+02
952524000	-4.80891607e+00	1.65762572e+02	-4.73587880e+01	-8.62493383e+01	-4.65367002e+01	-8.48476768e+01	-7.08575391e+00	1.10547610e+02
952809571.429	-4.80456743e+00	1.65756404e+02	-4.72536514e+01	-8.61909139e+01	-4.64680415e+01	-8.48536033e+01	-7.09124214e+00	1.10412740e+02
953095142.857	-4.80472919e+00	1.65787614e+02	-4.72442158e+01	-8.67693428e+01	-4.63891283e+01	-8.49251948e+01	-7.10729392e+00	1.10283929e+02
953380714.286	-4.79172677e+00	1.65797510e+02	-4.72512781e+01	-8.72166069e+01	-4.63447376e+01	-8.54232673e+01	-7.10756430e+00	1.10235678e+02
953666285.714	-4.79825967e+00	1.65810780e+02	-4.72408609e+01	-8.76736060e+01	-4.63901214e+01	-8.58786640e+01	-7.11992150e+00	1.10099266e+02
953951857.143	-4.79000205e+00	1.65780790e+02	-4.72520447e+01	-8.79015078e+01	-4.63664538e+01	-8.60886443e+01	-7.13049308e+00	1.10021777e+02
954237428.571	-4.79195588e+00	1.65775360e+02	-4.71473388e+01	-8.86183098e+01	-4.63443066e+01	-8.68415102e+01	-7.13570880e+00	1.09871895e+02
954523000	-4.79084261e+00	1.65758775e+02	-4.71427356e+01	-8.85002761e+01	-4.63302863e+01	-8.72201820e+01	-7.14006274e+00	1.09766000e+02
954808571.429	-4.79438695e+00	1.65810381e+02	-4.71663504e+01	-8.91553779e+01	-4.62413410e+01	-8.78369552e+01	-7.14780106e+00	1.09655981e+02
955094142.857	-4.78847814e+00	1.65823719e+02	-4.71410938e+01	-8.93068243e+01	-4.63018358e+01	-8.81623582e+01	-7.14804090e+00	1.09516185e+02
955379714.286	-4.78225993e+00	1.65838575e+02	-4.71287856e+01	-8.97408322e+01	-4.63373292e+01	-8.75170629e+01	-7.16035462e+00	1.09411371e+02
955665285.714	-4.78385567e+00	1.65850330e+02	-4.71024592e+01	-9.05240632e+01	-4.62629057e+01	-8.93746144e+01	-7.17642693e+00	1.09295109e+02
955950857.143	-4.77973418e+00	1.65835892e+02	-4.70516622e+01	-9.03215635e+01	-4.62414487e+01	-8.88274999e+01	-7.18135738e+00	1.09185229e+02
956236428.571	-4.77843986e+00	1.65840255e+02	-4.70526560e+01	-9.11319188e+01	-4.61994418e+01	-8.90810806e+01	-7.19613827e+00	1.09006491e+02
956522000	-4.77425183e+00	1.65874037e+02	-4.70558483e+01	-9.15107774e+01	-4.61909190e+01	-8.97390089e+01	-7.20200247e+00	1.08925981e+02
956807571.429	-4.77147554e+00	1.65873667e+02	-4.70111255e+01	-9.19960542e+01	-4.62230220e+01	-9.06575895e+01	-7.20266346e+00	1.08764155e+02
957093142.857	-4.77352803e+00	1.65861670e+02	-4.69820082e+01	-9.20248442e+01	-4.62226289e+01	-9.08054668e+01	-7.22904768e+00	1.08653674e+02
957378714.286	-4.77627508e+00	1.65865387e+02	-4.69997808e+01	-9.26210860e+01	-4.61545194e+01	-9.15318523e+01	-7.23552730e+00	1.08541171e+02
957664285.714	-4.77236618e+00	1.65905659e+02	-4.69255684e+01	-9.28411353e+01	-4.59929599e+01	-9.12503584e+01	-7.24713307e+00	1.08467830e+02
957949857.143	-4.76027190e+00	1.65909732e+02	-4.68898557e+01	-9.34614840e+01	-4.61512870e+01	-9.24355517e+01	-7.26698774e+00	1.08318995e+02
958235428.571	-4.76412925e+00	1.65893559e+02	-4.68939521e+01	-9.38845364e+01	-4.61000837e+01	-9.30199823e+01	-7.28057941e+00	1.08195107e+02
958521000	-4.75897918e+00	1.65928844e+02	-4.69246658e+01	-9.41569199e+01	-4.61198272e+01	-9.30582061e+01	-7.30059027e+00	1.08107902e+02
958806571.429	-4.75077529e+00	1.65888822e+02	-4.68751100e+01	-9.50268188e+01	-4.61193677e+01	-9.44774677e+01	-7.31882014e+00	1.08069544e+02
959092142.857	-4.75834546e+00	1.65877357e+02	-4.68361324e+01	-9.53231390e+01	-4.61111928e+01	-9.40552048e+01	-7.33558790e+00	1.07863472e+02
959377714.286	-4.75177379e+00	1.65892490e+02	-4.67289338e+01	-9.41792205e+01	-4.61066782e+01	-9.45947993e+01	-7.35770451e+00	1.07826865e+02
959663285.714	-4.74926810e+00	1.65936599e+02	-4.68032149e+01	-9.59757552e+01	-4.61221075e+01	-9.49701105e+01	-7.35749534e+00	1.07656873e+02
959948857.143	-4.74950931e+00	1.65913961e+02	-4.68262308e+01	-9.65700012e+01	-4.60399619e+01	-9.47441719e+01	-7.37780173e+00	1.07635052e+02
960234428.571	-4.74703202e+00	1.65939223e+02	-4.67985610e+01	-9.70424523e+01	-4.59900129e+01	-9.58034435e+01	-7.38850688e+00	1.07589307e+02
960520000	-4.73692144e+00	1.65941681e+02	-4.67716532e+01	-9.74761005e+01	-4.59192987e+01	-9.55540335e+01	-7.42447295e+00	1.07469548e+02
960805571.429	-4.73918670e+00	1.65962747e+02	-4.67821666e+01	-9.79426005e+01	-4.60367512e+01	-9.71647681e+01	-7.43622116e+00	1.07322548e+02
961091142.857	-4.73787595e+00	1.65992976e+02	-4.67358751e+01	-9.81180186e+01	-4.60427586e+01	-9.69943359e+01	-7.45241874e+00	1.07299762e+02
961376714.286	-4.73420029e+00	1.65992477e+02	-4.67482338e+01	-9.89124934e+01	-4.60082685e+01	-9.76409498e+01	-7.47208882e+00	1.07170887e+02
961662285.714	-4.73369700e+00	1.65978734e+02	-4.67747270e+01	-9.89764064e+01	-4.58723008e+01	-9.87122132e+01	-7.49521436e+00	1.07127122e+02
961947857.143	-4.73886773e+00	1.66038785e+02	-4.67056629e+01	-9.96140578e+01	-4.59275178e+01	-9.89300700e+01	-7.50333035e+00	1.07023777e+02
962233428.571	-4.72578733e+00	1.65987738e+02	-4.67125283e+01	-1.00229961e+02	-4.60910968e+01	-9.96119599e+01	-7.52163048e+00	1.06932531e+02
962519000	-4.73198891e+00	1.66026903e+02	-4.67580918e+01	-1.00654757e+02	-4.59464490e+01	-9.98438999e+01	-7.54165293e+00	1.06875542e+02
962804571.429	-4.72126420e+00	1.66050261e+02	-4.66774390e+01	-1.01024788e+02	-4.58637898e+01	-9.99370996e+01	-7.55530323e+00	1.06900059e+02
963090142.857	-4.71899328e+00	1.66060431e+02	-4.66751201e+01	-1.01769344e+02	-4.59330398e+01	-9.97636222e+01	-7.58409605e+00	1.06766769e+02
963375714.286	-4.71277463e+00	1.66096059e+02	-4.66512301e+01	-1.02139117e+02	-4.58634270e+01	-1.00941219e+02	-7.59202941e+00	1.06693872e+02
963661285.714	-4.70927865e+00	1.66120387e+02	-4.66540393e+01	-1.02495543e+02	-4.57996389e+01	-1.00941952e+02	-7.61836629e+00	1.06665573e+02
963946857.143	-4.70583243e+00	1.66162321e+02	-4.66695300e+01	-1.02923342e+02	-4.58799500e+01	-1.02216558e+02	-7.63511146e+00	1.06635154e+02
964232428.571	-4.70555462e+00	1.66140313e+02	-4.66510309e+01	-1.03462281e+02	-4.59947723e+01	-1.01329562e+02	-7.66157086e+00	1.06627070e+02
964518000	-4.70252199e+00	1.66137046e+02	-4.66767553e+01	-1.04065483e+02	-4.59074596e+01	-1.02667171e+02	-7.67959817e+00	1.06640214e+02
964803571.429	-4.70814407e+00	1.66202958e+02	-4.66545707e+01	-1.04317759e+02	-4.59196106e+01	-1.03672370e+02	-7.70298736e+00	1.06595561e+02
965089142.857	-4.70248750e+00	1.66195876e+02	-4.66622927e+01	-1.04954979e+02	-4.59072063e+01	-1.03846711e+02	-7.71732601e+00	1.06509050e+02
965374714.286	-4.70025950e+00	1.66169884e+02	-4.66709492e+01	-1.05296015e+02	-4.58909188e+01	-1.04091940e+02	-7.74279228e+00	1.06422917e+02
965660285.714	-4.70012885e+00	1.66205102e+02	-4.66363722e+01	-1.05733107e+02	-4.59720155e+01	-1.04410566e+02	-7.75464271e+00	1.06348824e+02
965945857.143	-4.68966569e+00	1.66205514e+02	-4.66163931e+01	-1.06238455e+02	-4.58254208e+01	-1.05340446e+02	-7.76662766e+00	1.06365586e+02
966231428.571	-4.68756119e+00	1.66275289e+02	-4.66201874e+01	-1.06622813e+02	-4.58500643e+01	-1.05981191e+02	-7.79019789e+00	1.06385986e+02
966517000	-4.68665952e+00	1.66292400e+02	-4.66144530e+01	-1.07136906e+02	-4.58547886e+01	-1.06036417e+02	-7.79873929e+00	1.06344472e+02
966802571.429	-4.67911210e+00	1.66291755e+02	-4.66371759e+01	-1.07799834e+02	-4.58037386e+01	-1.06606128e+02	-7.82200394e+00	1.06324846e+02
967088142.857	-4.67883440e+00	1.66299582e+02	-4.66585375e+01	-1.08220459e+02	-4.58386354e+01	-1.06226364e+02	-7.83452191e+00	1.06339341e+02
967373714.286	-4.67602494e+00	1.66331004e+02	-4.66248373e+01	-1.08825627e+02	-4.59227681e+01	-1.07225005e+02	-7.84740578e+00	1.06286413e+02
967659285.714	-4.67365819e+00	1.66316274e+02	-4.66381477e+01	-1.09073578e+02	-4.57983416e+01	-1.08244973e+02	-7.86750099e+00	1.06384788e+02
967944857.143	-4.67803224e+00	1.66338925e+02	-4.66309005e+01	-1.09562344e+02	-4.57744438e+01	-1.07356525e+02	-7.88844655e+00	1.06264789e+02
968230428.571	-4.67790071e+00	1.66348790e+02	-4.66541410e+01	-1.09919727e+02	-4.57489706e+01	-1.08736673e+02	-7.90518332e+00	1.06344472e+02
968516000	-4.67270694e+00	1.66333400e+02	-4.66552989e+01	-1.10576557e+02	-4.58328507e+01	-1.09771544e+02	-7.91747062e+00	1.06263868e+02
968801571.429	-4.66831895e+00	1.66347835e+02	-4.66574862e+01	-1.11146749e+02	-4.57176690e+01	-1.09783441e+02	-7.92627209e+00	1.06260038e+02
969087142.857	-4.66483958e+00	1.66439035e+02	-4.67023089e+01	-1.11397394e+02	-4.58592499e+01	-1.09931427e+02	-7.94202362e+00	1.06271218e+02
969372714.286	-4.66237884e+00	1.66472823e+02	-4.66595439e+01	-1.11953034e+02	-4.58637148e+01	-1.09994306e+02	-7.95828525e+00	1.06200121e+02
969658285.714	-4.65512799e+00	1.66417436e+02	-4.67267324e+01	-1.12328854e+02	-4.59088791e+01	-1.11147309e+02	-7.95964868e+00	1.06193849e+02
969943857.143	-4.65588605e+00	1.66409944e+02	-4.67060928e+01	-1.12891457e+02	-4.58487139e+01	-1.11724235e+02	-7.98172739e+00	1.06268900e+02
970229428.571	-4.65487218e+00	1.66388039e+02	-4.67203798e+01	-1.13187199e+02	-4.58913290e+01	-1.11706015e+02	-7.99123640e+00	1.06155612e+02
970515000	-4.65839931e+00	1.66452729e+02	-4.67232897e+01	-1.13461815e+02	-4.58162012e+01	-1.12639747e+02	-7.99996338e+00	1.06174363e+02
970800571.429	-4.65562292e+00	1.66468247e+02	-4.66965386e+01	-1.14186083e+02	-4.59148819e+01	-1.13118741e+02	-8.02022486e+00	1.06143826e+02
971086142.857	-4.65147868e+00	1.66449167e+02	-4.67447371e+01	-1.14770070e+02	-4.58451494e+01	-1.13171726e+02	-8.03766197e+00	1.06150136e+02
971371714.286	-4.65622931e+00	1.66454908e+02	-4.67586597e+01	-1.15180913e+02	-4.58960383e+01	-1.13542330e+02	-8.04190089e+00	1.06175262e+02
971657285.714	-4.65161468e+00	1.66489759e+02	-4.67469926e+01	-1.15406247e+02	-4.59197659e+01	-1.13979468e+02	-8.04912940e+00	1.06193628e+02
971942857.143	-4.64761772e+00	1.66517591e+02	-4.67865352e+01	-1.16027497e+02	-4.58273463e+01	-1.15175784e+02	-8.05674914e+00	1.06188515e+02
972228428.571	-4.64601701e+00	1.66526079e+02	-4.67753108e+01	-1.16286700e+02	-4.59179764e+01	-1.14922875e+02	-8.06806908e+00	1.06229150e+02
972514000	-4.64583988e+00	1.66528880e+02	-4.67640805e+01	-1.16415690e+02	-4.58061039e+01	-1.15659790e+02	-8.08646572e+00	1.06257055e+02
972799571.429	-4.64430252e+00	1.66540628e+02	-4.68394209e+01	-1.17258573e+02	-4.58356627e+01	-1.15783638e+02	-8.09618470e+00	1.06196209e+02
973085142.857	-4.64153934e+00	1.66567239e+02	-4.68167276e+01	-1.17466739e+02	-4.58600013e+01	-1.17090402e+02	-8.09961051e+00	1.06180157e+02
973370714.286	-4.63715678e+00	1.66553267e+02	-4.68252788e+01	-1.17865600e+02	-4.60134661e+01	-1.17635101e+02	-8.10989927e+00	1.06195862e+02
973656285.714	-4.63255663e+00	1.66555302e+02	-4.68477753e+01	-1.18151602e+02	-4.58815702e+01	-1.17472306e+02	-8.13192694e+00	1.06183670e+02
973941857.143	-4.63216583e+00	1.66561445e+02	-4.68421267e+01	-1.18455455e+02	-4.59016730e+01	-1.17836796e+02	-8.13888961e+00	1.06281542e+02
974227428.571	-4.62738838e+00	1.66561225e+02	-4.68462439e+01	-1.18931556e+02	-4.59066617e+01	-1.18657953e+02	-8.13933063e+00	1.06347618e+02
974513000	-4.62487320e+00	1.66554662e+02	-4.68312252e+01	-1.19365884e+02	-4.59387674e+01	-1.19381206e+02	-8.15306835e+00	1.06284637e+02
974798571.429	-4.62391289e+00	1.66580997e+02	-4.68512839e+01	-1.19730676e+02	-4.58700120e+01	-1.19310003e+02	-8.14415061e+00	1.06248751e+02
975084142.857	-4.62583958e+00	1.66593295e+02	-4.68727668e+01	-1.20253205e+02	-4.59428610e+01	-1.19504193e+02	-8.14977015e+00	1.06390431e+02
975369714.286	-4.61823504e+00	1.66595804e+02	-4.68532222e+01	-1.20524705e+02	-4.59380122e+01	-1.20437188e+02	-8.14716048e+00	1.06353296e+02
975655285.714	-4.62009512e+00	1.66646716e+02	-4.68571097e+01	-1.21046235e+02	-4.59157545e+01	-1.20857829e+02	-8.15751478e+00	1.06364070e+02
975940857.143	-4.61881516e+00	1.66660335e+02	-4.68717851e+01	-1.21015009e+02	-4.59077106e+01	-1.21345049e+02	-8.16986226e+00	1.06401810e+02
976226428.571	-4.61277102e+00	1.66660747e+02	-4.68771191e+01	-1.21634215e+02	-4.59176342e+01	-1.21739761e+02	-8.16108613e+00	1.06433805e+02
976512000	-4.61233388e+00	1.66635454e+02	-4.68718027e+01	-1.22002710e+02	-4.59387509e+01	-1.22470313e+02	-8.17621190e+00	1.06467478e+02
976797571.429	-4.61284921e+00	1.66652014e+02	-4.69183705e+01	-1.22731101e+02	-4.59914314e+01	-1.22608443e+02	-8.18047886e+00	1.06404858e+02
977083142.857	-4.61322667e+00	1.66702072e+02	-4.69372998e+01	-1.22910775e+02	-4.60176168e+01	-1.22694024e+02	-8.20014191e+00	1.06427899e+02
977368714.286	-4.61232169e+00	1.66729075e+02	-4.68797431e+01	-1.23180890e+02	-4.59358918e+01	-1.23391378e+02	-8.19212176e+00	1.06428958e+02
977654285.714	-4.61441747e+00	1.66772686e+02	-4.69172897e+01	-1.23824903e+02	-4.59594097e+01	-1.23094239e+02	-8.19245094e+00	1.06526216e+02
977939857.143	-4.61017973e+00	1.66760996e+02	-4.69180228e+01	-1.24192412e+02	-4.59955562e+01	-1.24372789e+02	-8.18894137e+00	1.06389098e+02
978225428.571	-4.60664687e+00	1.66791784e+02	-4.68945559e+01	-1.24447222e+02	-4.59696913e+01	-1.24439800e+02	-8.19807594e+00	1.06400602e+02
978511000	-4.60574861e+00	1.66769425e+02	-4.69130396e+01	-1.24863671e+02	-4.59533980e+01	-1.25138944e+02	-8.19884696e+00	1.06418213e+02
978796571.429	-4.59975767e+00	1.66758661e+02	-4.68870784e+01	-1.25399154e+02	-4.60657506e+01	-1.25489874e+02	-8.20443702e+00	1.06378889e+02
979082142.857	-4.59398934e+00	1.66738485e+02	-4.69324619e+01	-1.25712355e+02	-4.59672152e+01	-1.25969346e+02	-8.19230826e+00	1.06396700e+02
979367714.286	-4.59009296e+00	1.66793584e+02	-4.69550385e+01	-1.26327537e+02	-4.59485285e+01	-1.26490062e+02	-8.19881463e+00	1.06423035e+02
979653285.714	-4.58707477e+00	1.66779334e+02	-4.69615498e+01	-1.26603640e+02	-4.60674431e+01	-1.27336605e+02	-8.18960228e+00	1.06414236e+02
979938857.143	-4.58683015e+00	1.66819090e+02	-4.69415338e+01	-1.27081627e+02	-4.59713095e+01	-1.27470024e+02	-8.19280003e+00	1.06461581e+02
980224428.571	-4.57905800e+00	1.66803425e+02	-4.69413905e+01	-1.27416157e+02	-4.59798142e+01	-1.27942503e+02	-8.18992119e+00	1.06423143e+02
980510000	-4.57396900e+00	1.66806917e+02	-4.69828317e+01	-1.27836685e+02	-4.60814615e+01	-1.28387708e+02	-8.19925695e+00	1.06406798e+02
980795571.429	-4.58115794e+00	1.66812477e+02	-4.69512734e+01	-1.28241962e+02	-4.60470156e+01	-1.27952107e+02	-8.19272466e+00	1.06379386e+02
981081142.857	-4.57301452e+00	1.66841942e+02	-4.69692812e+01	-1.28883835e+02	-4.60181379e+01	-1.28813312e+02	-8.19369076e+00	1.06371510e+02
981366714.286	-4.57430865e+00	1.66795034e+02	-4.69604074e+01	-1.28805422e+02	-4.60228615e+01	-1.29770221e+02	-8.19882659e+00	1.06364436e+02
981652285.714	-4.56507375e+00	1.66844459e+02	-4.69674972e+01	-1.29516735e+02	-4.60382188e+01	-1.29814958e+02	-8.19092586e+00	1.06293951e+02
981937857.143	-4.57102007e+00	1.66859392e+02	-4.70111445e+01	-1.29957086e+02	-4.61268837e+01	-1.29901176e+02	-8.18075999e+00	1.06373678e+02
982223428.571	-4.56032139e+00	1.66868653e+02	-4.69859139e+01	-1.30292091e+02	-4.60979597e+01	-1.30698797e+02	-8.18629403e+00	1.06325384e+02
982509000	-4.56189620e+00	1.66869151e+02	-4.69737576e+01	-1.30598507e+02	-4.60807656e+01	-1.30868636e+02	-8.19729879e+00	1.06324044e+02
982794571.429	-4.55558944e+00	1.66872833e+02	-4.69921861e+01	-1.31078569e+02	-4.60536356e+01	-1.31329342e+02	-8.18449953e+00	1.06212297e+02
983080142.857	-4.55985105e+00	1.66867720e+02	-4.69564438e+01	-1.31219358e+02	-4.60501338e+01	-1.31532922e+02	-8.18851338e+00	1.06235417e+02
983365714.286	-4.55614432e+00	1.66900368e+02	-4.70148798e+01	-1.31740797e+02	-4.60588472e+01	-1.32544784e+02	-8.17767016e+00	1.06280583e+02
983651285.714	-4.55932511e+00	1.66899440e+02	-4.70115267e+01	-1.32181184e+02	-4.61507447e+01	-1.32588987e+02	-8.18451946e+00	1.06258408e+02
983936857.143	-4.55827498e+00	1.66886570e+02	-4.70422667e+01	-1.32612563e+02	-4.61071658e+01	-1.33145007e+02	-8.17694362e+00	1.06252259e+02
984222428.571	-4.55144927e+00	1.66889588e+02	-4.70390993e+01	-1.33078353e+02	-4.60783246e+01	-1.33401459e+02	-8.18506619e+00	1.06223532e+02
984508000	-4.55153909e+00	1.66905210e+02	-4.70424065e+01	-1.33454960e+02	-4.60756789e+01	-1.33484275e+02	-8.18399861e+00	1.06239764e+02
984793571.429	-4.54573046e+00	1.66908971e+02	-4.70558445e+01	-1.33862888e+02	-4.60884700e+01	-1.34356694e+02	-8.19047048e+00	1.06238887e+02
985079142.857	-4.54368750e+00	1.66933708e+02	-4.70558483e+01	-1.34344238e+02	-4.61404625e+01	-1.35005436e+02	-8.17791452e+00	1.06234346e+02
985364714.286	-4.54532179e+00	1.66928766e+02	-4.70708486e+01	-1.34745303e+02	-4.60285581e+01	-1.35414583e+02	-8.16675893e+00	1.06154766e+02
985650285.714	-4.54414583e+00	1.66941934e+02	-4.70413602e+01	-1.35151414e+02	-4.61313368e+01	-1.35839989e+02	-8.18391137e+00	1.06242853e+02
985935857.143	-4.54387858e+00	1.66959275e+02	-4.70907416e+01	-1.35551206e+02	-4.60744466e+01	-1.36650751e+02	-8.18106730e+00	1.06238873e+02
986221428.571	-4.54933063e+00	1.66942534e+02	-4.70990871e+01	-1.35749764e+02	-4.62000638e+01	-1.36525971e+02	-8.18519122e+00	1.06229540e+02
986507000	-4.53725813e+00	1.66982028e+02	-4.71334892e+01	-1.36196750e+02	-4.61374601e+01	-1.37130076e+02	-8.18670017e+00	1.06149729e+02
986792571.429	-4.52937401e+00	1.67019112e+02	-4.71249976e+01	-1.36773104e+02	-4.62225816e+01	-1.37453770e+02	-8.19098948e+00	1.06190722e+02
987078142.857	-4.52712307e+00	1.67005348e+02	-4.71352363e+01	-1.36835487e+02	-4.61087752e+01	-1.37744379e+02	-8.19716191e+00	1.06053113e+02
987363714.286	-4.52904504e+00	1.67014172e+02	-4.71355886e+01	-1.37293667e+02	-4.61675937e+01	-1.38072404e+02	-8.19867789e+00	1.06010733e+02
987649285.714	-4.52705985e+00	1.67020905e+02	-4.71207554e+01	-1.38069713e+02	-4.62456839e+01	-1.38895979e+02	-8.19663456e+00	1.05932235e+02
987934857.143	-4.51982576e+00	1.67009426e+02	-4.71617871e+01	-1.38138326e+02	-4.62123280e+01	-1.39218517e+02	-8.20001264e+00	1.05939460e+02
988220428.571	-4.51712429e+00	1.67038755e+02	-4.71597736e+01	-1.38504782e+02	-4.61791604e+01	-1.39896834e+02	-8.20781651e+00	1.05866735e+02
988506000	-4.51619856e+00	1.67044145e+02	-4.71807868e+01	-1.38919297e+02	-4.61490769e+01	-1.39871937e+02	-8.20267096e+00	1.05821439e+02
988791571.429	-4.51121137e+00	1.67026351e+02	-4.71942620e+01	-1.39313465e+02	-4.61777071e+01	-1.40438670e+02	-8.19543942e+00	1.05772698e+02
989077142.857	-4.51274096e+00	1.67056153e+02	-4.72084927e+01	-1.39405139e+02	-4.61608695e+01	-1.40609873e+02	-8.20612947e+00	1.05777542e+02
989362714.286	-4.51826036e+00	1.67006435e+02	-4.72391922e+01	-1.40106947e+02	-4.62509643e+01	-1.41511043e+02	-8.19766733e+00	1.05694904e+02
989648285.714	-4.51329415e+00	1.67071524e+02	-4.72143756e+01	-1.40747973e+02	-4.62386428e+01	-1.41708308e+02	-8.20172170e+00	1.05637109e+02
989933857.143	-4.50073366e+00	1.67104589e+02	-4.71996598e+01	-1.40741471e+02	-4.62397700e+01	-1.42033214e+02	-8.20496222e+00	1.05571357e+02
990219428.571	-4.50275730e+00	1.67119260e+02	-4.72297627e+01	-1.41405545e+02	-4.61927517e+01	-1.42788920e+02	-8.19922543e+00	1.05571519e+02
990505000	-4.49827899e+00	1.67062314e+02	-4.72435361e+01	-1.41666037e+02	-4.61721914e+01	-1.43123823e+02	-8.20679265e+00	1.05520259e+02
990790571.429	-4.49429678e+00	1.67116265e+02	-4.72358591e+01	-1.41957571e+02	-4.62199723e+01	-1.43522597e+02	-8.19906795e+00	1.05344687e+02
991076142.857	-4.49160385e+00	1.67128660e+02	-4.72577708e+01	-1.42398466e+02	-4.62554658e+01	-1.44759941e+02	-8.20763374e+00	1.05266004e+02
991361714.286	-4.48821183e+00	1.67116419e+02	-4.72441432e+01	-1.42832800e+02	-4.62853922e+01	-1.45137995e+02	-8.21679136e+00	1.05249868e+02
991647285.714	-4.48425939e+00	1.67087806e+02	-4.72418220e+01	-1.43049805e+02	-4.62103846e+01	-1.44718781e+02	-8.21434326e+00	1.05144822e+02
991932857.143	-4.48523896e+00	1.67100395e+02	-4.72968668e+01	-1.43690493e+02	-4.62919782e+01	-1.45653447e+02	-8.21107589e+00	1.05216126e+02
992218428.571	-4.47923255e+00	1.67124126e+02	-4.72714164e+01	-1.43938177e+02	-4.63022458e+01	-1.46407177e+02	-8.20683521e+00	1.05102877e+02
992504000	-4.47625871e+00	1.67152382e+02	-4.72919999e+01	-1.44117762e+02	-4.62069624e+01	-1.46292605e+02	-8.21156235e+00	1.05180298e+02
992789571.429	-4.46716047e+00	1.67187841e+02	-4.72541046e+01	-1.44646032e+02	-4.63165794e+01	-1.46639609e+02	-8.21579531e+00	1.05130872e+02
993075142.857	-4.46624141e+00	1.67200504e+02	-4.72863102e+01	-1.45143868e+02	-4.62500792e+01	-1.47641041e+02	-8.22612715e+00	1.05118374e+02
993360714.286	-4.46743491e+00	1.67180915e+02	-4.72665773e+01	-1.45585265e+02	-4.63283663e+01	-1.47387600e+02	-8.22915554e+00	1.05055065e+02
993646285.714	-4.46710929e+00	1.67219547e+02	-4.72766510e+01	-1.45975182e+02	-4.63401434e+01	-1.48356580e+02	-8.22743447e+00	1.05088640e+02
993931857.143	-4.46584939e+00	1.67222393e+02	-4.73088597e+01	-1.46266796e+02	-4.62724651e+01	-1.48947792e+02	-8.22635536e+00	1.05084267e+02
994217428.571	-4.46560924e+00	1.67188013e+02	-4.73093989e+01	-1.46662539e+02	-4.63194497e+01	-1.50304878e+02	-8.22644731e+00	1.05081327e+02
994503000	-4.45606728e+00	1.67198238e+02	-4.72995606e+01	-1.47527533e+02	-4.62764446e+01	-1.49971309e+02	-8.22856585e+00	1.05037862e+02
994788571.429	-4.45843529e+00	1.67171710e+02	-4.73518933e+01	-1.47726926e+02	-4.63388168e+01	-1.50395313e+02	-8.23276021e+00	1.05013371e+02
995074142.857	-4.46262993e+00	1.67219508e+02	-4.73793467e+01	-1.48199342e+02	-4.62927918e+01	-1.50777159e+02	-8.22775165e+00	1.04999203e+02
995359714.286	-4.45837563e+00	1.67258525e+02	-4.73933955e+01	-1.48658814e+02	-4.64145041e+01	-1.51276942e+02	-8.22047001e+00	1.04926869e+02
995645285.714	-4.45550368e+00	1.67292198e+02	-4.74268723e+01	-1.48971715e+02	-4.63349305e+01	-1.51660675e+02	-8.21713864e+00	1.04897038e+02
995930857.143	-4.45788161e+00	1.67285657e+02	-4.74579509e+01	-1.49739244e+02	-4.64206665e+01	-1.52097086e+02	-8.20998813e+00	1.04870685e+02
996216428.571	-4.45207487e+00	1.67265494e+02	-4.74440937e+01	-1.49792474e+02	-4.64713070e+01	-1.52371618e+02	-8.20186056e+00	1.04924202e+02
996502000	-4.44700784e+00	1.67298310e+02	-4.74888133e+01	-1.50449833e+02	-4.63992515e+01	-1.53076676e+02	-8.20182919e+00	1.04888934e+02
996787571.429	-4.44146594e+00	1.67337546e+02	-4.74730704e+01	-1.50878811e+02	-4.65130961e+01	-1.52849466e+02	-8.19549512e+00	1.04934868e+02
997073142.857	-4.44487142e+00	1.67331810e+02	-4.75571457e+01	-1.51107820e+02	-4.65541471e+01	-1.54466192e+02	-8.18882281e+00	1.04814292e+02
997358714.286	-4.44125051e+00	1.67316927e+02	-4.75461180e+01	-1.51491503e+02	-4.64965794e+01	-1.54270006e+02	-8.18688644e+00	1.04834097e+02
997644285.714	-4.43968068e+00	1.67319651e+02	-4.75418921e+01	-1.51583136e+02	-4.66099254e+01	-1.54493976e+02	-8.17846863e+00	1.04836711e+02
997929857.143	-4.44196921e+00	1.67318171e+02	-4.76347685e+01	-1.52134562e+02	-4.66411361e+01	-1.54654709e+02	-8.15455670e+00	1.04839127e+02
998215428.571	-4.43776406e+00	1.67331670e+02	-4.76669662e+01	-1.52327718e+02	-4.66381064e+01	-1.56211612e+02	-8.15736975e+00	1.04764572e+02
998501000	-4.43657419e+00	1.67338119e+02	-4.76753549e+01	-1.52646625e+02	-4.67256183e+01	-1.55815256e+02	-8.14607025e+00	1.04858473e+02
998786571.429	-4.43372568e+00	1.67370200e+02	-4.77266267e+01	-1.52742811e+02	-4.66756515e+01	-1.56102772e+02	-8.13086709e+00	1.04729228e+02
999072142.857	-4.42804544e+00	1.67362625e+02	-4.77827276e+01	-1.53122784e+02	-4.67257516e+01	-1.55234261e+02	-8.11700194e+00	1.04772137e+02
999357714.286	-4.43274995e+00	1.67404768e+02	-4.77927256e+01	-1.53432234e+02	-4.67802200e+01	-1.56976893e+02	-8.10809188e+00	1.04676242e+02
999643285.714	-4.43279587e+00	1.67359847e+02	-4.77937915e+01	-1.53884863e+02	-4.68250746e+01	-1.56905366e+02	-8.08747153e+00	1.04603834e+02
999928857.143	-4.42909950e+00	1.67451841e+02	-4.77973177e+01	-1.53858173e+02	-4.68547670e+01	-1.56814660e+02	-8.08659231e+00	1.04638267e+02
1000214428.57	-4.42806085e+00	1.67369850e+02	-4.78306026e+01	-1.54173465e+02	-4.67326718e+01	-1.58092352e+02	-8.08753673e+00	1.04476666e+02
1000500000	-4.42334927e+00	1.67419862e+02	-4.78662530e+01	-1.54595420e+02	-4.67421539e+01	-1.57463063e+02	-8.07583326e+00	1.04534882e+02
1000785571.43	-4.42556995e+00	1.67431902e+02	-4.78883590e+01	-1.54990457e+02	-4.69104531e+01	-1.58565034e+02	-8.05801858e+00	1.04587625e+02
1001071142.86	-4.41750682e+00	1.67470945e+02	-4.78566778e+01	-1.55209325e+02	-4.68417955e+01	-1.58469363e+02	-8.06160198e+00	1.04542784e+02
1001356714.29	-4.42029089e+00	1.67425163e+02	-4.79080518e+01	-1.55130908e+02	-4.68349837e+01	-1.58761884e+02	-8.03620905e+00	1.04437939e+02
1001642285.71	-4.41689419e+00	1.67414294e+02	-4.78878362e+01	-1.55339861e+02	-4.69097187e+01	-1.58512920e+02	-8.02345121e+00	1.04406178e+02
1001927857.14	-4.41951827e+00	1.67436365e+02	-4.79548770e+01	-1.55262947e+02	-4.68662380e+01	-1.59534685e+02	-8.01161210e+00	1.04427948e+02
1002213428.57	-4.41539781e+00	1.67468353e+02	-4.79534425e+01	-1.55536739e+02	-4.68330927e+01	-1.58949192e+02	-8.01550505e+00	1.04453167e+02
1002499000	-4.42057875e+00	1.67445866e+02	-4.79356047e+01	-1.55700575e+02	-4.70417172e+01	-1.59279020e+02	-8.00060973e+00	1.04394854e+02
1002784571.43	-4.41861100e+00	1.67470553e+02	-4.79130238e+01	-1.56481376e+02	-4.69295369e+01	-1.60197155e+02	-7.98884623e+00	1.04238990e+02
1003070142.86	-4.40813400e+00	1.67469762e+02	-4.78815520e+01	-1.56195420e+02	-4.68821198e+01	-1.60354281e+02	-7.99211168e+00	1.04248461e+02
1003355714.29	-4.41309824e+00	1.67500875e+02	-4.79182863e+01	-1.56701870e+02	-4.69411554e+01	-1.60324787e+02	-7.98191924e+00	1.04158550e+02
1003641285.71	-4.41029041e+00	1.67503381e+02	-4.79065730e+01	-1.56712302e+02	-4.69153295e+01	-1.61158531e+02	-7.96241164e+00	1.04197051e+02
1003926857.14	-4.40765275e+00	1.67455263e+02	-4.79165106e+01	-1.57218447e+02	-4.69185356e+01	-1.61513103e+02	-7.96248160e+00	1.04163832e+02
1004212428.57	-4.40624070e+00	1.67388985e+02	-4.79214209e+01	-1.57250688e+02	-4.70012455e+01	-1.61286412e+02	-7.96014705e+00	1.03996790e+02
1004498000	-4.40181816e+00	1.67451932e+02	-4.78989682e+01	-1.57285506e+02	-4.70370539e+01	-1.62015058e+02	-7.95501940e+00	1.03956568e+02
1004783571.43	-4.40423556e+00	1.67521474e+02	-4.79146451e+01	-1.57949805e+02	-4.69156441e+01	-1.62066086e+02	-7.94109062e+00	1.03986129e+02
1005069142.86	-4.39745019e+00	1.67467157e+02	-4.78868094e+01	-1.58002310e+02	-4.69583010e+01	-1.62187161e+02	-7.94528218e+00	1.03819466e+02
1005354714.29	-4.40278738e+00	1.67498700e+02	-4.78602872e+01	-1.58792355e+02	-4.68631577e+01	-1.62972855e+02	-7.94505615e+00	1.03857900e+02
1005640285.71	-4.39500861e+00	1.67469619e+02	-4.78421261e+01	-1.58361661e+02	-4.69317207e+01	-1.62812006e+02	-7.95394643e+00	1.03780268e+02
1005925857.14	-4.39432787e+00	1.67483488e+02	-4.78387179e+01	-1.58809731e+02	-4.70130952e+01	-1.62967081e+02	-7.94476975e+00	1.03647044e+02
1006211428.57	-4.39204712e+00	1.67481722e+02	-4.78829647e+01	-1.59559075e+02	-4.69595054e+01	-1.63699135e+02	-7.94054414e+00	1.03623953e+02
1006497000	-4.39299784e+00	1.67480409e+02	-4.78282136e+01	-1.60056147e+02	-4.69851275e+01	-1.64836610e+02	-7.93952296e+00	1.03522053e+02
1006782571.43	-4.38934297e+00	1.67502610e+02	-4.78236124e+01	-1.60168718e+02	-4.69826519e+01	-1.64647330e+02	-7.93398755e+00	1.03470144e+02
1007068142.86	-4.39203059e+00	1.67521873e+02	-4.78488280e+01	-1.60494027e+02	-4.69159407e+01	-1.64390384e+02	-7.91795166e+00	1.03443082e+02
1007353714.29	-4.39135012e+00	1.67468818e+02	-4.78335206e+01	-1.60875294e+02	-4.70013119e+01	-1.65165749e+02	-7.91902454e+00	1.03451057e+02
1007639285.71	-4.39162145e+00	1.67475351e+02	-4.78585714e+01	-1.60852409e+02	-4.69085220e+01	-1.65573554e+02	-7.92023516e+00	1.03332487e+02
1007924857.14	-4.38783350e+00	1.67444437e+02	-4.78270810e+01	-1.61369323e+02	-4.70208068e+01	-1.65122750e+02	-7.92792651e+00	1.03243956e+02
1008210428.57	-4.38924721e+00	1.67426213e+02	-4.78454685e+01	-1.61872813e+02	-4.69836238e+01	-1.66557935e+02	-7.92430692e+00	1.03211584e+02
1008496000	-4.38070589e+00	1.67483889e+02	-4.78194266e+01	-1.61987683e+02	-4.70051265e+01	-1.66322536e+02	-7.90912034e+00	1.03126944e+02
1008781571.43	-4.37904859e+00	1.67491925e+02	-4.78268134e+01	-1.62266488e+02	-4.68447194e+01	-1.67037704e+02	-7.90447962e+00	1.03025064e+02
1009067142.86	-4.38358896e+00	1.67433730e+02	-4.78404875e+01	-1.62793050e+02	-4.68907041e+01	-1.67091322e+02	-7.91338047e+00	1.03000266e+02
1009352714.29	-4.37773793e+00	1.67443829e+02	-4.78228892e+01	-1.63485393e+02	-4.69373741e+01	-1.67892381e+02	-7.89941137e+00	1.02981977e+02
1009638285.71	-4.37672009e+00	1.67430125e+02	-4.79022598e+01	-1.63468392e+02	-4.70103660e+01	-1.68315801e+02	-7.89628615e+00	1.02956400e+02
1009923857.14	-4.37421344e+00	1.67444039e+02	-4.78558874e+01	-1.63818225e+02	-4.69139717e+01	-1.68985786e+02	-7.88138479e+00	1.02977853e+02
1010209428.57	-4.36811846e+00	1.67402986e+02	-4.78874865e+01	-1.64185486e+02	-4.69412613e+01	-1.68789237e+02	-7.87630660e+00	1.02825984e+02
1010495000	-4.36905284e+00	1.67440176e+02	-4.78135108e+01	-1.64511544e+02	-4.68646269e+01	-1.69086120e+02	-7.87871845e+00	1.02742683e+02
1010780571.43	-4.36932529e+00	1.67417310e+02	-4.78489539e+01	-1.65079616e+02	-4.70214989e+01	-1.69720961e+02	-7.87357408e+00	1.02723233e+02
1011066142.86	-4.36758410e+00	1.67409072e+02	-4.78357482e+01	-1.65365534e+02	-4.70201909e+01	-1.70029555e+02	-7.88004978e+00	1.02779687e+02
1011351714.29	-4.36228076e+00	1.67420930e+02	-4.78508394e+01	-1.65627049e+02	-4.70279110e+01	-1.69601659e+02	-7.87420319e+00	1.02799040e+02
1011637285.71	-4.35671086e+00	1.67391691e+02	-4.78548202e+01	-1.66012639e+02	-4.70399229e+01	-1.70952486e+02	-7.86643892e+00	1.02839362e+02
1011922857.14	-4.35401396e+00	1.67405057e+02	-4.78442810e+01	-1.66635433e+02	-4.70816120e+01	-1.70931226e+02	-7.85163467e+00	1.02688757e+02
1012208428.57	-4.36056915e+00	1.67381796e+02	-4.79049019e+01	-1.66567481e+02	-4.71527775e+01	-1.71531738e+02	-7.85572195e+00	1.02688518e+02
1012494000	-4.36035225e+00	1.67380767e+02	-4.79019625e+01	-1.67108992e+02	-4.69456283e+01	-1.71839587e+02	-7.85364172e+00	1.02554239e+02
1012779571.43	-4.35535861e+00	1.67398614e+02	-4.78635609e+01	-1.67292365e+02	-4.70446254e+01	-1.71916366e+02	-7.84622619e+00	1.02510075e+02
1013065142.86	-4.35167037e+00	1.67378921e+02	-4.79036412e+01	-1.67423935e+02	-4.70495312e+01	-1.71859029e+02	-7.83653307e+00	1.02512816e+02
1013350714.29	-4.35026866e+00	1.67368407e+02	-4.78903611e+01	-1.67771328e+02	-4.70650917e+01	-1.72804463e+02	-7.82520498e+00	1.02415632e+02
1013636285.71	-4.35147431e+00	1.67308882e+02	-4.79510154e+01	-1.68227110e+02	-4.71146263e+01	-1.74026394e+02	-7.83129369e+00	1.02394314e+02
1013921857.14	-4.35081595e+00	1.67344475e+02	-4.79430846e+01	-1.68533373e+02	-4.71569634e+01	-1.74218262e+02	-7.81655718e+00	1.02300238e+02
1014207428.57	-4.34909943e+00	1.67335589e+02	-4.79389244e+01	-1.69166385e+02	-4.72481418e+01	-1.73857668e+02	-7.80727291e+00	1.02247535e+02
1014493000	-4.35118683e+00	1.67368465e+02	-4.79711363e+01	-1.69183429e+02	-4.70981657e+01	-1.74842503e+02	-7.81516061e+00	1.02282599e+02
1014778571.43	-4.35476071e+00	1.67330944e+02	-4.79708280e+01	-1.69503087e+02	-4.71484608e+01	-1.74783893e+02	-7.80027247e+00	1.02213926e+02
1015064142.86	-4.35201284e+00	1.67363069e+02	-4.79785769e+01	-1.69788666e+02	-4.72398045e+01	-1.74981311e+02	-7.79148591e+00	1.02077664e+02
1015349714.29	-4.34662708e+00	1.67311188e+02	-4.80017967e+01	-1.70264662e+02	-4.72794646e+01	-1.75008199e+02	-7.79022784e+00	1.01933046e+02
1015635285.71	-4.33881609e+00	1.67319963e+02	-4.80016595e+01	-1.70212067e+02	-4.71539729e+01	-1.76290596e+02	-7.78305382e+00	1.01899759e+02
1015920857.14	-4.33924852e+00	1.67269967e+02	-4.80685917e+01	-1.70801537e+02	-4.72534815e+01	-1.76166541e+02	-7.77004689e+00	1.01761207e+02
1016206428.57	-4.33805342e+00	1.67252802e+02	-4.80414665e+01	-1.71228085e+02	-4.73398219e+01	-1.77706761e+02	-7.77528961e+00	1.01614972e+02
1016492000	-4.33826646e+00	1.67277521e+02	-4.80767499e+01	-1.70957388e+02	-4.73646867e+01	-1.76468591e+02	-7.76799026e+00	1.01620271e+02
1016777571.43	-4.33497952e+00	1.67259058e+02	-4.80634998e+01	-1.71803105e+02	-4.73339371e+01	-1.78020705e+02	-7.75610823e+00	1.01524811e+02
1017063142.86	-4.32914054e+00	1.67268883e+02	-4.80959061e+01	-1.71963718e+02	-4.73012120e+01	-1.77770153e+02	-7.75629188e+00	1.01430844e+02
1017348714.29	-4.33153665e+00	1.67249005e+02	-4.80857202e+01	-1.72241320e+02	-4.74035133e+01	-1.78149792e+02	-7.73727962e+00	1.01278629e+02
1017634285.71	-4.33587734e+00	1.67217329e+02	-4.80969513e+01	-1.72155183e+02	-4.75218656e+01	-1.78472305e+02	-7.72584277e+00	1.01287389e+02
1017919857.14	-4.32903650e+00	1.67206187e+02	-4.81577025e+01	-1.72279844e+02	-4.74081428e+01	-1.79013814e+02	-7.72211175e+00	1.01263570e+02
1018205428.57	-4.32439951e+00	1.67234790e+02	-4.80998336e+01	-1.72557981e+02	-4.75297508e+01	-1.78541480e+02	-7.71978792e+00	1.01105279e+02
1018491000	-4.32636711e+00	1.67195721e+02	-4.81150506e+01	-1.73002308e+02	-4.75005481e+01	-1.78631398e+02	-7.71431602e+00	1.01119427e+02
1018776571.43	-4.32534255e+00	1.67189451e+02	-4.81118507e+01	-1.73125312e+02	-4.75027492e+01	-1.78966667e+02	-7.71232968e+00	1.01024969e+02
1019062142.86	-4.32363494e+00	1.67169846e+02	-4.80874523e+01	-1.73243081e+02	-4.74855454e+01	1.79686229e+02	-7.70665690e+00	1.00935166e+02
1019347714.29	-4.31980747e+00	1.67117996e+02	-4.81680482e+01	-1.73441766e+02	-4.75021581e+01	-1.79471046e+02	-7.70810016e+00	1.00848897e+02
1019633285.71	-4.32014598e+00	1.67101476e+02	-4.81192133e+01	-1.73501543e+02	-4.75475397e+01	-1.79851740e+02	-7.69017022e+00	1.00720690e+02
1019918857.14	-4.32167576e+00	1.67112542e+02	-4.81522509e+01	-1.73423174e+02	-4.75890118e+01	-1.79843389e+02	-7.68120431e+00	1.00638352e+02
1020204428.57	-4.31963121e+00	1.67095968e+02	-4.81457113e+01	-1.74139266e+02	-4.75487604e+01	1.79778235e+02	-7.68023346e+00	1.00550599e+02
1020490000	-4.31471353e+00	1.67091757e+02	-4.81258078e+01	-1.74011589e+02	-4.75252836e+01	1.78979992e+02	-7.67425654e+00	1.00395936e+02
1020775571.43	-4.30826485e+00	1.67072884e+02	-4.81511211e+01	-1.74007510e+02	-4.76470096e+01	1.78958521e+02	-7.67465195e+00	1.00349699e+02
1021061142.86	-4.31006851e+00	1.67071175e+02	-4.81195995e+01	-1.74287418e+02	-4.74726323e+01	1.79482439e+02	-7.66937091e+00	1.00302086e+02
1021346714.29	-4.30831842e+00	1.67092402e+02	-4.80915048e+01	-1.74532299e+02	-4.75958345e+01	1.79153726e+02	-7.66290521e+00	1.00188645e+02
1021632285.71	-4.30357263e+00	1.67033782e+02	-4.80958984e+01	-1.74563155e+02	-4.76506895e+01	1.78525059e+02	-7.65462030e+00	1.00061742e+02
1021917857.14	-4.29473724e+00	1.67003446e+02	-4.80659348e+01	-1.74975005e+02	-4.74906618e+01	1.78125269e+02	-7.65411820e+00	1.00000175e+02
1022203428.57	-4.29343505e+00	1.67004829e+02	-4.81158907e+01	-1.74895081e+02	-4.76301872e+01	1.77870357e+02	-7.64924084e+00	9.99223608e+01
1022489000	-4.29231408e+00	1.67043540e+02	-4.80632329e+01	-1.75196020e+02	-4.76103674e+01	1.77942615e+02	-7.64338875e+00	9.98348267e+01
1022774571.43	-4.29584055e+00	1.67037595e+02	-4.80471682e+01	-1.75374369e+02	-4.77852962e+01	1.77570359e+02	-7.64886090e+00	9.97029468e+01
1023060142.86	-4.29182619e+00	1.67020643e+02	-4.80654767e+01	-1.75545357e+02	-4.76687458e+01	1.77470378e+02	-7.65028000e+00	9.95404780e+01
1023345714.29	-4.28731810e+00	1.67011824e+02	-4.80357951e+01	-1.75968753e+02	-4.77131301e+01	1.76595119e+02	-7.64952740e+00	9.94591772e+01
1023631285.71	-4.28462361e+00	1.66990962e+02	-4.79590418e+01	-1.75962395e+02	-4.76273200e+01	1.77232478e+02	-7.64655211e+00	9.93847834e+01
1023916857.14	-4.28666078e+00	1.66994835e+02	-4.80140310e+01	-1.76110395e+02	-4.76402577e+01	1.77136076e+02	-7.64034872e+00	9.93088213e+01
1024202428.57	-4.28558125e+00	1.66988154e+02	-4.79118816e+01	-1.76404123e+02	-4.76294241e+01	1.76331930e+02	-7.64354322e+00	9.91857602e+01
1024488000	-4.27959305e+00	1.66986275e+02	-4.79830969e+01	-1.76548016e+02	-4.76327644e+01	1.75791461e+02	-7.64191020e+00	9.90645111e+01
1024773571.43	-4.28240006e+00	1.66979318e+02	-4.79789551e+01	-1.76946015e+02	-4.75049041e+01	1.76543765e+02	-7.64760894e+00	9.89628164e+01
1025059142.86	-4.27889572e+00	1.67006658e+02	-4.79273618e+01	-1.77283932e+02	-4.74800537e+01	1.76114992e+02	-7.63134431e+00	9.89295398e+01
1025344714.29	-4.28090686e+00	1.66944649e+02	-4.78837239e+01	-1.76842125e+02	-4.75698429e+01	1.75543445e+02	-7.63688911e+00	9.87615501e+01
1025630285.71	-4.27453466e+00	1.66923875e+02	-4.78390808e+01	-1.77446200e+02	-4.74847748e+01	1.75685168e+02	-7.62896696e+00	9.86676928e+01
1025915857.14	-4.27354735e+00	1.66938358e+02	-4.78306851e+01	-1.77578546e+02	-4.74547010e+01	1.75393214e+02	-7.63636293e+00	9.85359753e+01
1026201428.57	-4.27240452e+00	1.66956550e+02	-4.77856317e+01	-1.77553283e+02	-4.75570739e+01	1.75342376e+02	-7.63026877e+00	9.84467029e+01
1026487000	-4.27658614e+00	1.66908463e+02	-4.77911978e+01	-1.78141331e+02	-4.75689533e+01	1.75199869e+02	-7.62278878e+00	9.83581802e+01
1026772571.43	-4.26696565e+00	1.66879935e+02	-4.77671252e+01	-1.78529302e+02	-4.75162277e+01	1.75098113e+02	-7.62802962e+00	9.82444838e+01
1027058142.86	-4.26771187e+00	1.66870846e+02	-4.77227651e+01	-1.78529745e+02	-4.74983912e+01	1.74526256e+02	-7.62245074e+00	9.81182417e+01
1027343714.29	-4.26901087e+00	1.66860109e+02	-4.76704166e+01	-1.78587168e+02	-4.74502375e+01	1.73930811e+02	-7.62801326e+00	9.80759531e+01
1027629285.71	-4.26213357e+00	1.66854113e+02	-4.77107814e+01	-1.78899381e+02	-4.76118147e+01	1.74358832e+02	-7.62149150e+00	9.79879110e+01
1027914857.14	-4.25653583e+00	1.66865032e+02	-4.76602022e+01	-1.79001582e+02	-4.74883869e+01	1.74635613e+02	-7.63534444e+00	9.79515904e+01
1028200428.57	-4.26057285e+00	1.66875334e+02	-4.76123206e+01	-1.79408339e+02	-4.73855381e+01	1.74254196e+02	-7.62434428e+00	9.77785447e+01
1028486000	-4.25655403e+00	1.66801961e+02	-4.76140243e+01	-1.79561282e+02	-4.74607941e+01	1.74421105e+02	-7.62183374e+00	9.75979230e+01
1028771571.43	-4.25145551e+00	1.66792244e+02	-4.75700715e+01	-1.79688137e+02	-4.73959171e+01	1.73192177e+02	-7.63747287e+00	9.75206707e+01
1029057142.86	-4.24595265e+00	1.66800443e+02	-4.75413096e+01	-1.79767458e+02	-4.73904161e+01	1.73568577e+02	-7.63142474e+00	9.74828274e+01
1029342714.29	-4.23959494e+00	1.66760112e+02	-4.74498786e+01	1.79932409e+02	-4.74039291e+01	1.72865341e+02	-7.63404151e+00	9.74179330e+01
1029628285.71	-4.24209515e+00	1.66751859e+02	-4.74391855e+01	1.79938276e+02	-4.72943712e+01	1.73455614e+02	-7.62767568e+00	9.73025820e+01
1029913857.14	-4.23859815e+00	1.66720195e+02	-4.73925825e+01	1.79172107e+02	-4.72984991e+01	1.72360957e+02	-7.62628854e+00	9.71814772e+01
1030199428.57	-4.23505094e+00	1.66741204e+02	-4.73747195e+01	1.79005207e+02	-4.72467025e+01	1.72720811e+02	-7.63079562e+00	9.71501235e+01
1030485000	-4.23477334e+00	1.66747475e+02	-4.72817345e+01	1.78851374e+02	-4.72756051e+01	1.72519893e+02	-7.64006126e+00	9.69897099e+01
1030770571.43	-4.23421756e+00	1.66784822e+02	-4.72437928e+01	1.78610760e+02	-4.71666171e+01	1.72703905e+02	-7.63564509e+00	9.69216253e+01
1031056142.86	-4.23582581e+00	1.66728824e+02	-4.72160019e+01	1.78645363e+02	-4.72070608e+01	1.71983060e+02	-7.62279318e+00	9.68098678e+01
1031341714.29	-4.23137840e+00	1.66725903e+02	-4.71476686e+01	1.78146250e+02	-4.70285656e+01	1.72351984e+02	-7.63805977e+00	9.67805181e+01
1031627285.71	-4.22502939e+00	1.66706382e+02	-4.70921635e+01	1.77571174e+02	-4.71242405e+01	1.71749047e+02	-7.63023255e+00	9.66238295e+01
1031912857.14	-4.21954578e+00	1.66710858e+02	-4.70486785e+01	1.77352857e+02	-4.69888626e+01	1.70711823e+02	-7.63662075e+00	9.65436083e+01
1032198428.57	-4.22628775e+00	1.66683200e+02	-4.70258995e+01	1.77139327e+02	-4.69361760e+01	1.71189720e+02	-7.63822677e+00	9.64113430e+01
1032484000	-4.21630370e+00	1.66684833e+02	-4.68976164e+01	1.76628177e+02	-4.69404920e+01	1.71085282e+02	-7.63979414e+00	9.63058738e+01
1032769571.43	-4.21912007e+00	1.66691543e+02	-4.68790728e+01	1.76474573e+02	-4.68981752e+01	1.69890309e+02	-7.63745754e+00	9.62889570e+01
1033055142.86	-4.21880066e+00	1.66698561e+02	-4.68462030e+01	1.75779630e+02	-4.69039252e+01	1.69869928e+02	-7.64378441e+00	9.61836229e+01
1033340714.29	-4.21963219e+00	1.66658125e+02	-4.68116962e+01	1.75392483e+02	-4.69004882e+01	1.70154060e+02	-7.65632885e+00	9.60499606e+01
1033626285.71	-4.20833485e+00	1.66674090e+02	-4.67249985e+01	1.74632578e+02	-4.66947056e+01	1.69308673e+02	-7.66297170e+00	9.60152053e+01
1033911857.14	-4.20989118e+00	1.66623836e+02	-4.66874492e+01	1.74337993e+02	-4.68237630e+01	1.69205757e+02	-7.67031651e+00	9.59308094e+01
1034197428.57	-4.20810641e+00	1.66625125e+02	-4.66389418e+01	1.73899296e+02	-4.67396839e+01	1.68668303e+02	-7.66853238e+00	9.57576426e+01
1034483000	-4.20293351e+00	1.66622556e+02	-4.65972943e+01	1.73604207e+02	-4.66364925e+01	1.68407601e+02	-7.67071143e+00	9.57534975e+01
1034768571.43	-4.19742218e+00	1.66580165e+02	-4.65644393e+01	1.72916224e+02	-4.65642594e+01	1.67909203e+02	-7.68580252e+00	9.55759253e+01
1035054142.86	-4.19685676e+00	1.66541381e+02	-4.64711638e+01	1.72771056e+02	-4.65972763e+01	1.67902548e+02	-7.70479821e+00	9.55207000e+01
1035339714.29	-4.19545770e+00	1.66554445e+02	-4.64781921e+01	1.72248637e+02	-4.65634563e+01	1.67221102e+02	-7.69196946e+00	9.53908588e+01
1035625285.71	-4.19127163e+00	1.66518510e+02	-4.63921632e+01	1.71582269e+02	-4.64061775e+01	1.67057411e+02	-7.68932809e+00	9.52986326e+01
1035910857.14	-4.18943390e+00	1.66504408e+02	-4.63595682e+01	1.71139821e+02	-4.64481339e+01	1.67076044e+02	-7.70267938e+00	9.52355983e+01
1036196428.57	-4.18740344e+00	1.66505554e+02	-4.63030469e+01	1.70787997e+02	-4.64124215e+01	1.65539361e+02	-7.71287795e+00	9.51060487e+01
1036482000	-4.18790397e+00	1.66472596e+02	-4.62996077e+01	1.70228834e+02	-4.64640067e+01	1.66015206e+02	-7.72224743e+00	9.50563205e+01
1036767571.43	-4.18854464e+00	1.66439328e+02	-4.61884089e+01	1.69863092e+02	-4.63116358e+01	1.64938476e+02	-7.72099181e+00	9.49403791e+01
1037053142.86	-4.18041304e+00	1.66419657e+02	-4.61506244e+01	1.68959829e+02	-4.62025294e+01	1.65210707e+02	-7.72615103e+00	9.49898720e+01
1037338714.29	-4.18129355e+00	1.66449297e+02	-4.60866853e+01	1.68562028e+02	-4.62108646e+01	1.64441552e+02	-7.72646840e+00	9.48491005e+01
1037624285.71	-4.17800830e+00	1.66476154e+02	-4.60447643e+01	1.67946287e+02	-4.62071923e+01	1.63513849e+02	-7.73327193e+00	9.48027124e+01
1037909857.14	-4.17664934e+00	1.66484841e+02	-4.59971758e+01	1.67299483e+02	-4.60787942e+01	1.63232651e+02	-7.73623981e+00	9.47322858e+01
1038195428.57	-4.17381274e+00	1.66469002e+02	-4.59637300e+01	1.66861737e+02	-4.60886396e+01	1.62477379e+02	-7.73361521e+00	9.46524042e+01
1038481000	-4.16891148e+00	1.66451577e+02	-4.59181508e+01	1.66337653e+02	-4.60811140e+01	1.62680359e+02	-7.74199970e+00	9.46045291e+01
1038766571.43	-4.16504282e+00	1.66414032e+02	-4.58684295e+01	1.65552057e+02	-4.60028670e+01	1.61821226e+02	-7.74299219e+00	9.45629522e+01
1039052142.86	-4.16701601e+00	1.66418196e+02	-4.58820523e+01	1.65061034e+02	-4.60093093e+01	1.60281589e+02	-7.73654677e+00	9.45233734e+01
1039337714.29	-4.16295471e+00	1.66399405e+02	-4.57842675e+01	1.64129592e+02	-4.59685052e+01	1.60718864e+02	-7.73618337e+00	9.44644472e+01
1039623285.71	-4.15862622e+00	1.66387094e+02	-4.57996081e+01	1.63673769e+02	-4.59521983e+01	1.59570848e+02	-7.74362256e+00	9.43953905e+01
1039908857.14	-4.14932539e+00	1.66365697e+02	-4.57350366e+01	1.62884043e+02	-4.59137863e+01	1.59293851e+02	-7.75338441e+00	9.44265736e+01
1040194428.57	-4.14142898e+00	1.66348692e+02	-4.57049367e+01	1.62093220e+02	-4.57967800e+01	1.58877732e+02	-7.75345578e+00	9.43910124e+01
1040480000	-4.14512749e+00	1.66315889e+02	-4.56931731e+01	1.61599909e+02	-4.58168731e+01	1.58004571e+02	-7.76893673e+00	9.43986746e+01
1040765571.43	-4.14396912e+00	1.66336235e+02	-4.56287484e+01	1.61062789e+02	-4.59298131e+01	1.57739351e+02	-7.75642445e+00	9.43655483e+01
1041051142.86	-4.14322197e+00	1.66323555e+02	-4.56199538e+01	1.60347107e+02	-4.57617574e+01	1.57329071e+02	-7.77046603e+00	9.42728517e+01
1041336714.29	-4.14040919e+00	1.66311513e+02	-4.55928368e+01	1.59580094e+02	-4.58018821e+01	1.56164228e+02	-7.77491904e+00	9.42669037e+01
1041622285.71	-4.13869911e+00	1.66287134e+02	-4.56014464e+01	1.58994251e+02	-4.57578486e+01	1.55852091e+02	-7.77837351e+00	9.42570364e+01
1041907857.14	-4.13763321e+00	1.66282363e+02	-4.55488706e+01	1.58261849e+02	-4.56811134e+01	1.55095561e+02	-7.77582407e+00	9.42983613e+01
1042193428.57	-4.12692821e+00	1.66284899e+02	-4.55581119e+01	1.57793085e+02	-4.56889306e+01	1.54792057e+02	-7.78009431e+00	9.41984101e+01
1042479000	-4.12226219e+00	1.66301009e+02	-4.55051397e+01	1.56856810e+02	-4.57413843e+01	1.53807749e+02	-7.78586707e+00	9.41705901e+01
1042764571.43	-4.11585569e+00	1.66294772e+02	-4.55187733e+01	1.56021722e+02	-4.56139913e+01	1.52731495e+02	-7.79264834e+00	9.40846571e+01
1043050142.86	-4.11464105e+00	1.66317153e+02	-4.54838149e+01	1.55795000e+02	-4.55986398e+01	1.52810865e+02	-7.79276399e+00	9.41011774e+01
1043335714.29	-4.11266994e+00	1.66277037e+02	-4.54672800e+01	1.54978275e+02	-4.55988937e+01	1.52181429e+02	-7.78980658e+00	9.40374311e+01
1043621285.71	-4.11118878e+00	1.66270067e+02	-4.54525392e+01	1.54203091e+02	-4.56659222e+01	1.51903719e+02	-7.78161236e+00	9.40185740e+01
1043906857.14	-4.10765315e+00	1.66247687e+02	-4.54498786e+01	1.53409436e+02	-4.55673530e+01	1.50812009e+02	-7.78964627e+00	9.39409489e+01
1044192428.57	-4.10435702e+00	1.66211926e+02	-4.54536100e+01	1.52690547e+02	-4.55510420e+01	1.50248122e+02	-7.79185301e+00	9.38336299e+01
1044478000	-4.10255401e+00	1.66189883e+02	-4.54429219e+01	1.52156690e+02	-4.54797354e+01	1.49608675e+02	-7.80598888e+00	9.38919933e+01
1044763571.43	-4.09721156e+00	1.66198318e+02	-4.54034439e+01	1.51553038e+02	-4.55376421e+01	1.48732206e+02	-7.79237393e+00	9.37473995e+01
1045049142.86	-4.09439420e+00	1.66197334e+02	-4.53989289e+01	1.50927138e+02	-4.55732493e+01	1.47921752e+02	-7.78926117e+00	9.37110619e+01
1045334714.29	-4.09087674e+00	1.66235904e+02	-4.53942360e+01	1.50265530e+02	-4.55770232e+01	1.47524861e+02	-7.78207154e+00	9.35157690e+01
1045620285.71	-4.09378637e+00	1.66206812e+02	-4.53979238e+01	1.49539643e+02	-4.55190860e+01	1.46321265e+02	-7.77381205e+00	9.35074829e+01
1045905857.14	-4.08799417e+00	1.66231439e+02	-4.54094641e+01	1.48884310e+02	-4.55454383e+01	1.46415689e+02	-7.78291035e+00	9.34359188e+01
1046191428.57	-4.08535481e+00	1.66205591e+02	-4.53920425e+01	1.48128510e+02	-4.54154690e+01	1.46083540e+02	-7.78186968e+00	9.33219449e+01
1046477000	-4.08870840e+00	1.66198568e+02	-4.54201715e+01	1.47596295e+02	-4.54678698e+01	1.44799032e+02	-7.77819332e+00	9.32475154e+01
1046762571.43	-4.08117322e+00	1.66199800e+02	-4.54252368e+01	1.46826608e+02	-4.55847355e+01	1.44533001e+02	-7.77452026e+00	9.31690157e+01
1047048142.86	-4.07597174e+00	1.66214419e+02	-4.54044831e+01	1.46317709e+02	-4.54852894e+01	1.43604053e+02	-7.76458751e+00	9.29957547e+01
1047333714.29	-4.07500663e+00	1.66192170e+02	-4.53975498e+01	1.45379069e+02	-4.53749436e+01	1.43329336e+02	-7.75251663e+00	9.29689434e+01
1047619285.71	-4.07262283e+00	1.66175590e+02	-4.54331160e+01	1.44844265e+02	-4.55869730e+01	1.42707159e+02	-7.73963264e+00	9.28495443e+01
1047904857.14	-4.07548821e+00	1.66173058e+02	-4.54222241e+01	1.44122658e+02	-4.54602593e+01	1.41769146e+02	-7.74087512e+00	9.27972706e+01
1048190428.57	-4.06882732e+00	1.66197424e+02	-4.54181532e+01	1.43560670e+02	-4.54613113e+01	1.40918512e+02	-7.73899732e+00	9.27360936e+01
1048476000	-4.06115235e+00	1.66223360e+02	-4.54010000e+01	1.42940276e+02	-4.55040042e+01	1.40194826e+02	-7.73410564e+00	9.25843082e+01
1048761571.43	-4.06220320e+00	1.66232639e+02	-4.54156508e+01	1.42409528e+02	-4.54965336e+01	1.40226432e+02	-7.72125183e+00	9.25788971e+01
1049047142.86	-4.05705873e+00	1.66245506e+02	-4.54398029e+01	1.41812705e+02	-4.54362692e+01	1.38971536e+02	-7.71773549e+00	9.23979213e+01
1049332714.29	-4.04704123e+00	1.66214857e+02	-4.54430863e+01	1.41093482e+02	-4.54740419e+01	1.38486617e+02	-7.71103525e+00	9.23703599e+01
1049618285.71	-4.04368965e+00	1.66194506e+02	-4.54344761e+01	1.40389789e+02	-4.55241235e+01	1.37748186e+02	-7.70008095e+00	9.22645288e+01
1049903857.14	-4.04254612e+00	1.66175198e+02	-4.54590224e+01	1.39788754e+02	-4.55399678e+01	1.37285020e+02	-7.69009573e+00	9.21230888e+01
1050189428.57	-4.04380883e+00	1.66181888e+02	-4.54505376e+01	1.39376257e+02	-4.54337267e+01	1.36191716e+02	-7.68625605e+00	9.19899623e+01
1050475000	-4.03264598e+00	1.66192862e+02	-4.54551581e+01	1.38588077e+02	-4.54963648e+01	1.35983159e+02	-7.68676890e+00	9.18705772e+01
1050760571.43	-4.03102996e+00	1.66205547e+02	-4.54744240e+01	1.38234987e+02	-4.54433652e+01	1.35836375e+02	-7.68245914e+00	9.18047676e+01
1051046142.86	-4.02327130e+00	1.66241367e+02	-4.54637773e+01	1.37373666e+02	-4.55172891e+01	1.34877520e+02	-7.66733455e+00	9.16129743e+01
1051331714.29	-4.02524571e+00	1.66200481e+02	-4.54784864e+01	1.36712082e+02	-4.55667052e+01	1.34050229e+02	-7.66979377e+00	9.14635941e+01
1051617285.71	-4.02380224e+00	1.66171398e+02	-4.54691444e+01	1.36171111e+02	-4.54389211e+01	1.33993576e+02	-7.66684582e+00	9.14214898e+01
1051902857.14	-4.01612941e+00	1.66160920e+02	-4.54880459e+01	1.35773418e+02	-4.56398685e+01	1.32829816e+02	-7.65039526e+00	9.12823019e+01
1052188428.57	-4.01778496e+00	1.66151518e+02	-4.54801800e+01	1.35166803e+02	-4.54652090e+01	1.32399334e+02	-7.65151272e+00	9.12131790e+01
1052474000	-4.00954252e+00	1.66153322e+02	-4.54882274e+01	1.34435755e+02	-4.55108163e+01	1.31604684e+02	-7.64974750e+00	9.10986558e+01
1052759571.43	-4.00496676e+00	1.66179911e+02	-4.54704571e+01	1.33862201e+02	-4.56410166e+01	1.31506240e+02	-7.64642322e+00	9.08964832e+01
1053045142.86	-4.00306439e+00	1.66224614e+02	-4.55037505e+01	1.33152762e+02	-4.54587440e+01	1.31380331e+02	-7.65337573e+00	9.06925863e+01
1053330714.29	-4.00547045e+00	1.66223309e+02	-4.55304141e+01	1.32721459e+02	-4.55765682e+01	1.30246906e+02	-7.64829521e+00	9.05242079e+01
1053616285.71	-3.99711205e+00	1.66165465e+02	-4.55249890e+01	1.32057873e+02	-4.57095847e+01	1.29306361e+02	-7.63621202e+00	9.04389566e+01
1053901857.14	-3.99615974e+00	1.66197160e+02	-4.55224348e+01	1.31468336e+02	-4.55292396e+01	1.29274674e+02	-7.64110518e+00	9.02107361e+01
1054187428.57	-3.99393650e+00	1.66223713e+02	-4.55192678e+01	1.30789474e+02	-4.56074067e+01	1.28193135e+02	-7.63608314e+00	9.00219341e+01
1054473000	-3.99365585e+00	1.66232741e+02	-4.55168018e+01	1.30267065e+02	-4.55583135e+01	1.27734816e+02	-7.63379259e+00	8.98177089e+01
1054758571.43	-3.98897011e+00	1.66221232e+02	-4.55362155e+01	1.29466923e+02	-4.56327965e+01	1.26551998e+02	-7.64266240e+00	8.97199660e+01
1055044142.86	-3.98987800e+00	1.66251005e+02	-4.55495530e+01	1.28900714e+02	-4.55936710e+01	1.26128375e+02	-7.61774391e+00	8.95474854e+01
1055329714.29	-3.98088614e+00	1.66204796e+02	-4.55683092e+01	1.28371400e+02	-4.55990051e+01	1.25343860e+02	-7.63396597e+00	8.95146004e+01
1055615285.71	-3.97484854e+00	1.66254867e+02	-4.55726299e+01	1.27505821e+02	-4.55707179e+01	1.25222782e+02	-7.63634053e+00	8.93549842e+01
1055900857.14	-3.97190760e+00	1.66249869e+02	-4.55520036e+01	1.27042610e+02	-4.56680623e+01	1.24534894e+02	-7.62660854e+00	8.92859529e+01
1056186428.57	-3.97975949e+00	1.66248975e+02	-4.55859894e+01	1.26485669e+02	-4.55824193e+01	1.23564988e+02	-7.62507208e+00	8.91093773e+01
1056472000	-3.97266512e+00	1.66308522e+02	-4.55851585e+01	1.25833036e+02	-4.56466070e+01	1.23339133e+02	-7.62734425e+00	8.89940649e+01
1056757571.43	-3.96994241e+00	1.66326933e+02	-4.55789467e+01	1.25105741e+02	-4.57160085e+01	1.22714936e+02	-7.62037675e+00	8.88758409e+01
1057043142.86	-3.96361337e+00	1.66295079e+02	-4.55916880e+01	1.24397016e+02	-4.57448991e+01	1.21948070e+02	-7.60510463e+00	8.87575884e+01
1057328714.29	-3.96341546e+00	1.66346324e+02	-4.56444446e+01	1.23778368e+02	-4.57046481e+01	1.21129836e+02	-7.60882309e+00	8.85920123e+01
1057614285.71	-3.95793797e+00	1.66315978e+02	-4.56359155e+01	1.22916915e+02	-4.57505973e+01	1.20231962e+02	-7.60997278e+00	8.84396704e+01
1057899857.14	-3.96002831e+00	1.66333017e+02	-4.56385736e+01	1.22378054e+02	-4.57083322e+01	1.19542990e+02	-7.60362353e+00	8.83508191e+01
1058185428.57	-3.95475449e+00	1.66286538e+02	-4.57268253e+01	1.21785302e+02	-4.57568393e+01	1.19181277e+02	-7.60071952e+00	8.82465756e+01
1058471000	-3.95614724e+00	1.66321039e+02	-4.57218045e+01	1.21055252e+02	-4.57996343e+01	1.18954877e+02	-7.60365933e+00	8.81188269e+01
1058756571.43	-3.95475485e+00	1.66376729e+02	-4.57486548e+01	1.20502587e+02	-4.58023172e+01	1.17406190e+02	-7.59652121e+00	8.80455985e+01
1059042142.86	-3.95611181e+00	1.66403858e+02	-4.57438715e+01	1.19783901e+02	-4.57581758e+01	1.17316811e+02	-7.58853473e+00	8.78946452e+01
1059327714.29	-3.95590946e+00	1.66391354e+02	-4.57892060e+01	1.19270887e+02	-4.57964639e+01	1.16469486e+02	-7.59465023e+00	8.79390306e+01
1059613285.71	-3.95279230e+00	1.66398014e+02	-4.58585728e+01	1.18457798e+02	-4.58403088e+01	1.16054860e+02	-7.59180589e+00	8.78180542e+01
1059898857.14	-3.95390064e+00	1.66426470e+02	-4.58363053e+01	1.17921241e+02	-4.58642255e+01	1.14751904e+02	-7.58932365e+00	8.76833586e+01
1060184428.57	-3.95081776e+00	1.66448839e+02	-4.58992708e+01	1.17269443e+02	-4.59451238e+01	1.14615070e+02	-7.59438120e+00	8.75882439e+01
1060470000	-3.94661968e+00	1.66423585e+02	-4.59106051e+01	1.16839556e+02	-4.59210030e+01	1.14198078e+02	-7.59429600e+00	8.75294138e+01
1060755571.43	-3.94578054e+00	1.66440956e+02	-4.59552710e+01	1.16113823e+02	-4.59854804e+01	1.13390915e+02	-7.58805401e+00	8.74196311e+01
1061041142.86	-3.94202833e+00	1.66510044e+02	-4.60139137e+01	1.15553615e+02	-4.60059181e+01	1.13034033e+02	-7.58390521e+00	8.72848596e+01
1061326714.29	-3.93784765e+00	1.66488873e+02	-4.60370547e+01	1.15257657e+02	-4.60439908e+01	1.12880946e+02	-7.58719935e+00	8.71314437e+01
1061612285.71	-3.93431309e+00	1.66506135e+02	-4.60168870e+01	1.14332800e+02	-4.61552051e+01	1.11765954e+02	-7.59126396e+00	8.70536872e+01
1061897857.14	-3.93134749e+00	1.66493397e+02	-4.60740043e+01	1.13656368e+02	-4.60554248e+01	1.10794715e+02	-7.58665695e+00	8.68989078e+01
1062183428.57	-3.93030955e+00	1.66506410e+02	-4.61488580e+01	1.13292607e+02	-4.61149853e+01	1.10835972e+02	-7.58384518e+00	8.67223028e+01
1062469000	-3.93198890e+00	1.66506418e+02	-4.61306908e+01	1.12745455e+02	-4.61656139e+01	1.10266460e+02	-7.58419398e+00	8.65851835e+01
1062754571.43	-3.93264844e+00	1.66540167e+02	-4.61903331e+01	1.12530863e+02	-4.62264183e+01	1.09766991e+02	-7.58253722e+00	8.65004587e+01
1063040142.86	-3.92794911e+00	1.66522819e+02	-4.61793623e+01	1.11496515e+02	-4.62407292e+01	1.08463430e+02	-7.57439754e+00	8.62778849e+01
1063325714.29	-3.92540418e+00	1.66548955e+02	-4.62463292e+01	1.11474648e+02	-4.61753244e+01	1.08633425e+02	-7.57982019e+00	8.60902506e+01
1063611285.71	-3.92894302e+00	1.66527526e+02	-4.63016696e+01	1.10510934e+02	-4.64428414e+01	1.07474944e+02	-7.59201572e+00	8.60214153e+01
1063896857.14	-3.92629350e+00	1.66540112e+02	-4.63194130e+01	1.09802430e+02	-4.63508816e+01	1.08184168e+02	-7.59262114e+00	8.58236602e+01
1064182428.57	-3.92722629e+00	1.66540535e+02	-4.63437065e+01	1.09603108e+02	-4.63322477e+01	1.07702963e+02	-7.59745511e+00	8.57023342e+01
1064468000	-3.91877068e+00	1.66557942e+02	-4.64254363e+01	1.09173194e+02	-4.64657040e+01	1.06399462e+02	-7.59374167e+00	8.56023170e+01
1064753571.43	-3.92194432e+00	1.66563017e+02	-4.64913457e+01	1.08774518e+02	-4.64469209e+01	1.05446500e+02	-7.60134313e+00	8.54228792e+01
1065039142.86	-3.92058280e+00	1.66542279e+02	-4.64549241e+01	1.08105061e+02	-4.64491918e+01	1.06116166e+02	-7.60232319e+00	8.52429695e+01
1065324714.29	-3.91848729e+00	1.66570749e+02	-4.65010322e+01	1.07891191e+02	-4.65232696e+01	1.05436436e+02	-7.59970392e+00	8.51361694e+01
1065610285.71	-3.91934262e+00	1.66584198e+02	-4.65239585e+01	1.07185084e+02	-4.65642598e+01	1.05065958e+02	-7.60763153e+00	8.49394738e+01
1065895857.14	-3.91898769e+00	1.66572986e+02	-4.65679673e+01	1.06771489e+02	-4.65667084e+01	1.04265710e+02	-7.60119467e+00	8.48762022e+01
1066181428.57	-3.91317955e+00	1.66571225e+02	-4.65755883e+01	1.06211733e+02	-4.65735332e+01	1.02885989e+02	-7.61329238e+00	8.46302839e+01
1066467000	-3.91233685e+00	1.66570917e+02	-4.65739100e+01	1.05866603e+02	-4.65967523e+01	1.04070413e+02	-7.61618905e+00	8.44817993e+01
1066752571.43	-3.90933940e+00	1.66604406e+02	-4.66057317e+01	1.05529576e+02	-4.65103858e+01	1.02697806e+02	-7.61931588e+00	8.43197661e+01
1067038142.86	-3.91093619e+00	1.66679604e+02	-4.66989032e+01	1.05095575e+02	-4.66371383e+01	1.02471517e+02	-7.62823622e+00	8.41725328e+01
1067323714.29	-3.91195519e+00	1.66661447e+02	-4.66608624e+01	1.04416227e+02	-4.67763421e+01	1.02165711e+02	-7.63580198e+00	8.40842060e+01
1067609285.71	-3.90375602e+00	1.66634024e+02	-4.66637255e+01	1.04102873e+02	-4.68005193e+01	1.01906354e+02	-7.63871788e+00	8.39889985e+01
1067894857.14	-3.90084072e+00	1.66676609e+02	-4.66828059e+01	1.03701532e+02	-4.67893562e+01	1.00945513e+02	-7.63313765e+00	8.39427647e+01
1068180428.57	-3.90073838e+00	1.66603164e+02	-4.67689593e+01	1.02995505e+02	-4.67586336e+01	1.00990097e+02	-7.65080299e+00	8.37505542e+01
1068466000	-3.89625115e+00	1.66591800e+02	-4.67825651e+01	1.02500266e+02	-4.68448278e+01	1.00879790e+02	-7.66029681e+00	8.36620352e+01
1068751571.43	-3.89881129e+00	1.66636775e+02	-4.67837565e+01	1.01962642e+02	-4.68498147e+01	1.00301414e+02	-7.66918584e+00	8.36316233e+01
1069037142.86	-3.90040283e+00	1.66587834e+02	-4.67466844e+01	1.01644495e+02	-4.67594345e+01	9.90544429e+01	-7.68705337e+00	8.34622960e+01
1069322714.29	-3.89871655e+00	1.66636296e+02	-4.68149750e+01	1.01249583e+02	-4.69101645e+01	9.87085974e+01	-7.69340682e+00	8.34491403e+01
1069608285.71	-3.89821897e+00	1.66603606e+02	-4.68133930e+01	1.00230541e+02	-4.69301410e+01	9.89528120e+01	-7.69296368e+00	8.33494348e+01
1069893857.14	-3.89051454e+00	1.66598963e+02	-4.68254129e+01	1.00472100e+02	-4.69138531e+01	9.83793860e+01	-7.70668640e+00	8.32747005e+01
1070179428.57	-3.89441134e+00	1.66591789e+02	-4.68849359e+01	9.95288296e+01	-4.69233619e+01	9.80311636e+01	-7.70611844e+00	8.31825917e+01
1070465000	-3.89424148e+00	1.66627937e+02	-4.68527130e+01	9.90375036e+01	-4.69582637e+01	9.79113795e+01	-7.71479582e+00	8.30383936e+01
1070750571.43	-3.89450571e+00	1.66650111e+02	-4.69201266e+01	9.84011130e+01	-4.70443170e+01	9.57322158e+01	-7.71266966e+00	8.29826103e+01
1071036142.86	-3.89901015e+00	1.66651585e+02	-4.69580719e+01	9.81746563e+01	-4.71110519e+01	9.69162912e+01	-7.73273328e+00	8.29156219e+01
1071321714.29	-3.88832092e+00	1.66641525e+02	-4.69627326e+01	9.76242638e+01	-4.70542768e+01	9.63454312e+01	-7.73720657e+00	8.28341764e+01
1071607285.71	-3.88688926e+00	1.66642342e+02	-4.69754685e+01	9.69996541e+01	-4.71506377e+01	9.59785775e+01	-7.73343428e+00	8.27806020e+01
1071892857.14	-3.88699811e+00	1.66633312e+02	-4.70217023e+01	9.61830300e+01	-4.70990832e+01	9.38010144e+01	-7.74668906e+00	8.26948826e+01
1072178428.57	-3.88301022e+00	1.66660342e+02	-4.70017610e+01	9.57225146e+01	-4.71733915e+01	9.40602640e+01	-7.73870268e+00	8.26051804e+01
1072464000	-3.88395839e+00	1.66624031e+02	-4.70239752e+01	9.52031529e+01	-4.71829477e+01	9.37390025e+01	-7.74747107e+00	8.24195699e+01
1072749571.43	-3.89112882e+00	1.66653334e+02	-4.70677861e+01	9.51223629e+01	-4.73535828e+01	9.34902469e+01	-7.74803362e+00	8.24252639e+01
1073035142.86	-3.89200558e+00	1.66654637e+02	-4.71259034e+01	9.40517519e+01	-4.71418469e+01	9.35506258e+01	-7.75114871e+00	8.23170696e+01
1073320714.29	-3.88796985e+00	1.66654038e+02	-4.71133966e+01	9.33897925e+01	-4.73272108e+01	9.19490700e+01	-7.74825981e+00	8.22295687e+01
1073606285.71	-3.88420195e+00	1.66657779e+02	-4.71574786e+01	9.28559712e+01	-4.72317049e+01	9.13941812e+01	-7.74755935e+00	8.21919279e+01
1073891857.14	-3.88254987e+00	1.66665368e+02	-4.71878264e+01	9.23566164e+01	-4.74383509e+01	9.07738416e+01	-7.74692382e+00	8.20610872e+01
1074177428.57	-3.89172806e+00	1.66691251e+02	-4.72592193e+01	9.17422562e+01	-4.73438770e+01	9.03308689e+01	-7.75265162e+00	8.19548444e+01
1074463000	-3.88936344e+00	1.66644370e+02	-4.72926978e+01	9.14957820e+01	-4.73977639e+01	8.97641492e+01	-7.75390484e+00	8.19243762e+01
1074748571.43	-3.88230872e+00	1.66659158e+02	-4.73543200e+01	9.06481730e+01	-4.73777207e+01	8.93132292e+01	-7.74813830e+00	8.18011912e+01
1075034142.86	-3.88888358e+00	1.66673658e+02	-4.73714202e+01	9.02546600e+01	-4.75987256e+01	8.85135777e+01	-7.74940409e+00	8.17343347e+01
1075319714.29	-3.88901659e+00	1.66644239e+02	-4.73888742e+01	8.98244643e+01	-4.76516888e+01	8.88648090e+01	-7.73957287e+00	8.16015485e+01
1075605285.71	-3.88948996e+00	1.66646122e+02	-4.75047118e+01	8.91628055e+01	-4.76136525e+01	8.77207719e+01	-7.75238789e+00	8.15410424e+01
1075890857.14	-3.88716141e+00	1.66630201e+02	-4.74951546e+01	8.84549495e+01	-4.75542071e+01	8.83086438e+01	-7.75102807e+00	8.14663050e+01
1076176428.57	-3.88524918e+00	1.66597491e+02	-4.75544766e+01	8.84659156e+01	-4.76696252e+01	8.70267639e+01	-7.74655409e+00	8.13486985e+01
1076462000	-3.88212276e+00	1.66662147e+02	-4.75821600e+01	8.74810016e+01	-4.76753987e+01	8.68261441e+01	-7.74719292e+00	8.13392529e+01
1076747571.43	-3.87983372e+00	1.66679640e+02	-4.76425824e+01	8.72322978e+01	-4.79531450e+01	8.57932902e+01	-7.74761952e+00	8.13239139e+01
1077033142.86	-3.87925854e+00	1.66632148e+02	-4.76965833e+01	8.68810719e+01	-4.77467516e+01	8.53513105e+01	-7.73771552e+00	8.11591288e+01
1077318714.29	-3.87875574e+00	1.66582431e+02	-4.77662160e+01	8.64162000e+01	-4.77882536e+01	8.56400887e+01	-7.74116991e+00	8.11549501e+01
1077604285.71	-3.87506503e+00	1.66578389e+02	-4.77908779e+01	8.55741503e+01	-4.80682093e+01	8.44115216e+01	-7.72046736e+00	8.09667362e+01
1077889857.14	-3.88130028e+00	1.66605404e+02	-4.78162971e+01	8.53818150e+01	-4.80740401e+01	8.44292616e+01	-7.72506124e+00	8.09342376e+01
1078175428.57	-3.88022646e+00	1.66587729e+02	-4.78990679e+01	8.48896612e+01	-4.81191433e+01	8.48408682e+01	-7.74020447e+00	8.07832926e+01
1078461000	-3.87965497e+00	1.66584391e+02	-4.79660948e+01	8.44161530e+01	-4.80678345e+01	8.39719805e+01	-7.72756579e+00	8.07257181e+01
1078746571.43	-3.88208442e+00	1.66585974e+02	-4.79348497e+01	8.39475048e+01	-4.82267956e+01	8.30021535e+01	-7.72869860e+00	8.05769776e+01
1079032142.86	-3.87850976e+00	1.66553273e+02	-4.80077501e+01	8.39348373e+01	-4.83997689e+01	8.25854188e+01	-7.71828368e+00	8.05357016e+01
1079317714.29	-3.87670024e+00	1.66550158e+02	-4.80415698e+01	8.30671528e+01	-4.83837395e+01	8.18902214e+01	-7.72119245e+00	8.04234925e+01
1079603285.71	-3.87438815e+00	1.66533159e+02	-4.80904142e+01	8.26528009e+01	-4.83602886e+01	8.15288251e+01	-7.72238189e+00	8.03349422e+01
1079888857.14	-3.87382429e+00	1.66529519e+02	-4.81362862e+01	8.27195092e+01	-4.85026773e+01	8.13297402e+01	-7.72042720e+00	8.02384859e+01
1080174428.57	-3.87295571e+00	1.66513825e+02	-4.82071131e+01	8.19235594e+01	-4.85695648e+01	8.14911374e+01	-7.71708269e+00	8.01764541e+01
1080460000	-3.87302775e+00	1.66508261e+02	-4.82438544e+01	8.13512346e+01	-4.84717282e+01	8.13636904e+01	-7.72571086e+00	8.00924764e+01
1080745571.43	-3.87404370e+00	1.66499079e+02	-4.82600210e+01	8.10920068e+01	-4.87544907e+01	8.09721252e+01	-7.72494491e+00	7.99715272e+01
1081031142.86	-3.87051515e+00	1.66488633e+02	-4.82870510e+01	8.04450846e+01	-4.82187505e+01	8.05815838e+01	-7.71040232e+00	7.98686016e+01
1081316714.29	-3.86520121e+00	1.66465361e+02	-4.83114718e+01	8.03498472e+01	-4.82431142e+01	7.98135579e+01	-7.71076469e+00	7.97336913e+01
1081602285.71	-3.86507665e+00	1.66473906e+02	-4.83995061e+01	8.00259992e+01	-4.83030957e+01	7.97217159e+01	-7.70901836e+00	7.96840156e+01
1081887857.14	-3.86938261e+00	1.66470292e+02	-4.85008276e+01	7.94680204e+01	-4.83478656e+01	7.93277446e+01	-7.70787726e+00	7.95505471e+01
1082173428.57	-3.86492296e+00	1.66468066e+02	-4.84793638e+01	7.89931697e+01	-4.83778306e+01	7.89495312e+01	-7.70766242e+00	7.94105506e+01
1082459000	-3.86229516e+00	1.66453145e+02	-4.85250375e+01	7.86265239e+01	-4.84246807e+01	7.88145448e+01	-7.71523891e+00	7.93060499e+01
1082744571.43	-3.86924065e+00	1.66412113e+02	-4.86394672e+01	7.84065233e+01	-4.84754194e+01	7.87739157e+01	-7.71840287e+00	7.92040711e+01
1083030142.86	-3.86508209e+00	1.66454724e+02	-4.86821270e+01	7.77878623e+01	-4.84969436e+01	7.83565508e+01	-7.72045678e+00	7.91598463e+01
1083315714.29	-3.86575195e+00	1.66408639e+02	-4.86765874e+01	7.73746603e+01	-4.85308731e+01	7.80717864e+01	-7.72942752e+00	7.90346525e+01
1083601285.71	-3.87390674e+00	1.66370616e+02	-4.87527675e+01	7.70499594e+01	-4.86059282e+01	7.78617132e+01	-7.72481281e+00	7.89219199e+01
1083886857.14	-3.87157538e+00	1.66411839e+02	-4.88365874e+01	7.63991226e+01	-4.86300086e+01	7.74146796e+01	-7.73212780e+00	7.88581909e+01
1084172428.57	-3.87078248e+00	1.66371096e+02	-4.88498764e+01	7.60313111e+01	-4.87418325e+01	7.70814115e+01	-7.73849234e+00	7.86868469e+01
1084458000	-3.86885010e+00	1.66376932e+02	-4.89187351e+01	7.55834868e+01	-4.87444313e+01	7.67595150e+01	-7.73711912e+00	7.86522182e+01
1084743571.43	-3.86410769e+00	1.66343955e+02	-4.89439570e+01	7.54006368e+01	-4.87767613e+01	7.64357341e+01	-7.74256607e+00	7.85376914e+01
1085029142.86	-3.86957431e+00	1.66330562e+02	-4.90301742e+01	7.51362358e+01	-4.88264713e+01	7.64277306e+01	-7.74794373e+00	7.84722722e+01
1085314714.29	-3.86387018e+00	1.66326370e+02	-4.90646974e+01	7.48960939e+01	-4.88687080e+01	7.58238894e+01	-7.74770097e+00	7.84177391e+01
1085600285.71	-3.85990823e+00	1.66345107e+02	-4.90770366e+01	7.42880204e+01	-4.89794875e+01	7.52846571e+01	-7.75525013e+00	7.83771252e+01
1085885857.14	-3.85762142e+00	1.66319205e+02	-4.91651532e+01	7.42458515e+01	-4.89917148e+01	7.53757869e+01	-7.76813454e+00	7.82944913e+01
1086171428.57	-3.85988460e+00	1.66306950e+02	-4.92441149e+01	7.40787461e+01	-4.90614112e+01	7.52511669e+01	-7.77785227e+00	7.81931543e+01
1086457000	-3.86667662e+00	1.66288714e+02	-4.92890699e+01	7.32732901e+01	-4.90745896e+01	7.48868940e+01	-7.77383563e+00	7.81848033e+01
1086742571.43	-3.86704418e+00	1.66298095e+02	-4.94217260e+01	7.28687126e+01	-4.91637161e+01	7.47544848e+01	-7.77869274e+00	7.81386581e+01
1087028142.86	-3.86434075e+00	1.66249838e+02	-4.94557432e+01	7.29168352e+01	-4.91906841e+01	7.45866071e+01	-7.79551419e+00	7.80389492e+01
1087313714.29	-3.86847098e+00	1.66223080e+02	-4.94700581e+01	7.22728071e+01	-4.92547059e+01	7.40231138e+01	-7.79572364e+00	7.79676312e+01
1087599285.71	-3.86758365e+00	1.66204516e+02	-4.95409299e+01	7.21451819e+01	-4.92911628e+01	7.39334742e+01	-7.78830965e+00	7.79115749e+01
1087884857.14	-3.86847253e+00	1.66169667e+02	-4.96807446e+01	7.21710517e+01	-4.93187194e+01	7.38094501e+01	-7.79977130e+00	7.79009867e+01
1088170428.57	-3.86747148e+00	1.66185029e+02	-4.97047465e+01	7.17336965e+01	-4.93972315e+01	7.33959732e+01	-7.81582699e+00	7.78686815e+01
1088456000	-3.86573733e+00	1.66163233e+02	-4.97665334e+01	7.12608075e+01	-4.94726011e+01	7.30991227e+01	-7.80891764e+00	7.78822024e+01
1088741571.43	-3.86470360e+00	1.66134044e+02	-4.98327902e+01	7.12990932e+01	-4.94478830e+01	7.31081509e+01	-7.81432190e+00	7.78284324e+01
1089027142.86	-3.86362736e+00	1.66149469e+02	-4.98839635e+01	7.13173706e+01	-4.95381056e+01	7.32136496e+01	-7.83739601e+00	7.77169716e+01
1089312714.29	-3.86489514e+00	1.66091182e+02	-4.99447006e+01	7.09631081e+01	-4.95957288e+01	7.29552152e+01	-7.84437411e+00	7.76265823e+01
1089598285.71	-3.86331139e+00	1.66032712e+02	-5.00207618e+01	7.05679612e+01	-4.97031488e+01	7.27210272e+01	-7.85732376e+00	7.76609012e+01
1089883857.14	-3.85871861e+00	1.66020179e+02	-5.01023149e+01	7.04434182e+01	-4.97384788e+01	7.23641223e+01	-7.86720365e+00	7.76073258e+01
1090169428.57	-3.86576832e+00	1.66007508e+02	-5.01611194e+01	7.05066470e+01	-4.97741610e+01	7.23860729e+01	-7.88095449e+00	7.75799072e+01
1090455000	-3.85883124e+00	1.65997337e+02	-5.02954406e+01	7.04633910e+01	-4.98127680e+01	7.21519656e+01	-7.88900731e+00	7.74590159e+01
1090740571.43	-3.85877797e+00	1.65951441e+02	-5.02900091e+01	7.04283720e+01	-4.98866254e+01	7.22424327e+01	-7.89248175e+00	7.74101500e+01
1091026142.86	-3.85748873e+00	1.65953319e+02	-5.03576032e+01	7.00631583e+01	-4.99413468e+01	7.20931220e+01	-7.89495051e+00	7.73668444e+01
1091311714.29	-3.85654498e+00	1.65975957e+02	-5.04103493e+01	7.04256268e+01	-5.00014415e+01	7.21494513e+01	-7.89794410e+00	7.73492822e+01
1091597285.71	-3.85944673e+00	1.65973041e+02	-5.04972025e+01	7.03225703e+01	-4.99780820e+01	7.18736842e+01	-7.90241824e+00	7.73853910e+01
1091882857.14	-3.85816956e+00	1.65936177e+02	-5.06077217e+01	7.00976812e+01	-4.99979861e+01	7.22992183e+01	-7.91037652e+00	7.73017045e+01
1092168428.57	-3.85858277e+00	1.65904028e+02	-5.05754339e+01	7.03524269e+01	-5.01100219e+01	7.24441319e+01	-7.92733430e+00	7.73530374e+01
1092454000	-3.85822461e+00	1.65866625e+02	-5.06174282e+01	7.02330480e+01	-5.01545222e+01	7.23606698e+01	-7.92662017e+00	7.73171455e+01
1092739571.43	-3.85719290e+00	1.65849720e+02	-5.07592298e+01	7.04283346e+01	-5.01640281e+01	7.27041206e+01	-7.94120250e+00	7.73221463e+01
1093025142.86	-3.85790720e+00	1.65848191e+02	-5.07976045e+01	7.04327870e+01	-5.02331192e+01	7.24185587e+01	-7.93616683e+00	7.72587638e+01
1093310714.29	-3.85561914e+00	1.65803521e+02	-5.07476993e+01	7.07064513e+01	-5.02457276e+01	7.27326571e+01	-7.95489247e+00	7.73165494e+01
1093596285.71	-3.85803810e+00	1.65815428e+02	-5.08114978e+01	7.09652190e+01	-5.03168802e+01	7.26261298e+01	-7.95159901e+00	7.72971328e+01
1093881857.14	-3.85644957e+00	1.65790233e+02	-5.09090881e+01	7.07994867e+01	-5.03181827e+01	7.30685710e+01	-7.94714017e+00	7.73628278e+01
1094167428.57	-3.86115081e+00	1.65755484e+02	-5.09536428e+01	7.13388562e+01	-5.03449761e+01	7.29608647e+01	-7.95475222e+00	7.72629735e+01
1094453000	-3.85720251e+00	1.65698380e+02	-5.09057564e+01	7.08820688e+01	-5.03502222e+01	7.34444183e+01	-7.95552946e+00	7.73125906e+01
1094738571.43	-3.85445058e+00	1.65604983e+02	-5.09573652e+01	7.15209717e+01	-5.03417885e+01	7.38914284e+01	-7.95670576e+00	7.73277904e+01
1095024142.86	-3.85126558e+00	1.65583827e+02	-5.09226430e+01	7.18904800e+01	-5.04079308e+01	7.37191730e+01	-7.94918425e+00	7.73418825e+01
1095309714.29	-3.84875448e+00	1.65551026e+02	-5.09166297e+01	7.21348925e+01	-5.02888982e+01	7.37827740e+01	-7.95011760e+00	7.73877707e+01
1095595285.71	-3.84320460e+00	1.65519143e+02	-5.09735389e+01	7.22477022e+01	-5.02648751e+01	7.43376203e+01	-7.95723530e+00	7.74224653e+01
1095880857.14	-3.84960152e+00	1.65525903e+02	-5.09060801e+01	7.23496157e+01	-5.03036585e+01	7.41713037e+01	-7.96156261e+00	7.74408363e+01
1096166428.57	-3.84811872e+00	1.65527835e+02	-5.09104147e+01	7.25311099e+01	-5.02779341e+01	7.40666436e+01	-7.97011681e+00	7.74363550e+01
1096452000	-3.85247370e+00	1.65469157e+02	-5.09126464e+01	7.29232610e+01	-5.01980723e+01	7.44581119e+01	-7.97589160e+00	7.75923673e+01
1096737571.43	-3.85270406e+00	1.65494355e+02	-5.09036904e+01	7.29965613e+01	-5.02075163e+01	7.46337670e+01	-7.98023801e+00	7.76609741e+01
1097023142.86	-3.84871908e+00	1.65442783e+02	-5.09011543e+01	7.29295987e+01	-5.01075852e+01	7.47497234e+01	-7.98396225e+00	7.76320282e+01
1097308714.29	-3.84489417e+00	1.65401136e+02	-5.09042413e+01	7.27656574e+01	-5.00581344e+01	7.46312761e+01	-7.97043625e+00	7.77229454e+01
1097594285.71	-3.84474452e+00	1.65361699e+02	-5.07482472e+01	7.29986175e+01	-5.00876642e+01	7.48665060e+01	-7.98340210e+00	7.77604797e+01
1097879857.14	-3.84656423e+00	1.65334786e+02	-5.07720734e+01	7.35225913e+01	-4.99742558e+01	7.45903691e+01	-7.97508537e+00	7.78245481e+01
1098165428.57	-3.84680971e+00	1.65282200e+02	-5.07032653e+01	7.30448794e+01	-4.99827931e+01	7.46826748e+01	-7.98855064e+00	7.79149401e+01
1098451000	-3.84389774e+00	1.65305695e+02	-5.06756304e+01	7.27769745e+01	-4.99223713e+01	7.42868056e+01	-7.97923840e+00	7.78649188e+01
1098736571.43	-3.84324243e+00	1.65276598e+02	-5.06320768e+01	7.28804394e+01	-4.98676195e+01	7.42587406e+01	-7.97671284e+00	7.79402614e+01
1099022142.86	-3.84290172e+00	1.65194600e+02	-5.05506375e+01	7.27660964e+01	-4.98134439e+01	7.42144014e+01	-7.96841452e+00	7.79237543e+01
1099307714.29	-3.84301961e+00	1.65157368e+02	-5.05466589e+01	7.26780872e+01	-4.97532468e+01	7.39147649e+01	-7.97228202e+00	7.79086391e+01
1099593285.71	-3.83794886e+00	1.65164791e+02	-5.04680089e+01	7.26768887e+01	-4.96897640e+01	7.41144727e+01	-7.96857841e+00	7.80158486e+01
1099878857.14	-3.84049663e+00	1.65136334e+02	-5.05049464e+01	7.20861342e+01	-4.96508383e+01	7.35066612e+01	-7.96428988e+00	7.80129108e+01
1100164428.57	-3.83570675e+00	1.65082039e+02	-5.04177903e+01	7.17165510e+01	-4.95781297e+01	7.29310117e+01	-7.96285535e+00	7.80426142e+01
1100450000	-3.83039595e+00	1.65066893e+02	-5.03545714e+01	7.16668045e+01	-4.96282281e+01	7.29094976e+01	-7.94600673e+00	7.79484889e+01
1100735571.43	-3.82685321e+00	1.65014087e+02	-5.03527851e+01	7.15117532e+01	-4.95254996e+01	7.26289972e+01	-7.93894403e+00	7.79424815e+01
1101021142.86	-3.82985747e+00	1.64992908e+02	-5.03269129e+01	7.11263309e+01	-4.94710453e+01	7.22882740e+01	-7.93213663e+00	7.78587111e+01
1101306714.29	-3.82361034e+00	1.64970200e+02	-5.02255140e+01	7.11396337e+01	-4.94138825e+01	7.20625612e+01	-7.91930262e+00	7.78231317e+01
1101592285.71	-3.82264608e+00	1.64929783e+02	-5.03069777e+01	7.07867321e+01	-4.94338827e+01	7.15446671e+01	-7.89962974e+00	7.78003508e+01
1101877857.14	-3.81659257e+00	1.64896708e+02	-5.02458707e+01	7.04209075e+01	-4.93895201e+01	7.13277255e+01	-7.88735653e+00	7.76823311e+01
1102163428.57	-3.82034261e+00	1.64845391e+02	-5.02306506e+01	7.03102092e+01	-4.93341101e+01	7.09548275e+01	-7.87294730e+00	7.76702100e+01
1102449000	-3.81264686e+00	1.64845428e+02	-5.01356301e+01	6.94888132e+01	-4.93298579e+01	7.04786457e+01	-7.86142749e+00	7.75551061e+01
1102734571.43	-3.81426832e+00	1.64803266e+02	-5.01364858e+01	6.94737583e+01	-4.92618897e+01	7.03301383e+01	-7.84855950e+00	7.75058571e+01
1103020142.86	-3.81096838e+00	1.64791892e+02	-5.00784216e+01	6.92041910e+01	-4.92049223e+01	6.96205123e+01	-7.85263624e+00	7.74490282e+01
1103305714.29	-3.80849058e+00	1.64764627e+02	-5.01015525e+01	6.88647583e+01	-4.91858835e+01	6.97196754e+01	-7.83572453e+00	7.73883487e+01
1103591285.71	-3.80418707e+00	1.64747644e+02	-5.00497233e+01	6.82266051e+01	-4.91811811e+01	6.92113814e+01	-7.83356010e+00	7.72435558e+01
1103876857.14	-3.80226456e+00	1.64697426e+02	-5.00204819e+01	6.81611909e+01	-4.91491924e+01	6.85699885e+01	-7.82476540e+00	7.71157046e+01
1104162428.57	-3.80004389e+00	1.64668783e+02	-4.99604610e+01	6.81675076e+01	-4.91140079e+01	6.81648857e+01	-7.83554110e+00	7.70204656e+01
1104448000	-3.79903625e+00	1.64641584e+02	-5.00230931e+01	6.76831643e+01	-4.91080033e+01	6.79071202e+01	-7.81613693e+00	7.68751524e+01
1104733571.43	-3.79597867e+00	1.64618648e+02	-4.99667515e+01	6.72449203e+01	-4.91077841e+01	6.76917390e+01	-7.80524371e+00	7.67991112e+01
1105019142.86	-3.79402562e+00	1.64636428e+02	-4.99254912e+01	6.70468132e+01	-4.90417596e+01	6.73703454e+01	-7.79895259e+00	7.67512066e+01
1105304714.29	-3.78627840e+00	1.64572625e+02	-4.99177479e+01	6.66347734e+01	-4.90342654e+01	6.65919516e+01	-7.80422210e+00	7.66593512e+01
1105590285.71	-3.78452954e+00	1.64594718e+02	-4.98796753e+01	6.60021334e+01	-4.89866056e+01	6.62647259e+01	-7.80249988e+00	7.64995834e+01
1105875857.14	-3.78180464e+00	1.64572375e+02	-4.98503151e+01	6.57996060e+01	-4.89697683e+01	6.56221261e+01	-7.79209610e+00	7.64248904e+01
1106161428.57	-3.78360196e+00	1.64535302e+02	-4.98424553e+01	6.56337995e+01	-4.89747737e+01	6.55588506e+01	-7.78482683e+00	7.63445961e+01
1106447000	-3.78111114e+00	1.64485319e+02	-4.97720256e+01	6.52283494e+01	-4.89466862e+01	6.48464671e+01	-7.78689762e+00	7.63733657e+01
1106732571.43	-3.78572468e+00	1.64468076e+02	-4.97503297e+01	6.43715035e+01	-4.88902228e+01	6.48552939e+01	-7.77856865e+00	7.62503019e+01
1107018142.86	-3.78517843e+00	1.64418962e+02	-4.97668884e+01	6.40519752e+01	-4.89164441e+01	6.43273788e+01	-7.77292474e+00	7.62777195e+01
1107303714.29	-3.77914777e+00	1.64424276e+02	-4.97235461e+01	6.35854079e+01	-4.88629136e+01	6.36696714e+01	-7.76659858e+00	7.60526255e+01
1107589285.71	-3.77126433e+00	1.64437235e+02	-4.96870616e+01	6.32209647e+01	-4.88368669e+01	6.31912397e+01	-7.77711690e+00	7.59725902e+01
1107874857.14	-3.77240529e+00	1.64389804e+02	-4.96587120e+01	6.31881999e+01	-4.88374806e+01	6.27130092e+01	-7.77393308e+00	7.58693748e+01
1108160428.57	-3.77093563e+00	1.64357489e+02	-4.96378541e+01	6.23883624e+01	-4.88468557e+01	6.23473627e+01	-7.77092019e+00	7.57239834e+01
1108446000	-3.76661672e+00	1.64309762e+02	-4.96587683e+01	6.22217134e+01	-4.88239829e+01	6.19649831e+01	-7.77537548e+00	7.56000865e+01
1108731571.43	-3.76555402e+00	1.64298232e+02	-4.96632068e+01	6.18196479e+01	-4.88314462e+01	6.16550833e+01	-7.77655075e+00	7.55514112e+01
1109017142.86	-3.76076893e+00	1.64237125e+02	-4.96556695e+01	6.15762186e+01	-4.87935031e+01	6.08123532e+01	-7.79300816e+00	7.53777404e+01
1109302714.29	-3.76047900e+00	1.64211696e+02	-4.95988849e+01	6.08415079e+01	-4.87718368e+01	6.05585658e+01	-7.77356028e+00	7.53569206e+01
1109588285.71	-3.75917884e+00	1.64207479e+02	-4.95911752e+01	6.02766905e+01	-4.87526550e+01	6.01046312e+01	-7.78282275e+00	7.52800866e+01
1109873857.14	-3.75631472e+00	1.64204237e+02	-4.96244394e+01	5.97920794e+01	-4.87361768e+01	5.95546581e+01	-7.79117665e+00	7.51355474e+01
1110159428.57	-3.75364688e+00	1.64191838e+02	-4.95902706e+01	5.97803483e+01	-4.87151823e+01	5.89336203e+01	-7.78741187e+00	7.50401921e+01
1110445000	-3.74542741e+00	1.64162442e+02	-4.95833233e+01	5.89328936e+01	-4.87411143e+01	5.86158104e+01	-7.78961989e+00	7.50210417e+01
1110730571.43	-3.74466771e+00	1.64146678e+02	-4.95295188e+01	5.87486128e+01	-4.87108469e+01	5.78978906e+01	-7.78811026e+00	7.49152304e+01
1111016142.86	-3.74503471e+00	1.64141609e+02	-4.95307933e+01	5.79970635e+01	-4.86989037e+01	5.75548815e+01	-7.79996390e+00	7.48035644e+01
1111301714.29	-3.74259733e+00	1.64092216e+02	-4.94974224e+01	5.73950520e+01	-4.86866838e+01	5.72917287e+01	-7.80202333e+00	7.46655963e+01
1111587285.71	-3.74261481e+00	1.64072053e+02	-4.95518692e+01	5.71478844e+01	-4.87174508e+01	5.65449675e+01	-7.80851014e+00	7.45578221e+01
1111872857.14	-3.73808544e+00	1.64081449e+02	-4.95652379e+01	5.66448365e+01	-4.87250930e+01	5.58991165e+01	-7.81704704e+00	7.44567332e+01
1112158428.57	-3.72855116e+00	1.64065709e+02	-4.95407904e+01	5.62627043e+01	-4.87150340e+01	5.58568090e+01	-7.81430804e+00	7.44829072e+01
1112444000	-3.72470051e+00	1.64007429e+02	-4.95574620e+01	5.57718342e+01	-4.87136598e+01	5.53829750e+01	-7.82463971e+00	7.42712062e+01
1112729571.43	-3.72172929e+00	1.64015945e+02	-4.95717313e+01	5.52976494e+01	-4.86850671e+01	5.47625094e+01	-7.81737287e+00	7.41283065e+01
1113015142.86	-3.72256196e+00	1.63974530e+02	-4.95699814e+01	5.47276750e+01	-4.86920280e+01	5.42627070e+01	-7.81975322e+00	7.39446723e+01
1113300714.29	-3.71682600e+00	1.63948896e+02	-4.95465322e+01	5.42421090e+01	-4.87171877e+01	5.36153502e+01	-7.81704954e+00	7.38657925e+01
1113586285.71	-3.71102610e+00	1.63923260e+02	-4.95402080e+01	5.41576488e+01	-4.87002468e+01	5.30416286e+01	-7.82377497e+00	7.37898077e+01
1113871857.14	-3.70139971e+00	1.63943821e+02	-4.95221168e+01	5.31643990e+01	-4.87128475e+01	5.29461818e+01	-7.82131450e+00	7.37329325e+01
1114157428.57	-3.69755284e+00	1.63899797e+02	-4.95588747e+01	5.30200897e+01	-4.86922627e+01	5.24601833e+01	-7.81575251e+00	7.37725573e+01
1114443000	-3.69743187e+00	1.63866273e+02	-4.95598034e+01	5.28123733e+01	-4.87540358e+01	5.19867553e+01	-7.82089352e+00	7.36818248e+01
1114728571.43	-3.69482295e+00	1.63890472e+02	-4.95558464e+01	5.24764325e+01	-4.87135042e+01	5.14639889e+01	-7.81725938e+00	7.36897752e+01
1115014142.86	-3.69207434e+00	1.63865186e+02	-4.95758548e+01	5.18904844e+01	-4.87179934e+01	5.11406123e+01	-7.81304308e+00	7.35597588e+01
1115299714.29	-3.68569884e+00	1.63844232e+02	-4.95168783e+01	5.14601534e+01	-4.87815193e+01	5.07643930e+01	-7.82658612e+00	7.35494694e+01
1115585285.71	-3.68354703e+00	1.63856375e+02	-4.95559568e+01	5.10664296e+01	-4.86746244e+01	5.01995670e+01	-7.82668798e+00	7.34801258e+01
1115870857.14	-3.68682883e+00	1.63825591e+02	-4.95217035e+01	5.08846067e+01	-4.87604931e+01	5.00737876e+01	-7.82884555e+00	7.34739548e+01
1116156428.57	-3.67940119e+00	1.63772234e+02	-4.96015212e+01	5.03484771e+01	-4.87229078e+01	4.94124303e+01	-7.82975949e+00	7.34277663e+01
1116442000	-3.68025364e+00	1.63810135e+02	-4.95456447e+01	4.95623446e+01	-4.87959617e+01	4.90200660e+01	-7.82655046e+00	7.33681718e+01
1116727571.43	-3.67967126e+00	1.63813667e+02	-4.95607090e+01	4.90075262e+01	-4.87958301e+01	4.83424677e+01	-7.82015955e+00	7.33600290e+01
1117013142.86	-3.67678492e+00	1.63861241e+02	-4.95454435e+01	4.90201454e+01	-4.87618149e+01	4.83122585e+01	-7.81466900e+00	7.32816166e+01
1117298714.29	-3.67153727e+00	1.63840784e+02	-4.96423875e+01	4.83221591e+01	-4.87659625e+01	4.77195898e+01	-7.81751989e+00	7.33629706e+01
1117584285.71	-3.66729936e+00	1.63803534e+02	-4.96358805e+01	4.75662922e+01	-4.87747261e+01	4.76635010e+01	-7.82252770e+00	7.33212032e+01
1117869857.14	-3.67165694e+00	1.63755472e+02	-4.95606497e+01	4.77678747e+01	-4.87637533e+01	4.74158610e+01	-7.84037687e+00	7.32581716e+01
1118155428.57	-3.66127275e+00	1.63801302e+02	-4.96342475e+01	4.72872945e+01	-4.87820829e+01	4.64771881e+01	-7.83344292e+00	7.31379939e+01
1118441000	-3.66258065e+00	1.63816604e+02	-4.96886930e+01	4.69950441e+01	-4.88281139e+01	4.62863499e+01	-7.83462861e+00	7.31718738e+01
1118726571.43	-3.66422845e+00	1.63819335e+02	-4.96873062e+01	4.68981578e+01	-4.87855537e+01	4.56433050e+01	-7.83298977e+00	7.30245955e+01
1119012142.86	-3.65417174e+00	1.63815436e+02	-4.96576809e+01	4.59262636e+01	-4.87939470e+01	4.53394298e+01	-7.83941473e+00	7.29528008e+01
1119297714.29	-3.65069953e+00	1.63802094e+02	-4.96009522e+01	4.57387537e+01	-4.87624963e+01	4.49614766e+01	-7.84004797e+00	7.29181612e+01
1119583285.71	-3.65116042e+00	1.63786751e+02	-4.96131474e+01	4.50057349e+01	-4.87848017e+01	4.44478180e+01	-7.84495272e+00	7.29094437e+01
1119868857.14	-3.64467110e+00	1.63817856e+02	-4.95909221e+01	4.50622194e+01	-4.87904059e+01	4.40702231e+01	-7.83408320e+00	7.27761595e+01
1120154428.57	-3.64136272e+00	1.63782871e+02	-4.96171157e+01	4.47379253e+01	-4.87970700e+01	4.34166648e+01	-7.82677322e+00	7.26764882e+01
1120440000	-3.63926685e+00	1.63784981e+02	-4.96067188e+01	4.39626082e+01	-4.88111024e+01	4.30124265e+01	-7.82959942e+00	7.25767212e+01
1120725571.43	-3.64060588e+00	1.63777765e+02	-4.96393851e+01	4.35825900e+01	-4.87705657e+01	4.29306471e+01	-7.83336636e+00	7.24841908e+01
1121011142.86	-3.63867219e+00	1.63802840e+02	-4.96575851e+01	4.31764359e+01	-4.87996800e+01	4.23647385e+01	-7.83225082e+00	7.23884212e+01
1121296714.29	-3.63566177e+00	1.63778878e+02	-4.96530129e+01	4.27427901e+01	-4.87610493e+01	4.18145374e+01	-7.81987842e+00	7.22556749e+01
1121582285.71	-3.63237621e+00	1.63777371e+02	-4.96174486e+01	4.22477563e+01	-4.88140644e+01	4.13033294e+01	-7.82501716e+00	7.21917718e+01
1121867857.14	-3.63209637e+00	1.63788433e+02	-4.96598698e+01	4.18793028e+01	-4.88435253e+01	4.08298012e+01	-7.80369831e+00	7.19985641e+01
1122153428.57	-3.62918510e+00	1.63787773e+02	-4.96633868e+01	4.14265009e+01	-4.88279863e+01	4.05799585e+01	-7.80615736e+00	7.19933992e+01
1122439000	-3.63057253e+00	1.63806885e+02	-4.96655171e+01	4.08980154e+01	-4.88259785e+01	4.01518673e+01	-7.81988543e+00	7.18843152e+01
1122724571.43	-3.62435485e+00	1.63812888e+02	-4.96775369e+01	4.05639524e+01	-4.88053983e+01	3.96397194e+01	-7.81798696e+00	7.16797268e+01
1123010142.86	-3.62294102e+00	1.63778199e+02	-4.97177805e+01	4.03045266e+01	-4.88571075e+01	3.95761714e+01	-7.82138758e+00	7.16784865e+01
1123295714.29	-3.62181075e+00	1.63813398e+02	-4.97028647e+01	3.98581294e+01	-4.88622554e+01	3.86042010e+01	-7.80823011e+00	7.15033445e+01
1123581285.71	-3.62055303e+00	1.63806036e+02	-4.97001254e+01	3.92699037e+01	-4.88580845e+01	3.85301458e+01	-7.78995542e+00	7.15138164e+01
1123866857.14	-3.61229971e+00	1.63807591e+02	-4.97030942e+01	3.93169667e+01	-4.88710007e+01	3.78764611e+01	-7.79658008e+00	7.13990254e+01
1124152428.57	-3.60734357e+00	1.63815051e+02	-4.97334115e+01	3.85299816e+01	-4.88356371e+01	3.77467997e+01	-7.78449843e+00	7.12439343e+01
1124438000	-3.60451499e+00	1.63807773e+02	-4.97717308e+01	3.78560669e+01	-4.88408948e+01	3.73803426e+01	-7.79452363e+00	7.11207109e+01
1124723571.43	-3.60674515e+00	1.63804179e+02	-4.97320490e+01	3.74170039e+01	-4.88804649e+01	3.67533706e+01	-7.78765597e+00	7.10079559e+01
1125009142.86	-3.60436815e+00	1.63756437e+02	-4.97831442e+01	3.70033651e+01	-4.89142286e+01	3.61490086e+01	-7.78451811e+00	7.08963460e+01
1125294714.29	-3.60527363e+00	1.63817015e+02	-4.97727858e+01	3.64954812e+01	-4.89285823e+01	3.57449563e+01	-7.77713330e+00	7.08504942e+01
1125580285.71	-3.60640139e+00	1.63819834e+02	-4.97817263e+01	3.65952653e+01	-4.89233462e+01	3.53971335e+01	-7.77385335e+00	7.07438833e+01
1125865857.14	-3.60044931e+00	1.63800598e+02	-4.98559484e+01	3.60093663e+01	-4.89569262e+01	3.47965973e+01	-7.77290413e+00	7.06461883e+01
1126151428.57	-3.59329760e+00	1.63764486e+02	-4.98440349e+01	3.56171643e+01	-4.89331031e+01	3.44623855e+01	-7.77055548e+00	7.05621638e+01
1126437000	-3.59243140e+00	1.63788418e+02	-4.98799107e+01	3.52586828e+01	-4.89980156e+01	3.41637723e+01	-7.77580867e+00	7.04017982e+01
1126722571.43	-3.59177487e+00	1.63792032e+02	-4.98592601e+01	3.48544318e+01	-4.90357167e+01	3.38080143e+01	-7.77199296e+00	7.03366075e+01
1127008142.86	-3.58694403e+00	1.63795708e+02	-4.98644896e+01	3.44324151e+01	-4.90540287e+01	3.34594304e+01	-7.77136416e+00	7.01854338e+01
1127293714.29	-3.58553660e+00	1.63831088e+02	-4.99078810e+01	3.39700036e+01	-4.90607809e+01	3.27472573e+01	-7.76624083e+00	7.01384841e+01
1127579285.71	-3.58075489e+00	1.63846008e+02	-4.99365375e+01	3.37880916e+01	-4.90643433e+01	3.27733883e+01	-7.77710149e+00	7.00437667e+01
1127864857.14	-3.58536582e+00	1.63813296e+02	-4.99624462e+01	3.35667343e+01	-4.90736093e+01	3.21748317e+01	-7.78132948e+00	6.98767077e+01
1128150428.57	-3.58218579e+00	1.63791107e+02	-4.99996071e+01	3.31708304e+01	-4.91107300e+01	3.16736783e+01	-7.76222136e+00	6.97430715e+01
1128436000	-3.57788206e+00	1.63844505e+02	-5.00015615e+01	3.24916955e+01	-4.90718413e+01	3.16139184e+01	-7.75915338e+00	6.97130885e+01
1128721571.43	-3.57471172e+00	1.63871014e+02	-5.00006410e+01	3.20773638e+01	-4.91101182e+01	3.14681826e+01	-7.76171590e+00	6.95385041e+01
1129007142.86	-3.57084976e+00	1.63854664e+02	-5.00098878e+01	3.21993925e+01	-4.91222671e+01	3.09772141e+01	-7.75998675e+00	6.94215366e+01
1129292714.29	-3.56735558e+00	1.63860313e+02	-5.00010056e+01	3.15941533e+01	-4.91467083e+01	3.03648785e+01	-7.76151913e+00	6.92591770e+01
1129578285.71	-3.56788483e+00	1.63868466e+02	-5.00133264e+01	3.12155911e+01	-4.91514061e+01	3.05277698e+01	-7.75600738e+00	6.91273396e+01
1129863857.14	-3.57120504e+00	1.63836481e+02	-5.01074654e+01	3.12863317e+01	-4.91414044e+01	2.96737554e+01	-7.75807496e+00	6.90219652e+01
1130149428.57	-3.57185299e+00	1.63817609e+02	-5.01174394e+01	3.07636687e+01	-4.91356653e+01	2.93083185e+01	-7.75588454e+00	6.89034790e+01
1130435000	-3.56798254e+00	1.63834716e+02	-5.00872023e+01	3.04057670e+01	-4.91649282e+01	2.93290099e+01	-7.75865623e+00	6.87931056e+01
1130720571.43	-3.56414703e+00	1.63789439e+02	-5.01260105e+01	3.03726561e+01	-4.91459823e+01	2.88738878e+01	-7.74416274e+00	6.87345852e+01
1131006142.86	-3.56411666e+00	1.63845094e+02	-5.01236204e+01	2.99710591e+01	-4.91753581e+01	2.84504246e+01	-7.74635800e+00	6.86071635e+01
1131291714.29	-3.55573636e+00	1.63870141e+02	-5.00992481e+01	2.98621677e+01	-4.91791479e+01	2.81046237e+01	-7.74504746e+00	6.83828553e+01
1131577285.71	-3.55674577e+00	1.63869934e+02	-5.01343713e+01	2.93723037e+01	-4.92046139e+01	2.78841338e+01	-7.75534555e+00	6.83138732e+01
1131862857.14	-3.55207917e+00	1.63881873e+02	-5.01235183e+01	2.92036757e+01	-4.91968801e+01	2.78259041e+01	-7.73932861e+00	6.80912932e+01
1132148428.57	-3.55073418e+00	1.63871489e+02	-5.01497916e+01	2.92685868e+01	-4.91811332e+01	2.71378739e+01	-7.73770462e+00	6.79393345e+01
1132434000	-3.55637494e+00	1.63874381e+02	-5.01241187e+01	2.82251584e+01	-4.92283815e+01	2.67850854e+01	-7.72807565e+00	6.78233323e+01
1132719571.43	-3.55368186e+00	1.63906059e+02	-5.01172489e+01	2.85250546e+01	-4.91834456e+01	2.67066158e+01	-7.72841200e+00	6.77777193e+01
1133005142.86	-3.55371580e+00	1.63887684e+02	-5.01334548e+01	2.78931298e+01	-4.91735661e+01	2.63855440e+01	-7.72134791e+00	6.75966303e+01
1133290714.29	-3.54939627e+00	1.63862689e+02	-5.00757093e+01	2.79629747e+01	-4.92301103e+01	2.58970411e+01	-7.71544108e+00	6.74375541e+01
1133576285.71	-3.54923970e+00	1.63890522e+02	-5.00814929e+01	2.71456890e+01	-4.92016747e+01	2.58176332e+01	-7.71322851e+00	6.72908167e+01
1133861857.14	-3.54565845e+00	1.63932622e+02	-5.01143487e+01	2.69244072e+01	-4.92114410e+01	2.53761054e+01	-7.71868438e+00	6.71439033e+01
1134147428.57	-3.54268879e+00	1.63899700e+02	-5.00673621e+01	2.68891023e+01	-4.91788386e+01	2.52434187e+01	-7.72141815e+00	6.69413205e+01
1134433000	-3.54391404e+00	1.63897385e+02	-5.01208612e+01	2.65119303e+01	-4.92198312e+01	2.46218483e+01	-7.71598367e+00	6.68848235e+01
1134718571.43	-3.54298722e+00	1.63944609e+02	-5.00541862e+01	2.59222040e+01	-4.91784089e+01	2.43308302e+01	-7.72632246e+00	6.68114995e+01
1135004142.86	-3.53930511e+00	1.63898939e+02	-5.00318940e+01	2.58670325e+01	-4.91782777e+01	2.37420342e+01	-7.71754026e+00	6.66159022e+01
1135289714.29	-3.53923001e+00	1.63894748e+02	-5.00623449e+01	2.50349049e+01	-4.91937515e+01	2.32875037e+01	-7.71628175e+00	6.64071396e+01
1135575285.71	-3.54018711e+00	1.63943247e+02	-5.00532192e+01	2.49317807e+01	-4.91883026e+01	2.30697909e+01	-7.71887077e+00	6.63030229e+01
1135860857.14	-3.53529497e+00	1.63934217e+02	-5.00592244e+01	2.45979427e+01	-4.91605838e+01	2.27426635e+01	-7.72280619e+00	6.62202728e+01
1136146428.57	-3.53681741e+00	1.63947634e+02	-5.00693814e+01	2.41265185e+01	-4.91255065e+01	2.19947732e+01	-7.71688143e+00	6.60366533e+01
1136432000	-3.53645819e+00	1.63971595e+02	-5.00096169e+01	2.39815394e+01	-4.91759849e+01	2.20767623e+01	-7.71790968e+00	6.59122316e+01
1136717571.43	-3.53160790e+00	1.63957933e+02	-5.00151321e+01	2.33231379e+01	-4.91532568e+01	2.19023752e+01	-7.71856503e+00	6.58400657e+01
1137003142.86	-3.53625804e+00	1.63931360e+02	-5.01038531e+01	2.29872108e+01	-4.91529215e+01	2.09667778e+01	-7.70922784e+00	6.56574028e+01
1137288714.29	-3.53388308e+00	1.63964116e+02	-5.00546317e+01	2.26055115e+01	-4.91865623e+01	2.03836815e+01	-7.72293593e+00	6.55179692e+01
1137574285.71	-3.52589056e+00	1.63943353e+02	-4.99860120e+01	2.21701429e+01	-4.91846396e+01	2.04191971e+01	-7.71513865e+00	6.54529996e+01
1137859857.14	-3.52649240e+00	1.63957871e+02	-5.00367784e+01	2.19365272e+01	-4.91889460e+01	1.95982961e+01	-7.72800004e+00	6.52575145e+01
1138145428.57	-3.52185364e+00	1.63933244e+02	-5.00506450e+01	2.11703020e+01	-4.91683046e+01	1.93388073e+01	-7.73248993e+00	6.52256387e+01
1138431000	-3.52657490e+00	1.63986665e+02	-5.00907404e+01	2.06334861e+01	-4.91977312e+01	1.88732928e+01	-7.73482305e+00	6.51178507e+01
1138716571.43	-3.52927502e+00	1.63949042e+02	-5.00242866e+01	2.03308838e+01	-4.92103049e+01	1.88349294e+01	-7.74008238e+00	6.49764179e+01
1139002142.86	-3.52577586e+00	1.63972478e+02	-5.00295709e+01	2.00097103e+01	-4.91850086e+01	1.82420874e+01	-7.74239889e+00	6.48686408e+01
1139287714.29	-3.53030241e+00	1.63959574e+02	-5.00502802e+01	1.96004898e+01	-4.91943239e+01	1.83222855e+01	-7.74751682e+00	6.47382044e+01
1139573285.71	-3.52562157e+00	1.63964788e+02	-5.00991926e+01	1.96027515e+01	-4.92432650e+01	1.75391469e+01	-7.74312981e+00	6.46932886e+01
1139858857.14	-3.52147106e+00	1.63955586e+02	-4.99846989e+01	1.90236192e+01	-4.92292680e+01	1.68106434e+01	-7.74979237e+00	6.46268874e+01
1140144428.57	-3.51992424e+00	1.63954753e+02	-5.00402203e+01	1.84650212e+01	-4.92142070e+01	1.69484679e+01	-7.74347903e+00	6.44855521e+01
1140430000	-3.51552133e+00	1.63963351e+02	-5.00727593e+01	1.80990102e+01	-4.92297245e+01	1.62734569e+01	-7.73604755e+00	6.44161112e+01
1140715571.43	-3.51454724e+00	1.63969600e+02	-5.00858168e+01	1.75636486e+01	-4.92061830e+01	1.60768694e+01	-7.75418876e+00	6.42756941e+01
1141001142.86	-3.50843370e+00	1.63995573e+02	-5.00910865e+01	1.72037054e+01	-4.92114260e+01	1.57057785e+01	-7.76164487e+00	6.41288845e+01
1141286714.29	-3.51203565e+00	1.63984324e+02	-5.01268545e+01	1.71479265e+01	-4.92224756e+01	1.50302674e+01	-7.75750097e+00	6.40999954e+01
1141572285.71	-3.51573489e+00	1.64041822e+02	-5.00958899e+01	1.64995728e+01	-4.92181186e+01	1.48756634e+01	-7.73849736e+00	6.40299482e+01
1141857857.14	-3.50897571e+00	1.64007350e+02	-5.01046691e+01	1.59951168e+01	-4.92246597e+01	1.42624296e+01	-7.74422553e+00	6.39532112e+01
1142143428.57	-3.50599234e+00	1.64008117e+02	-5.00983360e+01	1.58201940e+01	-4.92008679e+01	1.40414546e+01	-7.75355632e+00	6.38426241e+01
1142429000	-3.50173859e+00	1.64038721e+02	-5.00630143e+01	1.55799045e+01	-4.92246253e+01	1.36250348e+01	-7.75919038e+00	6.37593448e+01
1142714571.43	-3.50448549e+00	1.64016002e+02	-5.00584838e+01	1.49043268e+01	-4.92335338e+01	1.34766444e+01	-7.74302036e+00	6.36491663e+01
1143000142.86	-3.50802174e+00	1.64006333e+02	-5.00726408e+01	1.46195491e+01	-4.92472883e+01	1.27579407e+01	-7.74937580e+00	6.35897409e+01
1143285714.29	-3.50969772e+00	1.63992255e+02	-5.00758442e+01	1.42642475e+01	-4.92576276e+01	1.22781090e+01	-7.76580411e+00	6.35176894e+01
1143571285.71	-3.51039739e+00	1.63989547e+02	-5.00543052e+01	1.36396734e+01	-4.92535736e+01	1.18729338e+01	-7.75954042e+00	6.34941083e+01
1143856857.14	-3.51091400e+00	1.63980550e+02	-5.00570156e+01	1.32959707e+01	-4.92506535e+01	1.14860738e+01	-7.77145771e+00	6.33978128e+01
1144142428.57	-3.51305285e+00	1.64014029e+02	-5.00812357e+01	1.28301379e+01	-4.92194810e+01	1.09598599e+01	-7.78006342e+00	6.33184027e+01
1144428000	-3.51387394e+00	1.64017326e+02	-5.00863790e+01	1.21223582e+01	-4.92203960e+01	1.07569786e+01	-7.77210432e+00	6.31957655e+01
1144713571.43	-3.51224652e+00	1.63987943e+02	-5.01372447e+01	1.18191660e+01	-4.91965215e+01	9.99973397e+00	-7.78525013e+00	6.30643490e+01
1144999142.86	-3.50703086e+00	1.63993945e+02	-5.01021152e+01	1.12849056e+01	-4.91985288e+01	9.76258845e+00	-7.79051220e+00	6.30538043e+01
1145284714.29	-3.50760988e+00	1.64012871e+02	-5.01179227e+01	1.08953615e+01	-4.92688695e+01	9.42309726e+00	-7.79502726e+00	6.30294492e+01
1145570285.71	-3.50351356e+00	1.64066337e+02	-5.01056955e+01	1.07534165e+01	-4.92553837e+01	8.95491947e+00	-7.79836919e+00	6.30185035e+01
1145855857.14	-3.50407315e+00	1.64048091e+02	-5.01421881e+01	1.00609759e+01	-4.92684572e+01	8.44593032e+00	-7.80252893e+00	6.29197373e+01
1146141428.57	-3.50778417e+00	1.64020041e+02	-5.01465684e+01	9.62038678e+00	-4.92892499e+01	7.89444623e+00	-7.81043523e+00	6.28441456e+01
1146427000	-3.50728964e+00	1.64038009e+02	-5.01754884e+01	8.82093680e+00	-4.93381193e+01	7.62770872e+00	-7.81288934e+00	6.27311446e+01
1146712571.43	-3.50643422e+00	1.64057985e+02	-5.01578514e+01	8.47142370e+00	-4.93017309e+01	7.09262771e+00	-7.80790057e+00	6.26722920e+01
1146998142.86	-3.50525669e+00	1.64028030e+02	-5.01694943e+01	8.86563728e+00	-4.93446021e+01	6.85320116e+00	-7.81255299e+00	6.26422202e+01
1147283714.29	-3.51020513e+00	1.64003160e+02	-5.01969731e+01	8.35306947e+00	-4.93097801e+01	6.44023929e+00	-7.81906973e+00	6.25454410e+01
1147569285.71	-3.51265735e+00	1.63961337e+02	-5.02145341e+01	7.62887892e+00	-4.93732213e+01	5.63269005e+00	-7.82261101e+00	6.24970332e+01
1147854857.14	-3.51298770e+00	1.64025642e+02	-5.02160320e+01	7.28293103e+00	-4.93450146e+01	5.69844020e+00	-7.83699818e+00	6.24803633e+01
1148140428.57	-3.50626969e+00	1.64050783e+02	-5.02095626e+01	7.08738749e+00	-4.93928301e+01	5.06083603e+00	-7.82829060e+00	6.24113562e+01
1148426000	-3.50499777e+00	1.64050314e+02	-5.02324981e+01	6.46539816e+00	-4.94148550e+01	4.41017921e+00	-7.84053571e+00	6.24274243e+01
1148711571.43	-3.50705344e+00	1.64004786e+02	-5.02910873e+01	5.90323448e+00	-4.93613835e+01	4.02986485e+00	-7.83989631e+00	6.23962174e+01
1148997142.86	-3.50976162e+00	1.64015492e+02	-5.02863573e+01	5.75863483e+00	-4.93804883e+01	3.63297305e+00	-7.83943430e+00	6.22911995e+01
1149282714.29	-3.50686272e+00	1.63968269e+02	-5.03021712e+01	5.24955178e+00	-4.94075136e+01	3.38905476e+00	-7.83960265e+00	6.23149910e+01
1149568285.71	-3.50585072e+00	1.64032294e+02	-5.03031840e+01	4.62802678e+00	-4.94305856e+01	2.91278501e+00	-7.83820847e+00	6.22886948e+01
1149853857.14	-3.50415725e+00	1.64012074e+02	-5.03115388e+01	4.33829319e+00	-4.93895430e+01	2.82698472e+00	-7.84065567e+00	6.22943473e+01
1150139428.57	-3.49976339e+00	1.63972189e+02	-5.03337232e+01	4.04960210e+00	-4.94781064e+01	2.14558992e+00	-7.84770779e+00	6.23052233e+01
1150425000	-3.50278035e+00	1.63963913e+02	-5.03018521e+01	3.61398480e+00	-4.94387678e+01	1.58998917e+00	-7.85115985e+00	6.22437215e+01
1150710571.43	-3.50202399e+00	1.63970414e+02	-5.03181240e+01	3.48950013e+00	-4.94859192e+01	1.45201031e+00	-7.85371921e+00	6.21870670e+01
1150996142.86	-3.50352699e+00	1.63940024e+02	-5.04370579e+01	2.71986173e+00	-4.94694483e+01	1.27187700e+00	-7.85134639e+00	6.21986385e+01
1151281714.29	-3.50185085e+00	1.63936327e+02	-5.03979499e+01	2.40947600e+00	-4.95065599e+01	6.80556958e-01	-7.83820740e+00	6.23294886e+01
1151567285.71	-3.50337277e+00	1.63930161e+02	-5.04373353e+01	2.27607073e+00	-4.94838018e+01	2.14037180e-01	-7.84083775e+00	6.22860964e+01
1151852857.14	-3.50386892e+00	1.63979546e+02	-5.03855692e+01	2.16234928e+00	-4.94561320e+01	-1.09492432e-01	-7.84274678e+00	6.23214055e+01
1152138428.57	-3.50502940e+00	1.63984246e+02	-5.03994569e+01	1.48012700e+00	-4.95515939e+01	-3.16959296e-01	-7.84784696e+00	6.22954981e+01
1152424000	-3.50406015e+00	1.63964958e+02	-5.04581749e+01	9.00915098e-01	-4.95474112e+01	-6.75080687e-01	-7.84469599e+00	6.23430988e+01
1152709571.43	-3.50198296e+00	1.63967805e+02	-5.03892323e+01	5.80424948e-01	-4.95501755e+01	-1.05394088e+00	-7.84844278e+00	6.23148125e+01
1152995142.86	-3.50094520e+00	1.63957854e+02	-5.04664957e+01	5.53950673e-01	-4.95182025e+01	-1.44738269e+00	-7.84520436e+00	6.23954291e+01
1153280714.29	-3.49916155e+00	1.63955530e+02	-5.04323365e+01	4.63082478e-01	-4.95788324e+01	-1.68377994e+00	-7.85568431e+00	6.23368071e+01
1153566285.71	-3.50718512e+00	1.63917981e+02	-5.04843566e+01	-2.01061868e-01	-4.95481126e+01	-2.32638314e+00	-7.85213048e+00	6.24373925e+01
1153851857.14	-3.50621842e+00	1.63909495e+02	-5.04828329e+01	-2.07921330e-01	-4.95482540e+01	-2.77673015e+00	-7.85576237e+00	6.24013522e+01
1154137428.57	-3.50356782e+00	1.63925865e+02	-5.04569852e+01	-1.09651094e+00	-4.95415844e+01	-2.57486908e+00	-7.85179433e+00	6.25043832e+01
1154423000	-3.50610768e+00	1.63886269e+02	-5.05342245e+01	-1.52267202e+00	-4.95656586e+01	-3.41729261e+00	-7.86633689e+00	6.24870477e+01
1154708571.43	-3.50318971e+00	1.63892121e+02	-5.04980268e+01	-2.02015252e+00	-4.95632643e+01	-3.48002680e+00	-7.85909578e+00	6.25025267e+01
1154994142.86	-3.50801382e+00	1.63862286e+02	-5.04808534e+01	-2.57963158e+00	-4.95387858e+01	-4.08619433e+00	-7.86108455e+00	6.25432603e+01
1155279714.29	-3.50552281e+00	1.63842580e+02	-5.04880428e+01	-3.13182436e+00	-4.95627278e+01	-4.70628933e+00	-7.86532438e+00	6.24759423e+01
1155565285.71	-3.50591218e+00	1.63828396e+02	-5.04956180e+01	-3.06498313e+00	-4.95303215e+01	-5.03966683e+00	-7.87564404e+00	6.24281950e+01
1155850857.14	-3.50823199e+00	1.63786762e+02	-5.04557868e+01	-3.61854618e+00	-4.95979017e+01	-5.39825667e+00	-7.86641343e+00	6.24347805e+01
1156136428.57	-3.50728332e+00	1.63751015e+02	-5.05553995e+01	-4.04576240e+00	-4.95951737e+01	-5.65417306e+00	-7.86452936e+00	6.24440594e+01
1156422000	-3.50305362e+00	1.63722031e+02	-5.05640367e+01	-4.29326624e+00	-4.95677238e+01	-6.17535684e+00	-7.86317676e+00	6.24902181e+01
1156707571.43	-3.50638228e+00	1.63701889e+02	-5.06114345e+01	-4.93978694e+00	-4.95468467e+01	-6.41497433e+00	-7.87045113e+00	6.24487425e+01
1156993142.86	-3.50487515e+00	1.63700769e+02	-5.05853628e+01	-4.78366201e+00	-4.96254657e+01	-6.85150717e+00	-7.87724706e+00	6.23989355e+01
1157278714.29	-3.50698232e+00	1.63699427e+02	-5.06232276e+01	-5.54125075e+00	-4.96375192e+01	-7.17378151e+00	-7.86869805e+00	6.23784336e+01
1157564285.71	-3.50501904e+00	1.63689538e+02	-5.06217014e+01	-5.88895593e+00	-4.96796139e+01	-8.06918587e+00	-7.87546838e+00	6.24228401e+01
1157849857.14	-3.50629399e+00	1.63684773e+02	-5.07569915e+01	-6.37016387e+00	-4.96847998e+01	-8.10088846e+00	-7.86721424e+00	6.23659291e+01
1158135428.57	-3.50522587e+00	1.63643588e+02	-5.07134599e+01	-6.98866452e+00	-4.96931365e+01	-8.62736798e+00	-7.85640939e+00	6.24788293e+01
1158421000	-3.50574070e+00	1.63621251e+02	-5.07540734e+01	-7.19893178e+00	-4.96832550e+01	-9.03935690e+00	-7.85564914e+00	6.24642339e+01
1158706571.43	-3.50315991e+00	1.63566366e+02	-5.07029708e+01	-7.13694996e+00	-4.96721992e+01	-9.36042734e+00	-7.85013719e+00	6.24485727e+01
1158992142.86	-3.50617823e+00	1.63577291e+02	-5.07693224e+01	-7.39495783e+00	-4.96989273e+01	-9.77597883e+00	-7.84513940e+00	6.24154623e+01
1159277714.29	-3.50770990e+00	1.63634878e+02	-5.07504992e+01	-7.93158895e+00	-4.97054104e+01	-1.04108916e+01	-7.84164800e+00	6.24588748e+01
1159563285.71	-3.51078818e+00	1.63600556e+02	-5.08525054e+01	-8.70757598e+00	-4.96860681e+01	-1.07984385e+01	-7.83691426e+00	6.25950244e+01
1159848857.14	-3.50573292e+00	1.63576477e+02	-5.07572892e+01	-8.63420975e+00	-4.97585376e+01	-1.10322411e+01	-7.82059275e+00	6.25942509e+01
1160134428.57	-3.50446887e+00	1.63544113e+02	-5.08528623e+01	-8.94170079e+00	-4.97442318e+01	-1.12661720e+01	-7.82722323e+00	6.26081038e+01
1160420000	-3.50608938e+00	1.63483604e+02	-5.08438042e+01	-9.45025968e+00	-4.97577147e+01	-1.20121440e+01	-7.83088713e+00	6.25717488e+01
1160705571.43	-3.49964824e+00	1.63460723e+02	-5.08149204e+01	-9.94083516e+00	-4.97795545e+01	-1.21054426e+01	-7.80955007e+00	6.25615837e+01
1160991142.86	-3.49755530e+00	1.63369621e+02	-5.08788230e+01	-9.63798889e+00	-4.97846112e+01	-1.25025731e+01	-7.79584999e+00	6.24998337e+01
1161276714.29	-3.49760845e+00	1.63361266e+02	-5.08473920e+01	-1.06147846e+01	-4.98072207e+01	-1.29945377e+01	-7.78590050e+00	6.26486293e+01
1161562285.71	-3.49678374e+00	1.63325718e+02	-5.09311226e+01	-1.06100912e+01	-4.97929346e+01	-1.33771058e+01	-7.78081087e+00	6.26616204e+01
1161847857.14	-3.49568851e+00	1.63272186e+02	-5.08625733e+01	-1.10146159e+01	-4.98078635e+01	-1.37129616e+01	-7.77054572e+00	6.27000474e+01
1162133428.57	-3.49330351e+00	1.63266184e+02	-5.08431632e+01	-1.12388274e+01	-4.98162791e+01	-1.37979695e+01	-7.75716320e+00	6.26701092e+01
1162419000	-3.49593603e+00	1.63235313e+02	-5.09086895e+01	-1.21766062e+01	-4.97872217e+01	-1.44694116e+01	-7.74159705e+00	6.26900181e+01
1162704571.43	-3.49409317e+00	1.63223823e+02	-5.09157174e+01	-1.25312505e+01	-4.98469417e+01	-1.47765496e+01	-7.72818006e+00	6.26593947e+01
1162990142.86	-3.49008672e+00	1.63216891e+02	-5.09539145e+01	-1.25874920e+01	-4.98343102e+01	-1.49048723e+01	-7.71471156e+00	6.26898034e+01
1163275714.29	-3.49396334e+00	1.63197233e+02	-5.10108717e+01	-1.28717458e+01	-4.98895206e+01	-1.53875495e+01	-7.69715742e+00	6.27926980e+01
1163561285.71	-3.49414300e+00	1.63162500e+02	-5.09670594e+01	-1.29312461e+01	-4.98799031e+01	-1.58020523e+01	-7.68261747e+00	6.28058862e+01
1163846857.14	-3.48915129e+00	1.63139483e+02	-5.09880236e+01	-1.32094129e+01	-4.99007983e+01	-1.59978923e+01	-7.66828422e+00	6.27820207e+01
1164132428.57	-3.48319726e+00	1.63086785e+02	-5.09840695e+01	-1.39165510e+01	-4.98813823e+01	-1.66291117e+01	-7.66684876e+00	6.26931928e+01
1164418000	-3.49090868e+00	1.63102156e+02	-5.09757846e+01	-1.38180609e+01	-4.99477920e+01	-1.70139212e+01	-7.63788574e+00	6.27787850e+01
1164703571.43	-3.49147210e+00	1.63067314e+02	-5.09987301e+01	-1.43808607e+01	-4.99677981e+01	-1.72710753e+01	-7.62542406e+00	6.27125381e+01
1164989142.86	-3.49217583e+00	1.63045473e+02	-5.10220651e+01	-1.50758530e+01	-4.99842854e+01	-1.77292221e+01	-7.60573493e+00	6.26712475e+01
1165274714.29	-3.48686966e+00	1.63018396e+02	-5.10107601e+01	-1.49299907e+01	-4.99574766e+01	-1.79332383e+01	-7.60023386e+00	6.26471573e+01
1165560285.71	-3.48544835e+00	1.63030170e+02	-5.10496155e+01	-1.55299657e+01	-4.99740679e+01	-1.81384376e+01	-7.58898987e+00	6.26337190e+01
1165845857.14	-3.47952841e+00	1.63014741e+02	-5.10646169e+01	-1.58907335e+01	-4.99897291e+01	-1.91657500e+01	-7.57718814e+00	6.26015226e+01
1166131428.57	-3.48715368e+00	1.62993757e+02	-5.10732543e+01	-1.64215131e+01	-4.99788538e+01	-1.91463713e+01	-7.56071068e+00	6.25571041e+01
1166417000	-3.48034292e+00	1.62973385e+02	-5.11264987e+01	-1.62749645e+01	-5.00341049e+01	-1.95583153e+01	-7.55102518e+00	6.25123010e+01
1166702571.43	-3.47876664e+00	1.62947479e+02	-5.11923976e+01	-1.63861053e+01	-5.00672115e+01	-1.96183079e+01	-7.53022483e+00	6.25001484e+01
1166988142.86	-3.47687162e+00	1.62893262e+02	-5.11835597e+01	-1.72098462e+01	-5.00283144e+01	-1.96918223e+01	-7.52999911e+00	6.24685937e+01
1167273714.29	-3.47937575e+00	1.62877889e+02	-5.12187491e+01	-1.72610052e+01	-5.00939304e+01	-1.99741797e+01	-7.51274361e+00	6.23360361e+01
1167559285.71	-3.48500255e+00	1.62853525e+02	-5.11609922e+01	-1.74383722e+01	-5.00510185e+01	-2.07344044e+01	-7.48815547e+00	6.22597454e+01
1167844857.14	-3.48008895e+00	1.62850814e+02	-5.11950777e+01	-1.75310097e+01	-5.00751604e+01	-2.10081782e+01	-7.48389482e+00	6.22866470e+01
1168130428.57	-3.47727419e+00	1.62839431e+02	-5.11458581e+01	-1.82081919e+01	-5.00799105e+01	-2.09032552e+01	-7.47171859e+00	6.21392606e+01
1168416000	-3.47772020e+00	1.62790296e+02	-5.12179765e+01	-1.83279409e+01	-5.00677207e+01	-2.13763099e+01	-7.45530700e+00	6.21158275e+01
1168701571.43	-3.47775067e+00	1.62752821e+02	-5.12228845e+01	-1.86249622e+01	-5.00778336e+01	-2.18028850e+01	-7.44710856e+00	6.20692690e+01
1168987142.86	-3.47309576e+00	1.62731982e+02	-5.12606024e+01	-1.84325247e+01	-5.01378852e+01	-2.24954915e+01	-7.43902698e+00	6.19741207e+01
1169272714.29	-3.47860847e+00	1.62702696e+02	-5.12495109e+01	-1.88772226e+01	-5.01697726e+01	-2.23686894e+01	-7.42537781e+00	6.19039847e+01
1169558285.71	-3.47805953e+00	1.62650131e+02	-5.12762724e+01	-1.95343963e+01	-5.01277241e+01	-2.28999290e+01	-7.41519598e+00	6.18134344e+01
1169843857.14	-3.47651961e+00	1.62589764e+02	-5.12697577e+01	-1.94569592e+01	-5.01469077e+01	-2.29955140e+01	-7.40547041e+00	6.17050113e+01
1170129428.57	-3.47704613e+00	1.62555909e+02	-5.12433284e+01	-1.97186858e+01	-5.01616805e+01	-2.34238082e+01	-7.39263783e+00	6.16507086e+01
1170415000	-3.46261100e+00	1.62527112e+02	-5.13787275e+01	-1.98263286e+01	-5.01615880e+01	-2.37090040e+01	-7.37800287e+00	6.16233621e+01
1170700571.43	-3.46112054e+00	1.62505457e+02	-5.13481055e+01	-2.02643545e+01	-5.02099707e+01	-2.40201931e+01	-7.36297124e+00	6.14738970e+01
1170986142.86	-3.45716074e+00	1.62507268e+02	-5.12816178e+01	-2.04869986e+01	-5.01611713e+01	-2.43030736e+01	-7.35505772e+00	6.14161016e+01
1171271714.29	-3.45735062e+00	1.62473061e+02	-5.13000748e+01	-2.03163696e+01	-5.01582083e+01	-2.44396713e+01	-7.35347203e+00	6.12501436e+01
1171557285.71	-3.46064534e+00	1.62453342e+02	-5.13144726e+01	-2.03935049e+01	-5.01821629e+01	-2.49801221e+01	-7.32924943e+00	6.11987669e+01
1171842857.14	-3.45899579e+00	1.62384230e+02	-5.13457658e+01	-2.09050445e+01	-5.01986623e+01	-2.54039823e+01	-7.31846872e+00	6.10932583e+01
1172128428.57	-3.45934304e+00	1.62423034e+02	-5.13013618e+01	-2.11080063e+01	-5.01639537e+01	-2.55131027e+01	-7.30817937e+00	6.10874511e+01
1172414000	-3.44997221e+00	1.62388298e+02	-5.13070128e+01	-2.14856197e+01	-5.01892908e+01	-2.54500414e+01	-7.29860043e+00	6.10343686e+01
1172699571.43	-3.45278643e+00	1.62381632e+02	-5.13234951e+01	-2.19149109e+01	-5.01523466e+01	-2.60421650e+01	-7.28544860e+00	6.09677560e+01
1172985142.86	-3.44835209e+00	1.62361581e+02	-5.13857703e+01	-2.21164996e+01	-5.01683911e+01	-2.63951638e+01	-7.26968929e+00	6.09068725e+01
1173270714.29	-3.44862698e+00	1.62366445e+02	-5.13331573e+01	-2.22681158e+01	-5.01891021e+01	-2.68067165e+01	-7.26074670e+00	6.09451388e+01
1173556285.71	-3.44457432e+00	1.62316786e+02	-5.13342525e+01	-2.20800054e+01	-5.01925071e+01	-2.66698024e+01	-7.25308679e+00	6.08471816e+01
1173841857.14	-3.44299029e+00	1.62266881e+02	-5.12812897e+01	-2.27240029e+01	-5.01666245e+01	-2.77788322e+01	-7.24785131e+00	6.08258655e+01
1174127428.57	-3.44035379e+00	1.62238221e+02	-5.13531188e+01	-2.30123036e+01	-5.01730736e+01	-2.74807819e+01	-7.23035469e+00	6.07459436e+01
1174413000	-3.44104736e+00	1.62237330e+02	-5.12622856e+01	-2.31941617e+01	-5.01098842e+01	-2.78764668e+01	-7.23294633e+00	6.06103170e+01
1174698571.43	-3.43399430e+00	1.62206721e+02	-5.12325629e+01	-2.33592002e+01	-5.01552045e+01	-2.81160595e+01	-7.21728885e+00	6.05695248e+01
1174984142.86	-3.42546186e+00	1.62150252e+02	-5.12533184e+01	-2.37414421e+01	-5.01043929e+01	-2.84651353e+01	-7.21822712e+00	6.05120283e+01
1175269714.29	-3.42682324e+00	1.62163703e+02	-5.12228998e+01	-2.41519904e+01	-5.01837264e+01	-2.87866561e+01	-7.21210036e+00	6.03994826e+01
1175555285.71	-3.42473599e+00	1.62132421e+02	-5.12266222e+01	-2.43138867e+01	-5.01703611e+01	-2.89292161e+01	-7.19815705e+00	6.02878751e+01
1175840857.14	-3.42535960e+00	1.62154652e+02	-5.12070754e+01	-2.42242794e+01	-5.01162562e+01	-2.95228249e+01	-7.18801286e+00	6.01903607e+01
1176126428.57	-3.42412332e+00	1.62094040e+02	-5.12003953e+01	-2.47812083e+01	-5.00935607e+01	-2.96857102e+01	-7.18394161e+00	6.00999003e+01
1176412000	-3.42521442e+00	1.62085666e+02	-5.11860978e+01	-2.49169375e+01	-5.01189152e+01	-3.02417152e+01	-7.18974516e+00	6.00803467e+01
1176697571.43	-3.42011062e+00	1.62102636e+02	-5.11895297e+01	-2.46989283e+01	-5.01048896e+01	-3.05206628e+01	-7.17670567e+00	5.99546392e+01
1176983142.86	-3.41987879e+00	1.62058325e+02	-5.11830662e+01	-2.54783920e+01	-5.01175160e+01	-3.07135213e+01	-7.17869583e+00	5.98235204e+01
1177268714.29	-3.41571781e+00	1.62048943e+02	-5.11494117e+01	-2.57369778e+01	-5.01111354e+01	-3.07625082e+01	-7.17071342e+00	5.97431006e+01
1177554285.71	-3.41342568e+00	1.61993184e+02	-5.11375611e+01	-2.59936561e+01	-5.01236729e+01	-3.13052937e+01	-7.16565740e+00	5.95997567e+01
1177839857.14	-3.41248491e+00	1.61971082e+02	-5.10600736e+01	-2.59030513e+01	-5.00489623e+01	-3.15175472e+01	-7.16828357e+00	5.95082635e+01
1178125428.57	-3.41188745e+00	1.62006958e+02	-5.11270370e+01	-2.64882311e+01	-5.00156896e+01	-3.21588761e+01	-7.16390131e+00	5.94612785e+01
1178411000	-3.40522007e+00	1.62024366e+02	-5.10828921e+01	-2.65513447e+01	-5.00440645e+01	-3.22954382e+01	-7.16232455e+00	5.93276235e+01
1178696571.43	-3.40340086e+00	1.61999271e+02	-5.09818758e+01	-2.68271775e+01	-5.01121851e+01	-3.23472523e+01	-7.15154169e+00	5.91113291e+01
1178982142.86	-3.40157882e+00	1.61984915e+02	-5.10296817e+01	-2.71554910e+01	-5.00423583e+01	-3.32205907e+01	-7.14277457e+00	5.90233844e+01
1179267714.29	-3.39921576e+00	1.61984898e+02	-5.09739516e+01	-2.75254802e+01	-5.00449165e+01	-3.32427608e+01	-7.14271688e+00	5.89651618e+01
1179553285.71	-3.39962918e+00	1.61940538e+02	-5.09795808e+01	-2.85442306e+01	-5.00487289e+01	-3.37650514e+01	-7.13356292e+00	5.88173162e+01
1179838857.14	-3.39203964e+00	1.61925029e+02	-5.09387798e+01	-2.87335398e+01	-5.00134271e+01	-3.42524336e+01	-7.12816504e+00	5.87598678e+01
1180124428.57	-3.39320456e+00	1.61872859e+02	-5.09241507e+01	-2.92104102e+01	-5.00287177e+01	-3.43471242e+01	-7.12370033e+00	5.85884382e+01
1180410000	-3.39776856e+00	1.61886713e+02	-5.09316795e+01	-2.93891618e+01	-4.99320834e+01	-3.52859083e+01	-7.11935764e+00	5.84987188e+01
1180695571.43	-3.39392927e+00	1.61866473e+02	-5.08586560e+01	-2.97781596e+01	-4.99389070e+01	-3.54479720e+01	-7.10158301e+00	5.84224728e+01
1180981142.86	-3.38945216e+00	1.61856698e+02	-5.07776071e+01	-2.97007901e+01	-4.99179353e+01	-3.57196291e+01	-7.10728774e+00	5.83122943e+01
1181266714.29	-3.38742472e+00	1.61852013e+02	-5.07600318e+01	-3.07809709e+01	-4.99224095e+01	-3.63758388e+01	-7.09568531e+00	5.82566067e+01
1181552285.71	-3.38500170e+00	1.61821547e+02	-5.07487333e+01	-3.07835360e+01	-4.99143999e+01	-3.69554059e+01	-7.08935014e+00	5.81207702e+01
1181837857.14	-3.38317719e+00	1.61806861e+02	-5.07206207e+01	-3.15820598e+01	-4.98618933e+01	-3.71347399e+01	-7.08061353e+00	5.79427872e+01
1182123428.57	-3.37915786e+00	1.61817012e+02	-5.06540476e+01	-3.17022127e+01	-4.98364169e+01	-3.71501612e+01	-7.07788561e+00	5.78545320e+01
1182409000	-3.37984302e+00	1.61783186e+02	-5.06625620e+01	-3.23775606e+01	-4.98100729e+01	-3.81842352e+01	-7.07678637e+00	5.77410164e+01
1182694571.43	-3.38040560e+00	1.61737049e+02	-5.06911546e+01	-3.29385360e+01	-4.98012494e+01	-3.82352549e+01	-7.07501771e+00	5.76648099e+01
1182980142.86	-3.37255660e+00	1.61727038e+02	-5.06368476e+01	-3.37757627e+01	-4.98158451e+01	-3.89338907e+01	-7.07965920e+00	5.75742353e+01
1183265714.29	-3.37382432e+00	1.61723876e+02	-5.06037313e+01	-3.39939950e+01	-4.97557681e+01	-3.93351242e+01	-7.07142221e+00	5.74976091e+01
1183551285.71	-3.37098043e+00	1.61740710e+02	-5.05853389e+01	-3.45075131e+01	-4.97671363e+01	-3.99209138e+01	-7.06228002e+00	5.73389927e+01
1183836857.14	-3.36895519e+00	1.61707402e+02	-5.05255152e+01	-3.52902285e+01	-4.97429952e+01	-4.08696961e+01	-7.05336211e+00	5.72826164e+01
1184122428.57	-3.36669952e+00	1.61722196e+02	-5.05873568e+01	-3.52603228e+01	-4.97247292e+01	-4.12137841e+01	-7.05480998e+00	5.71809508e+01
1184408000	-3.36178487e+00	1.61688222e+02	-5.05781092e+01	-3.60482670e+01	-4.97436945e+01	-4.19342906e+01	-7.04258603e+00	5.70352681e+01
1184693571.43	-3.35751472e+00	1.61658316e+02	-5.05445996e+01	-3.68655814e+01	-4.96796947e+01	-4.27471165e+01	-7.03749290e+00	5.69014781e+01
1184979142.86	-3.35410719e+00	1.61682749e+02	-5.04790776e+01	-3.75460794e+01	-4.97230193e+01	-4.29395688e+01	-7.03409572e+00	5.67656094e+01
1185264714.29	-3.35529261e+00	1.61670124e+02	-5.04749035e+01	-3.79128712e+01	-4.97094558e+01	-4.33793994e+01	-7.02421770e+00	5.66480954e+01
1185550285.71	-3.36044382e+00	1.61658327e+02	-5.05207721e+01	-3.83286757e+01	-4.96739609e+01	-4.40623045e+01	-7.01243477e+00	5.65131702e+01
1185835857.14	-3.36018969e+00	1.61624775e+02	-5.04444719e+01	-3.90368764e+01	-4.97147747e+01	-4.47841701e+01	-7.01540553e+00	5.64147913e+01
1186121428.57	-3.35365026e+00	1.61603066e+02	-5.04519390e+01	-3.98325166e+01	-4.97768903e+01	-4.48668004e+01	-7.00790632e+00	5.62967888e+01
1186407000	-3.35162800e+00	1.61592719e+02	-5.05038764e+01	-4.06572880e+01	-4.97055334e+01	-4.55643458e+01	-7.00519935e+00	5.61256332e+01
1186692571.43	-3.35002715e+00	1.61618471e+02	-5.04856145e+01	-4.03310969e+01	-4.97062514e+01	-4.60582126e+01	-6.99757894e+00	5.59632035e+01
1186978142.86	-3.34532137e+00	1.61614490e+02	-5.04775915e+01	-4.10202516e+01	-4.97908142e+01	-4.66522382e+01	-6.98952381e+00	5.58295548e+01
1187263714.29	-3.34386318e+00	1.61612238e+02	-5.04376041e+01	-4.18598774e+01	-4.97688857e+01	-4.71344535e+01	-6.98642112e+00	5.57114832e+01
1187549285.71	-3.34472056e+00	1.61593093e+02	-5.05505651e+01	-4.21256991e+01	-4.97959704e+01	-4.76932245e+01	-6.97263908e+00	5.56041970e+01
1187834857.14	-3.33995342e+00	1.61608592e+02	-5.04790513e+01	-4.28478853e+01	-4.97732085e+01	-4.83787418e+01	-6.96812568e+00	5.54364506e+01
1188120428.57	-3.34304713e+00	1.61579160e+02	-5.06034681e+01	-4.33171237e+01	-4.97406036e+01	-4.90989909e+01	-6.95804436e+00	5.53130490e+01
1188406000	-3.33959387e+00	1.61565866e+02	-5.05290636e+01	-4.40056627e+01	-4.97823391e+01	-4.93713378e+01	-6.96569395e+00	5.52597177e+01
1188691571.43	-3.33761054e+00	1.61574835e+02	-5.04983697e+01	-4.47661511e+01	-4.98518812e+01	-4.99257470e+01	-6.94145999e+00	5.50956401e+01
1188977142.86	-3.33937010e+00	1.61585911e+02	-5.05312002e+01	-4.50457221e+01	-4.98487238e+01	-5.04694224e+01	-6.93963770e+00	5.49465581e+01
1189262714.29	-3.33509826e+00	1.61518184e+02	-5.05611377e+01	-4.52715790e+01	-4.98378607e+01	-5.09326306e+01	-6.91940762e+00	5.47716309e+01
1189548285.71	-3.33336125e+00	1.61536654e+02	-5.05809376e+01	-4.59901047e+01	-4.97801839e+01	-5.12715988e+01	-6.91698526e+00	5.45909770e+01
1189833857.14	-3.33165282e+00	1.61526890e+02	-5.06319457e+01	-4.70801387e+01	-4.98776841e+01	-5.19647069e+01	-6.91890991e+00	5.44348461e+01
1190119428.57	-3.32343924e+00	1.61541380e+02	-5.06396045e+01	-4.73167797e+01	-4.99284477e+01	-5.21128226e+01	-6.91036012e+00	5.42994857e+01
1190405000	-3.32312306e+00	1.61541722e+02	-5.06623187e+01	-4.80863397e+01	-4.99219926e+01	-5.27545602e+01	-6.90859996e+00	5.41630284e+01
1190690571.43	-3.32346511e+00	1.61523436e+02	-5.06782920e+01	-4.80403376e+01	-4.99186754e+01	-5.36663360e+01	-6.89674269e+00	5.39406655e+01
1190976142.86	-3.32549288e+00	1.61477578e+02	-5.06084121e+01	-4.87288746e+01	-4.99338470e+01	-5.40163640e+01	-6.88546674e+00	5.38950029e+01
1191261714.29	-3.32393943e+00	1.61459372e+02	-5.06486820e+01	-4.91146431e+01	-4.99428187e+01	-5.42832113e+01	-6.88848099e+00	5.37204117e+01
1191547285.71	-3.32085153e+00	1.61428982e+02	-5.06999472e+01	-4.94648836e+01	-4.99614799e+01	-5.47209137e+01	-6.86993008e+00	5.35460233e+01
1191832857.14	-3.31779765e+00	1.61447837e+02	-5.06871825e+01	-5.02328858e+01	-5.00175621e+01	-5.57258405e+01	-6.86201599e+00	5.33300561e+01
1192118428.57	-3.31054945e+00	1.61464436e+02	-5.06955680e+01	-5.06529717e+01	-5.00334797e+01	-5.61539431e+01	-6.85096190e+00	5.32445710e+01
1192404000	-3.31046847e+00	1.61490960e+02	-5.07342563e+01	-5.10660824e+01	-5.00774239e+01	-5.60299580e+01	-6.83630350e+00	5.30684705e+01
1192689571.43	-3.30857659e+00	1.61491708e+02	-5.07350765e+01	-5.18116577e+01	-5.00368436e+01	-5.68127288e+01	-6.83621632e+00	5.28985099e+01
1192975142.86	-3.30444394e+00	1.61491143e+02	-5.07634784e+01	-5.22856223e+01	-5.01020879e+01	-5.70721739e+01	-6.83339169e+00	5.27308057e+01
1193260714.29	-3.30506601e+00	1.61448042e+02	-5.07434586e+01	-5.26151667e+01	-5.01260774e+01	-5.78047489e+01	-6.82420588e+00	5.25877557e+01
1193546285.71	-3.30529539e+00	1.61446378e+02	-5.07701980e+01	-5.31019477e+01	-5.00990522e+01	-5.85223267e+01	-6.80843825e+00	5.23842811e+01
1193831857.14	-3.30130242e+00	1.61407833e+02	-5.08042398e+01	-5.31341712e+01	-5.01395404e+01	-5.83452919e+01	-6.78277710e+00	5.22548829e+01
1194117428.57	-3.30359549e+00	1.61416970e+02	-5.08830361e+01	-5.34158045e+01	-5.01404255e+01	-5.90479908e+01	-6.77341477e+00	5.21148839e+01
1194403000	-3.29775834e+00	1.61408438e+02	-5.08960892e+01	-5.41693721e+01	-5.01640325e+01	-5.95552131e+01	-6.76654069e+00	5.19737558e+01
1194688571.43	-3.29670089e+00	1.61511609e+02	-5.02571660e+01	-5.81996984e+01	-5.04010831e+01	-6.01148522e+01	-6.74833956e+00	5.18494123e+01
1194974142.86	-3.29144441e+00	1.61446926e+02	-5.08697068e+01	-5.49504348e+01	-5.02236630e+01	-6.07370537e+01	-6.75992931e+00	5.15621976e+01
1195259714.29	-3.29099190e+00	1.61420784e+02	-5.09012129e+01	-5.56049539e+01	-5.02473937e+01	-6.09707754e+01	-6.74723570e+00	5.13540215e+01
1195545285.71	-3.28520790e+00	1.61420903e+02	-5.09824573e+01	-5.58772034e+01	-5.02496885e+01	-6.13338771e+01	-6.73865790e+00	5.11704039e+01
1195830857.14	-3.28116756e+00	1.61418334e+02	-5.09782347e+01	-5.63394228e+01	-5.02739878e+01	-6.23294262e+01	-6.71749209e+00	5.09607651e+01
1196116428.57	-3.27945130e+00	1.61412800e+02	-5.10150139e+01	-5.70112254e+01	-5.03028642e+01	-6.24272856e+01	-6.71768986e+00	5.07356700e+01
1196402000	-3.28490926e+00	1.61440028e+02	-5.10206674e+01	-5.67122365e+01	-5.03114154e+01	-6.27485465e+01	-6.70761530e+00	5.04609888e+01
1196687571.43	-3.27752506e+00	1.61400982e+02	-5.09905379e+01	-5.78254638e+01	-5.03487808e+01	-6.30291037e+01	-6.70563050e+00	5.02870730e+01
1196973142.86	-3.28747842e+00	1.61376589e+02	-5.10247811e+01	-5.82300000e+01	-5.03840001e+01	-6.36399713e+01	-6.69927681e+00	5.01534039e+01
1197258714.29	-3.27416286e+00	1.61408348e+02	-5.11092967e+01	-5.84426155e+01	-5.04177587e+01	-6.40883962e+01	-6.69202995e+00	4.99662711e+01
1197544285.71	-3.27437394e+00	1.61422975e+02	-5.10522264e+01	-5.94365512e+01	-5.04461547e+01	-6.44224385e+01	-6.68024123e+00	4.97330558e+01
1197829857.14	-3.27148951e+00	1.61426711e+02	-5.10984616e+01	-5.90422676e+01	-5.04827635e+01	-6.50786198e+01	-6.67822222e+00	4.95558666e+01
1198115428.57	-3.27394483e+00	1.61429621e+02	-5.11180071e+01	-5.97046503e+01	-5.04886592e+01	-6.48892230e+01	-6.67100224e+00	4.94087301e+01
1198401000	-3.27119971e+00	1.61408047e+02	-5.11864632e+01	-6.00227735e+01	-5.05573528e+01	-6.58648784e+01	-6.67025526e+00	4.91906301e+01
1198686571.43	-3.27395213e+00	1.61418941e+02	-5.10990414e+01	-6.04388156e+01	-5.05334634e+01	-6.56390274e+01	-6.67206778e+00	4.89938324e+01
1198972142.86	-3.26961337e+00	1.61415933e+02	-5.11867663e+01	-6.11515389e+01	-5.05506437e+01	-6.61679711e+01	-6.67258871e+00	4.88171345e+01
1199257714.29	-3.26844955e+00	1.61454569e+02	-5.11782796e+01	-6.18157429e+01	-5.06072612e+01	-6.69385058e+01	-6.66063582e+00	4.85905336e+01
1199543285.71	-3.26392507e+00	1.61462869e+02	-5.12242714e+01	-6.15255780e+01	-5.06236249e+01	-6.70114779e+01	-6.66223195e+00	4.84130983e+01
1199828857.14	-3.26286601e+00	1.61427723e+02	-5.12651328e+01	-6.21712934e+01	-5.06179618e+01	-6.76534804e+01	-6.64546200e+00	4.82151355e+01
1200114428.57	-3.26243071e+00	1.61443063e+02	-5.12329753e+01	-6.26401503e+01	-5.06720362e+01	-6.78804809e+01	-6.64582632e+00	4.80250713e+01
1200400000	-3.26299778e+00	1.61432447e+02	-5.13224610e+01	-6.26596589e+01	-5.07051083e+01	-6.81448503e+01	-6.63333566e+00	4.78051152e+01
1200685571.43	-3.26188123e+00	1.61418260e+02	-5.13367064e+01	-6.29989991e+01	-5.06761064e+01	-6.84322502e+01	-6.64186357e+00	4.76687060e+01
1200971142.86	-3.26271317e+00	1.61393566e+02	-5.13135357e+01	-6.33348410e+01	-5.07485720e+01	-6.92730694e+01	-6.63884673e+00	4.74719636e+01
1201256714.29	-3.25771487e+00	1.61379959e+02	-5.13191250e+01	-6.38305536e+01	-5.07068678e+01	-6.88603289e+01	-6.63579679e+00	4.72767838e+01
1201542285.71	-3.25038450e+00	1.61410263e+02	-5.12749929e+01	-6.46575734e+01	-5.08007721e+01	-6.95772115e+01	-6.63572514e+00	4.70465406e+01
1201827857.14	-3.25391520e+00	1.61423208e+02	-5.13115213e+01	-6.44658032e+01	-5.07658529e+01	-6.99450064e+01	-6.63984490e+00	4.69104770e+01
1202113428.57	-3.25651591e+00	1.61352733e+02	-5.13639818e+01	-6.46121554e+01	-5.08468729e+01	-7.05486999e+01	-6.64243958e+00	4.67271932e+01
1202399000	-3.24777611e+00	1.61381735e+02	-5.14293767e+01	-6.53406094e+01	-5.08693963e+01	-7.08064367e+01	-6.64479111e+00	4.65730604e+01
1202684571.43	-3.24656234e+00	1.61415347e+02	-5.13592944e+01	-6.53528161e+01	-5.08178540e+01	-7.06950394e+01	-6.65248806e+00	4.63196037e+01
1202970142.86	-3.24443638e+00	1.61376052e+02	-5.14388871e+01	-6.61538764e+01	-5.08933300e+01	-7.10772381e+01	-6.65350536e+00	4.61341795e+01
1203255714.29	-3.24336654e+00	1.61415269e+02	-5.14625471e+01	-6.61999558e+01	-5.08597842e+01	-7.15291477e+01	-6.64801528e+00	4.58725234e+01
1203541285.71	-3.24441695e+00	1.61411201e+02	-5.14627045e+01	-6.68158090e+01	-5.09118069e+01	-7.18944630e+01	-6.64639027e+00	4.56757082e+01
1203826857.14	-3.24265293e+00	1.61402052e+02	-5.14397719e+01	-6.73140698e+01	-5.09165793e+01	-7.23881515e+01	-6.64207957e+00	4.55246006e+01
1204112428.57	-3.24453752e+00	1.61361308e+02	-5.15488643e+01	-6.74016568e+01	-5.09517872e+01	-7.21234514e+01	-6.64280096e+00	4.53515388e+01
1204398000	-3.24298083e+00	1.61383037e+02	-5.15319201e+01	-6.75418908e+01	-5.09224695e+01	-7.31929055e+01	-6.65070727e+00	4.51791949e+01
1204683571.43	-3.24819442e+00	1.61405956e+02	-5.14680965e+01	-6.82285072e+01	-5.09186829e+01	-7.30658379e+01	-6.65050685e+00	4.50029955e+01
1204969142.86	-3.24175228e+00	1.61361384e+02	-5.14568536e+01	-6.81125078e+01	-5.09668488e+01	-7.33924900e+01	-6.65018557e+00	4.47421369e+01
1205254714.29	-3.24324356e+00	1.61426548e+02	-5.15659389e+01	-6.88490547e+01	-5.09764910e+01	-7.38932996e+01	-6.66162431e+00	4.45664110e+01
1205540285.71	-3.23935678e+00	1.61399405e+02	-5.16377663e+01	-6.90519787e+01	-5.10127679e+01	-7.40472158e+01	-6.66337118e+00	4.44289640e+01
1205825857.14	-3.23795142e+00	1.61418455e+02	-5.16404137e+01	-6.91128949e+01	-5.11118001e+01	-7.43437774e+01	-6.66489147e+00	4.42432938e+01
1206111428.57	-3.23334559e+00	1.61363248e+02	-5.16103530e+01	-6.95365209e+01	-5.10810429e+01	-7.47104528e+01	-6.68935583e+00	4.40886815e+01
1206397000	-3.24051077e+00	1.61397270e+02	-5.16356130e+01	-7.05147038e+01	-5.10804909e+01	-7.46788651e+01	-6.68945937e+00	4.38806530e+01
1206682571.43	-3.23991800e+00	1.61417379e+02	-5.16632100e+01	-7.00068544e+01	-5.11039924e+01	-7.50480901e+01	-6.69054537e+00	4.36824957e+01
1206968142.86	-3.23203685e+00	1.61382062e+02	-5.16976286e+01	-7.04779483e+01	-5.11285622e+01	-7.56323660e+01	-6.69553032e+00	4.35267861e+01
1207253714.29	-3.23514794e+00	1.61392164e+02	-5.16098396e+01	-7.05570929e+01	-5.11298677e+01	-7.56015273e+01	-6.69722912e+00	4.34649604e+01
1207539285.71	-3.23110286e+00	1.61409017e+02	-5.16790016e+01	-7.14983515e+01	-5.11614736e+01	-7.61902212e+01	-6.69467177e+00	4.32524106e+01
1207824857.14	-3.23427683e+00	1.61429161e+02	-5.17833424e+01	-7.13745210e+01	-5.11127034e+01	-7.60825948e+01	-6.72178244e+00	4.31438556e+01
1208110428.57	-3.23108982e+00	1.61435632e+02	-5.17614062e+01	-7.13731256e+01	-5.10969007e+01	-7.65729464e+01	-6.72218815e+00	4.29922802e+01
1208396000	-3.22689028e+00	1.61447051e+02	-5.16264368e+01	-7.22274256e+01	-5.11353594e+01	-7.69202196e+01	-6.72196116e+00	4.28864091e+01
1208681571.43	-3.23165469e+00	1.61447669e+02	-5.17212098e+01	-7.23628144e+01	-5.11551276e+01	-7.67688066e+01	-6.74415605e+00	4.27670433e+01
1208967142.86	-3.22529114e+00	1.61453100e+02	-5.16441467e+01	-7.26876097e+01	-5.11386962e+01	-7.70160108e+01	-6.74945190e+00	4.25718855e+01
1209252714.29	-3.22399904e+00	1.61434297e+02	-5.16991096e+01	-7.28316083e+01	-5.11848922e+01	-7.75634435e+01	-6.76702924e+00	4.24067288e+01
1209538285.71	-3.22990116e+00	1.61445978e+02	-5.17378726e+01	-7.34946186e+01	-5.11884468e+01	-7.80425093e+01	-6.77646697e+00	4.23955377e+01
1209823857.14	-3.23301304e+00	1.61433958e+02	-5.16942511e+01	-7.31207562e+01	-5.11784319e+01	-7.80911294e+01	-6.78717117e+00	4.22766412e+01
1210109428.57	-3.22597792e+00	1.61426693e+02	-5.17848203e+01	-7.36047002e+01	-5.12590935e+01	-7.88243127e+01	-6.78653991e+00	4.21212114e+01
1210395000	-3.22656598e+00	1.61410186e+02	-5.17230867e+01	-7.37008011e+01	-5.11499560e+01	-7.91594633e+01	-6.79822326e+00	4.20582463e+01
1210680571.43	-3.22523348e+00	1.61460089e+02	-5.16808113e+01	-7.42355616e+01	-5.12000317e+01	-7.89128810e+01	-6.80084982e+00	4.18610318e+01
1210966142.86	-3.22830326e+00	1.61467347e+02	-5.16883767e+01	-7.47170391e+01	-5.11585113e+01	-7.95229349e+01	-6.80994590e+00	4.18051573e+01
1211251714.29	-3.23214327e+00	1.61461009e+02	-5.17402498e+01	-7.49607879e+01	-5.12004778e+01	-8.01397490e+01	-6.82475351e+00	4.16273721e+01
1211537285.71	-3.22387065e+00	1.61461746e+02	-5.17203126e+01	-7.53568584e+01	-5.11522843e+01	-8.06808474e+01	-6.84230324e+00	4.14793999e+01
1211822857.14	-3.21871458e+00	1.61465036e+02	-5.16433543e+01	-7.54695011e+01	-5.11921486e+01	-8.08575535e+01	-6.84242428e+00	4.12697441e+01
1212108428.57	-3.22026818e+00	1.61472317e+02	-5.17268326e+01	-7.60326930e+01	-5.11098494e+01	-8.11641922e+01	-6.85394330e+00	4.11687100e+01
1212394000	-3.21338421e+00	1.61444320e+02	-5.17089197e+01	-7.59350469e+01	-5.11827010e+01	-8.13458851e+01	-6.84766855e+00	4.10097227e+01
1212679571.43	-3.21792318e+00	1.61433875e+02	-5.17148273e+01	-7.64782272e+01	-5.11485455e+01	-8.18621973e+01	-6.86997172e+00	4.09072674e+01
1212965142.86	-3.21993916e+00	1.61423035e+02	-5.17633978e+01	-7.69654462e+01	-5.12294948e+01	-8.20723716e+01	-6.87516964e+00	4.07997396e+01
1213250714.29	-3.21901038e+00	1.61428746e+02	-5.16758104e+01	-7.75174425e+01	-5.11899492e+01	-8.23848077e+01	-6.87255786e+00	4.06415456e+01
1213536285.71	-3.22161418e+00	1.61442002e+02	-5.17157960e+01	-7.70819175e+01	-5.11452923e+01	-8.28868549e+01	-6.86818106e+00	4.05396610e+01
1213821857.14	-3.22036223e+00	1.61396634e+02	-5.16813276e+01	-7.79496187e+01	-5.11723808e+01	-8.29838058e+01	-6.88515827e+00	4.04691591e+01
1214107428.57	-3.21713268e+00	1.61427682e+02	-5.16926035e+01	-7.83464876e+01	-5.11936609e+01	-8.32359685e+01	-6.87732992e+00	4.03453721e+01
1214393000	-3.21980920e+00	1.61440710e+02	-5.17129303e+01	-7.84839301e+01	-5.11166430e+01	-8.38829357e+01	-6.88484044e+00	4.02638605e+01
1214678571.43	-3.21897680e+00	1.61437548e+02	-5.16676238e+01	-7.88074382e+01	-5.11513562e+01	-8.38502547e+01	-6.89297674e+00	4.00971573e+01
1214964142.86	-3.22037829e+00	1.61470128e+02	-5.16185846e+01	-7.93715390e+01	-5.11894861e+01	-8.40167658e+01	-6.90181012e+00	3.98924851e+01
1215249714.29	-3.22368842e+00	1.61418862e+02	-5.16478285e+01	-7.97549150e+01	-5.11767635e+01	-8.44987627e+01	-6.90591904e+00	3.98188896e+01
1215535285.71	-3.22370631e+00	1.61401494e+02	-5.16447724e+01	-7.99114907e+01	-5.11649188e+01	-8.45643519e+01	-6.90252252e+00	3.96847867e+01
1215820857.14	-3.22118550e+00	1.61405497e+02	-5.16625564e+01	-8.00062919e+01	-5.11277504e+01	-8.51279176e+01	-6.92014890e+00	3.95623803e+01
1216106428.57	-3.22027774e+00	1.61452805e+02	-5.16357547e+01	-8.06846167e+01	-5.12318214e+01	-8.56685914e+01	-6.91555209e+00	3.94292324e+01
1216392000	-3.21704982e+00	1.61418702e+02	-5.15856978e+01	-8.08162999e+01	-5.10855777e+01	-8.58566061e+01	-6.92779696e+00	3.93466591e+01
1216677571.43	-3.21729126e+00	1.61412480e+02	-5.16187179e+01	-8.11352878e+01	-5.11908455e+01	-8.62134662e+01	-6.92496044e+00	3.92569227e+01
1216963142.86	-3.21372204e+00	1.61397254e+02	-5.15893916e+01	-8.13426393e+01	-5.11607706e+01	-8.65915768e+01	-6.93756288e+00	3.91541098e+01
1217248714.29	-3.21675890e+00	1.61365579e+02	-5.16253359e+01	-8.18972324e+01	-5.12012238e+01	-8.69449966e+01	-6.94385869e+00	3.89734222e+01
1217534285.71	-3.22190429e+00	1.61330289e+02	-5.15834734e+01	-8.19862453e+01	-5.11404279e+01	-8.71418146e+01	-6.95219875e+00	3.89076221e+01
1217819857.14	-3.22282815e+00	1.61333644e+02	-5.16173243e+01	-8.29090730e+01	-5.11639944e+01	-8.79284068e+01	-6.96000380e+00	3.88289971e+01
1218105428.57	-3.21819392e+00	1.61334487e+02	-5.15046192e+01	-8.27698146e+01	-5.11216074e+01	-8.78972788e+01	-6.96921537e+00	3.86655747e+01
1218391000	-3.21727990e+00	1.61303767e+02	-5.15786350e+01	-8.35299550e+01	-5.11625281e+01	-8.84569827e+01	-6.97773887e+00	3.85460817e+01
1218676571.43	-3.22101212e+00	1.61317349e+02	-5.15226455e+01	-8.39623354e+01	-5.10922556e+01	-8.85789711e+01	-6.97768746e+00	3.84218558e+01
1218962142.86	-3.22357237e+00	1.61337687e+02	-5.14952263e+01	-8.41302835e+01	-5.11197781e+01	-8.92788684e+01	-6.98628714e+00	3.83220482e+01
1219247714.29	-3.21717738e+00	1.61324089e+02	-5.14948673e+01	-8.48085105e+01	-5.10738219e+01	-8.95407193e+01	-6.99315329e+00	3.82170137e+01
1219533285.71	-3.21600460e+00	1.61311670e+02	-5.15587257e+01	-8.51621298e+01	-5.10898536e+01	-8.99383245e+01	-7.00885430e+00	3.81258468e+01
1219818857.14	-3.21820940e+00	1.61346714e+02	-5.14489598e+01	-8.54892124e+01	-5.10915057e+01	-9.02002163e+01	-7.01443837e+00	3.79004560e+01
1220104428.57	-3.22382242e+00	1.61371613e+02	-5.14891958e+01	-8.60562176e+01	-5.10585625e+01	-9.05514931e+01	-7.02008443e+00	3.77872586e+01
1220390000	-3.22237457e+00	1.61340500e+02	-5.14782463e+01	-8.61424830e+01	-5.10763604e+01	-9.11342606e+01	-7.02855365e+00	3.77118853e+01
1220675571.43	-3.21954544e+00	1.61285264e+02	-5.14906558e+01	-8.70666947e+01	-5.10089119e+01	-9.15737055e+01	-7.03483405e+00	3.76340806e+01
1220961142.86	-3.22078051e+00	1.61242645e+02	-5.14639748e+01	-8.70374556e+01	-5.11055468e+01	-9.17428710e+01	-7.04143798e+00	3.74437606e+01
1221246714.29	-3.22058746e+00	1.61230873e+02	-5.14447537e+01	-8.74732509e+01	-5.10802627e+01	-9.24094337e+01	-7.06496342e+00	3.74200883e+01
1221532285.71	-3.22620166e+00	1.61198534e+02	-5.14508219e+01	-8.81460169e+01	-5.10097620e+01	-9.28770765e+01	-7.06300710e+00	3.73145043e+01
1221817857.14	-3.21835949e+00	1.61172441e+02	-5.14624629e+01	-8.87030472e+01	-5.10212876e+01	-9.29436300e+01	-7.08623158e+00	3.71850150e+01
1222103428.57	-3.21937925e+00	1.61166234e+02	-5.13978313e+01	-8.90222407e+01	-5.10271292e+01	-9.34733306e+01	-7.09785496e+00	3.71214545e+01
1222389000	-3.21744445e+00	1.61127832e+02	-5.14302145e+01	-8.91816711e+01	-5.09942872e+01	-9.33339683e+01	-7.10407929e+00	3.70257992e+01
1222674571.43	-3.21095583e+00	1.61081073e+02	-5.14370622e+01	-9.00901845e+01	-5.10002435e+01	-9.42664267e+01	-7.11409384e+00	3.69877534e+01
1222960142.86	-3.21243261e+00	1.61097110e+02	-5.13421595e+01	-9.05836849e+01	-5.10173000e+01	-9.45869081e+01	-7.12899005e+00	3.69102363e+01
1223245714.29	-3.20732075e+00	1.61097536e+02	-5.13191546e+01	-9.05729417e+01	-5.09501688e+01	-9.51977240e+01	-7.14655147e+00	3.67997092e+01
1223531285.71	-3.21068572e+00	1.61132799e+02	-5.14003493e+01	-9.14034096e+01	-5.09448485e+01	-9.53052182e+01	-7.16028102e+00	3.67250986e+01
1223816857.14	-3.20331566e+00	1.61103863e+02	-5.13579568e+01	-9.17093440e+01	-5.09467474e+01	-9.59747615e+01	-7.16561560e+00	3.66204941e+01
1224102428.57	-3.20209959e+00	1.61066055e+02	-5.13374321e+01	-9.21971748e+01	-5.09139583e+01	-9.61933224e+01	-7.17314811e+00	3.65337076e+01
1224388000	-3.20899352e+00	1.61054691e+02	-5.13723695e+01	-9.24079620e+01	-5.09429834e+01	-9.67992207e+01	-7.19092366e+00	3.63643537e+01
1224673571.43	-3.20644493e+00	1.61058634e+02	-5.13391411e+01	-9.30965595e+01	-5.08804929e+01	-9.73021673e+01	-7.20858816e+00	3.62514459e+01
1224959142.86	-3.20474875e+00	1.61039026e+02	-5.12922088e+01	-9.37092750e+01	-5.09041928e+01	-9.77979834e+01	-7.21171079e+00	3.62437209e+01
1225244714.29	-3.20766729e+00	1.61021441e+02	-5.12563781e+01	-9.42821376e+01	-5.08965450e+01	-9.80031852e+01	-7.22002414e+00	3.61211564e+01
1225530285.71	-3.21162817e+00	1.60979196e+02	-5.13131945e+01	-9.45639882e+01	-5.09316510e+01	-9.85874840e+01	-7.22984768e+00	3.60414952e+01
1225815857.14	-3.21154087e+00	1.60998903e+02	-5.12847454e+01	-9.52632185e+01	-5.08544888e+01	-9.89993244e+01	-7.24153878e+00	3.60864108e+01
1226101428.57	-3.20982904e+00	1.61003624e+02	-5.12643004e+01	-9.58185035e+01	-5.08292983e+01	-9.96475551e+01	-7.24759448e+00	3.59550337e+01
1226387000	-3.21291976e+00	1.60945497e+02	-5.12848645e+01	-9.60603622e+01	-5.08440374e+01	-1.00211815e+02	-7.25273784e+00	3.59929185e+01
1226672571.43	-3.21026617e+00	1.60926448e+02	-5.12093518e+01	-9.64667686e+01	-5.08314261e+01	-1.00517901e+02	-7.26002013e+00	3.59661185e+01
1226958142.86	-3.20091260e+00	1.60925186e+02	-5.12221134e+01	-9.68642809e+01	-5.07865078e+01	-1.00914825e+02	-7.26683320e+00	3.59923408e+01
1227243714.29	-3.19910451e+00	1.60938630e+02	-5.12410620e+01	-9.79916281e+01	-5.07351496e+01	-1.01436327e+02	-7.27552941e+00	3.59276493e+01
1227529285.71	-3.19802669e+00	1.60953534e+02	-5.12580399e+01	-9.82952267e+01	-5.07445102e+01	-1.02075654e+02	-7.28782354e+00	3.59135406e+01
1227814857.14	-3.20310800e+00	1.60951638e+02	-5.12843036e+01	-9.89783389e+01	-5.07495631e+01	-1.02831784e+02	-7.29435313e+00	3.57781932e+01
1228100428.57	-3.20101950e+00	1.60924295e+02	-5.11685031e+01	-9.95567103e+01	-5.07326105e+01	-1.02950318e+02	-7.29884895e+00	3.57782993e+01
1228386000	-3.20405571e+00	1.60920537e+02	-5.12511060e+01	-9.99252914e+01	-5.07876292e+01	-1.03690466e+02	-7.30534905e+00	3.58238039e+01
1228671571.43	-3.20007871e+00	1.60914924e+02	-5.12525590e+01	-1.00696423e+02	-5.07692481e+01	-1.04338603e+02	-7.31266009e+00	3.57697577e+01
1228957142.86	-3.20705701e+00	1.60860317e+02	-5.12482547e+01	-1.01658997e+02	-5.07376060e+01	-1.04564465e+02	-7.32051569e+00	3.57929892e+01
1229242714.29	-3.20551821e+00	1.60844771e+02	-5.12348275e+01	-1.01843341e+02	-5.07122354e+01	-1.05707814e+02	-7.32150324e+00	3.56815020e+01
1229528285.71	-3.20157788e+00	1.60847062e+02	-5.12211259e+01	-1.02252887e+02	-5.07033535e+01	-1.05688556e+02	-7.34225274e+00	3.56999882e+01
1229813857.14	-3.19704264e+00	1.60830355e+02	-5.12126600e+01	-1.03150219e+02	-5.07584822e+01	-1.06624543e+02	-7.35583161e+00	3.56897080e+01
1230099428.57	-3.19627985e+00	1.60768643e+02	-5.12475692e+01	-1.03369788e+02	-5.07330044e+01	-1.07258690e+02	-7.37194856e+00	3.57274542e+01
1230385000	-3.19985065e+00	1.60749229e+02	-5.12293644e+01	-1.04205630e+02	-5.07289139e+01	-1.08151517e+02	-7.38488592e+00	3.56440403e+01
1230670571.43	-3.20254524e+00	1.60739975e+02	-5.12048602e+01	-1.04573792e+02	-5.07107423e+01	-1.08461238e+02	-7.38977732e+00	3.57155744e+01
1230956142.86	-3.20111580e+00	1.60670989e+02	-5.12629644e+01	-1.05636635e+02	-5.07055090e+01	-1.08861528e+02	-7.37951531e+00	3.56412817e+01
1231241714.29	-3.20132451e+00	1.60681828e+02	-5.12417356e+01	-1.06304305e+02	-5.07145208e+01	-1.09540593e+02	-7.39214718e+00	3.56199007e+01
1231527285.71	-3.19977564e+00	1.60673808e+02	-5.12657246e+01	-1.06427313e+02	-5.07197888e+01	-1.09977362e+02	-7.40167694e+00	3.55706525e+01
1231812857.14	-3.20113830e+00	1.60647016e+02	-5.12605673e+01	-1.07022378e+02	-5.06971893e+01	-1.10764763e+02	-7.40631702e+00	3.55786363e+01
1232098428.57	-3.19921861e+00	1.60629027e+02	-5.12530595e+01	-1.07774728e+02	-5.07801023e+01	-1.11427067e+02	-7.41767650e+00	3.54745300e+01
1232384000	-3.19835252e+00	1.60596268e+02	-5.13261082e+01	-1.07999059e+02	-5.07614348e+01	-1.11903594e+02	-7.43363195e+00	3.55355383e+01
1232669571.43	-3.19515482e+00	1.60598422e+02	-5.13500466e+01	-1.09114232e+02	-5.07561184e+01	-1.12370289e+02	-7.44480129e+00	3.54529949e+01
1232955142.86	-3.18560479e+00	1.60635032e+02	-5.13382167e+01	-1.09886809e+02	-5.07566033e+01	-1.12974022e+02	-7.44661738e+00	3.54099796e+01
1233240714.29	-3.18371881e+00	1.60631450e+02	-5.13938302e+01	-1.09827101e+02	-5.07864570e+01	-1.13983902e+02	-7.45350708e+00	3.54074719e+01
1233526285.71	-3.19127664e+00	1.60595965e+02	-5.14785487e+01	-1.10402528e+02	-5.08408214e+01	-1.14349510e+02	-7.45373933e+00	3.52267579e+01
1233811857.14	-3.18806211e+00	1.60569080e+02	-5.14232156e+01	-1.11797549e+02	-5.08070555e+01	-1.15286313e+02	-7.46693055e+00	3.51451477e+01
1234097428.57	-3.19446501e+00	1.60505106e+02	-5.14735368e+01	-1.12285664e+02	-5.08692480e+01	-1.15566252e+02	-7.46803652e+00	3.50768193e+01
1234383000	-3.18639662e+00	1.60530950e+02	-5.15015242e+01	-1.12720896e+02	-5.08414587e+01	-1.16379234e+02	-7.46755068e+00	3.49787722e+01
1234668571.43	-3.18108371e+00	1.60484645e+02	-5.15023677e+01	-1.12941969e+02	-5.08918324e+01	-1.17056857e+02	-7.48839608e+00	3.50475074e+01
1234954142.86	-3.17671601e+00	1.60472928e+02	-5.14751733e+01	-1.14126034e+02	-5.09027835e+01	-1.17065864e+02	-7.48755254e+00	3.49816259e+01
1235239714.29	-3.17580682e+00	1.60455026e+02	-5.15852931e+01	-1.14114491e+02	-5.09501462e+01	-1.18046489e+02	-7.48928119e+00	3.49253479e+01
1235525285.71	-3.17686887e+00	1.60435841e+02	-5.15090113e+01	-1.14822738e+02	-5.09965547e+01	-1.18430730e+02	-7.48772458e+00	3.49166579e+01
1235810857.14	-3.17749829e+00	1.60377872e+02	-5.16561860e+01	-1.14970913e+02	-5.09075238e+01	-1.19284787e+02	-7.48595512e+00	3.48829873e+01
1236096428.57	-3.17884963e+00	1.60367734e+02	-5.16319799e+01	-1.15887716e+02	-5.09911047e+01	-1.19701174e+02	-7.50217080e+00	3.47955013e+01
1236382000	-3.17229872e+00	1.60370675e+02	-5.16930667e+01	-1.16440725e+02	-5.10656472e+01	-1.20244634e+02	-7.51048858e+00	3.46769950e+01
1236667571.43	-3.17097420e+00	1.60388015e+02	-5.16991035e+01	-1.17038141e+02	-5.10783495e+01	-1.20750679e+02	-7.51825863e+00	3.45833040e+01
1236953142.86	-3.17650548e+00	1.60372339e+02	-5.16941075e+01	-1.17348893e+02	-5.11011449e+01	-1.21245618e+02	-7.51996734e+00	3.45062812e+01
1237238714.29	-3.17218056e+00	1.60334622e+02	-5.17492738e+01	-1.18312946e+02	-5.10684436e+01	-1.21956899e+02	-7.51886359e+00	3.44201525e+01
1237524285.71	-3.17376147e+00	1.60293959e+02	-5.17379360e+01	-1.18265368e+02	-5.11713648e+01	-1.22468574e+02	-7.52350279e+00	3.43677447e+01
1237809857.14	-3.17156549e+00	1.60282001e+02	-5.17830225e+01	-1.18641211e+02	-5.12745588e+01	-1.22803948e+02	-7.53313711e+00	3.42581245e+01
1238095428.57	-3.16733129e+00	1.60300483e+02	-5.18505456e+01	-1.19775899e+02	-5.12323540e+01	-1.23337599e+02	-7.54643716e+00	3.42674940e+01
1238381000	-3.16607141e+00	1.60267312e+02	-5.18840739e+01	-1.20186172e+02	-5.12043238e+01	-1.23725596e+02	-7.53995134e+00	3.42177342e+01
1238666571.43	-3.16435728e+00	1.60225167e+02	-5.20078787e+01	-1.20096238e+02	-5.12783721e+01	-1.24411366e+02	-7.55135349e+00	3.42064409e+01
1238952142.86	-3.16430942e+00	1.60208775e+02	-5.19748229e+01	-1.20845917e+02	-5.12959343e+01	-1.24977131e+02	-7.56313051e+00	3.41513460e+01
1239237714.29	-3.16673837e+00	1.60236552e+02	-5.19956586e+01	-1.21118783e+02	-5.13627067e+01	-1.25065196e+02	-7.55577217e+00	3.40811460e+01
1239523285.71	-3.16016401e+00	1.60224512e+02	-5.20278476e+01	-1.21086818e+02	-5.13349377e+01	-1.25872954e+02	-7.56935339e+00	3.39783655e+01
1239808857.14	-3.16378595e+00	1.60228244e+02	-5.19906600e+01	-1.21705678e+02	-5.14254009e+01	-1.26074810e+02	-7.57729616e+00	3.38759201e+01
1240094428.57	-3.16330838e+00	1.60226513e+02	-5.21068101e+01	-1.22051578e+02	-5.14243073e+01	-1.26729393e+02	-7.59747787e+00	3.38289764e+01
1240380000	-3.15910438e+00	1.60196261e+02	-5.20466134e+01	-1.22692971e+02	-5.14642352e+01	-1.26777713e+02	-7.59307592e+00	3.37905944e+01
1240665571.43	-3.15866051e+00	1.60162968e+02	-5.21680774e+01	-1.23413692e+02	-5.14726539e+01	-1.27142322e+02	-7.60157196e+00	3.37949867e+01
1240951142.86	-3.15228491e+00	1.60144406e+02	-5.21539639e+01	-1.23870057e+02	-5.14159163e+01	-1.28084630e+02	-7.60730507e+00	3.37604964e+01
1241236714.29	-3.15391126e+00	1.60157434e+02	-5.21815637e+01	-1.23853362e+02	-5.15591817e+01	-1.28897296e+02	-7.62389463e+00	3.36648605e+01
1241522285.71	-3.15787283e+00	1.60118701e+02	-5.21694060e+01	-1.24838096e+02	-5.15196598e+01	-1.29124253e+02	-7.63026624e+00	3.36181246e+01
1241807857.14	-3.15767361e+00	1.60144488e+02	-5.22803070e+01	-1.25501080e+02	-5.15256327e+01	-1.29689461e+02	-7.63831291e+00	3.35191144e+01
1242093428.57	-3.15986049e+00	1.60123265e+02	-5.22583148e+01	-1.25383128e+02	-5.16409956e+01	-1.29480813e+02	-7.65680935e+00	3.34643247e+01
1242379000	-3.15908149e+00	1.60102323e+02	-5.22796043e+01	-1.26012758e+02	-5.16129095e+01	-1.30319472e+02	-7.64899977e+00	3.33677279e+01
1242664571.43	-3.15941780e+00	1.60037400e+02	-5.23343741e+01	-1.26654361e+02	-5.16063120e+01	-1.30883004e+02	-7.65790223e+00	3.33148210e+01
1242950142.86	-3.15662960e+00	1.60091278e+02	-5.23893430e+01	-1.27327631e+02	-5.16410574e+01	-1.31431076e+02	-7.66532256e+00	3.33137469e+01
1243235714.29	-3.15344795e+00	1.60074330e+02	-5.23595559e+01	-1.27511761e+02	-5.16876754e+01	-1.31558604e+02	-7.67879305e+00	3.32435260e+01
1243521285.71	-3.14873806e+00	1.60070039e+02	-5.23978504e+01	-1.27928972e+02	-5.16720461e+01	-1.31934427e+02	-7.66997215e+00	3.31904627e+01
1243806857.14	-3.15000269e+00	1.60057430e+02	-5.24679158e+01	-1.28108463e+02	-5.17036212e+01	-1.32638886e+02	-7.67621739e+00	3.32047975e+01
1244092428.57	-3.15237171e+00	1.60035259e+02	-5.24061259e+01	-1.28739674e+02	-5.16989279e+01	-1.32866844e+02	-7.68026849e+00	3.30696126e+01
1244378000	-3.15080776e+00	1.60031905e+02	-5.24512690e+01	-1.29181617e+02	-5.17611032e+01	-1.33414356e+02	-7.69109416e+00	3.30557996e+01
1244663571.43	-3.15273924e+00	1.60023686e+02	-5.25213395e+01	-1.29132447e+02	-5.17483339e+01	-1.33893206e+02	-7.69352690e+00	3.29994021e+01
1244949142.86	-3.15292610e+00	1.59974314e+02	-5.25972277e+01	-1.30009188e+02	-5.18411334e+01	-1.34482466e+02	-7.68228986e+00	3.29193342e+01
1245234714.29	-3.15281348e+00	1.59976839e+02	-5.26247507e+01	-1.30401081e+02	-5.18439157e+01	-1.35167627e+02	-7.70117940e+00	3.28378243e+01
1245520285.71	-3.14656640e+00	1.59984920e+02	-5.25740337e+01	-1.30564944e+02	-5.18703885e+01	-1.35576288e+02	-7.70152259e+00	3.28373111e+01
1245805857.14	-3.14198589e+00	1.59979910e+02	-5.25871789e+01	-1.31100244e+02	-5.18382255e+01	-1.35725138e+02	-7.70885025e+00	3.27566318e+01
1246091428.57	-3.14898851e+00	1.59924729e+02	-5.25851160e+01	-1.31125909e+02	-5.19323300e+01	-1.36891525e+02	-7.71442485e+00	3.26802071e+01
1246377000	-3.15028190e+00	1.59904853e+02	-5.25880944e+01	-1.32157742e+02	-5.19515621e+01	-1.37465435e+02	-7.71339837e+00	3.26583568e+01
1246662571.43	-3.14839797e+00	1.59879907e+02	-5.26474301e+01	-1.32434143e+02	-5.19850482e+01	-1.37289598e+02	-7.71935642e+00	3.26001924e+01
1246948142.86	-3.14342907e+00	1.59856664e+02	-5.26155477e+01	-1.32436195e+02	-5.20443586e+01	-1.38158237e+02	-7.72344975e+00	3.25820988e+01
1247233714.29	-3.14588914e+00	1.59860100e+02	-5.27417758e+01	-1.33412061e+02	-5.20132093e+01	-1.38297355e+02	-7.72811675e+00	3.24834328e+01
1247519285.71	-3.14226555e+00	1.59878303e+02	-5.27624568e+01	-1.33770940e+02	-5.20614567e+01	-1.38922392e+02	-7.72516285e+00	3.24977059e+01
1247804857.14	-3.14558470e+00	1.59885558e+02	-5.28348950e+01	-1.33948667e+02	-5.20852897e+01	-1.39547490e+02	-7.72984838e+00	3.23458906e+01
1248090428.57	-3.13809928e+00	1.59850232e+02	-5.28946112e+01	-1.34711273e+02	-5.20351128e+01	-1.39983404e+02	-7.72743967e+00	3.23427821e+01
1248376000	-3.13790891e+00	1.59839549e+02	-5.28802092e+01	-1.35230281e+02	-5.21274276e+01	-1.40195712e+02	-7.71886655e+00	3.23207231e+01
1248661571.43	-3.13849708e+00	1.59825326e+02	-5.28799400e+01	-1.35034869e+02	-5.21557967e+01	-1.41084207e+02	-7.72543658e+00	3.22287841e+01
1248947142.86	-3.13830187e+00	1.59801171e+02	-5.29171880e+01	-1.35933389e+02	-5.21345733e+01	-1.40990011e+02	-7.72428054e+00	3.21614509e+01
1249232714.29	-3.14133871e+00	1.59789352e+02	-5.29760201e+01	-1.36306893e+02	-5.21651383e+01	-1.41449328e+02	-7.72923977e+00	3.20622228e+01
1249518285.71	-3.13874520e+00	1.59793951e+02	-5.30118303e+01	-1.36328454e+02	-5.22793654e+01	-1.42183851e+02	-7.71883236e+00	3.19802230e+01
1249803857.14	-3.13557769e+00	1.59747410e+02	-5.30450531e+01	-1.36962489e+02	-5.23404195e+01	-1.42473325e+02	-7.72241951e+00	3.19093498e+01
1250089428.57	-3.13446368e+00	1.59762034e+02	-5.30318052e+01	-1.36596318e+02	-5.23186339e+01	-1.42671036e+02	-7.71569246e+00	3.18173376e+01
1250375000	-3.13485071e+00	1.59720361e+02	-5.31011960e+01	-1.37786262e+02	-5.23718039e+01	-1.43404265e+02	-7.70803431e+00	3.17743962e+01
1250660571.43	-3.13231472e+00	1.59726235e+02	-5.31058094e+01	-1.38286644e+02	-5.23511041e+01	-1.44026184e+02	-7.69835325e+00	3.16855131e+01
1250946142.86	-3.13000863e+00	1.59724647e+02	-5.30905160e+01	-1.38523508e+02	-5.23964530e+01	-1.44109431e+02	-7.70358358e+00	3.16253664e+01
1251231714.29	-3.12713055e+00	1.59663533e+02	-5.31305862e+01	-1.39115777e+02	-5.24844090e+01	-1.45055479e+02	-7.71432716e+00	3.15079787e+01
1251517285.71	-3.12395290e+00	1.59668362e+02	-5.31697228e+01	-1.39258443e+02	-5.24463331e+01	-1.45291932e+02	-7.70946352e+00	3.14418147e+01
1251802857.14	-3.11915896e+00	1.59661565e+02	-5.30765469e+01	-1.40085794e+02	-5.25246505e+01	-1.45423933e+02	-7.70813740e+00	3.14644119e+01
1252088428.57	-3.12082239e+00	1.59628843e+02	-5.32262107e+01	-1.40102247e+02	-5.25303672e+01	-1.45633634e+02	-7.69338839e+00	3.13610019e+01
1252374000	-3.12114204e+00	1.59635483e+02	-5.31840727e+01	-1.40285383e+02	-5.25782988e+01	-1.46079880e+02	-7.69974675e+00	3.13031625e+01
1252659571.43	-3.12470189e+00	1.59623797e+02	-5.33062400e+01	-1.40358672e+02	-5.25780905e+01	-1.46378986e+02	-7.68998136e+00	3.11550544e+01
1252945142.86	-3.12068628e+00	1.59610815e+02	-5.32358247e+01	-1.41184827e+02	-5.26289060e+01	-1.46746552e+02	-7.69234698e+00	3.09966149e+01
1253230714.29	-3.12231469e+00	1.59609102e+02	-5.33334643e+01	-1.41295567e+02	-5.25651913e+01	-1.47317844e+02	-7.69167018e+00	3.09521423e+01
1253516285.71	-3.12555792e+00	1.59565204e+02	-5.33566611e+01	-1.41986525e+02	-5.26149365e+01	-1.47644062e+02	-7.70028350e+00	3.09173313e+01
1253801857.14	-3.12273103e+00	1.59599648e+02	-5.32748233e+01	-1.41630781e+02	-5.27668482e+01	-1.48086738e+02	-7.69567174e+00	3.07773254e+01
1254087428.57	-3.12111599e+00	1.59628843e+02	-5.33653980e+01	-1.42716393e+02	-5.26894417e+01	-1.48578027e+02	-7.68395656e+00	3.07081284e+01
1254373000	-3.11823779e+00	1.59603699e+02	-5.33429358e+01	-1.42811623e+02	-5.27306514e+01	-1.49211643e+02	-7.68448157e+00	3.06124388e+01
1254658571.43	-3.11719595e+00	1.59574886e+02	-5.33837690e+01	-1.43181683e+02	-5.27304257e+01	-1.49491698e+02	-7.68231704e+00	3.05362621e+01
1254944142.86	-3.11379932e+00	1.59548130e+02	-5.34291221e+01	-1.43774214e+02	-5.28141750e+01	-1.49938495e+02	-7.68413581e+00	3.05637519e+01
1255229714.29	-3.11486533e+00	1.59533310e+02	-5.34927067e+01	-1.43629343e+02	-5.28067733e+01	-1.49783062e+02	-7.67219971e+00	3.03823583e+01
1255515285.71	-3.11861306e+00	1.59545591e+02	-5.34429076e+01	-1.44024547e+02	-5.28313526e+01	-1.50548271e+02	-7.67564428e+00	3.03345755e+01
1255800857.14	-3.11613968e+00	1.59519785e+02	-5.35499283e+01	-1.45418585e+02	-5.29569922e+01	-1.50520680e+02	-7.67796451e+00	3.02719876e+01
1256086428.57	-3.10871076e+00	1.59469100e+02	-5.35320675e+01	-1.45310995e+02	-5.29129279e+01	-1.51192841e+02	-7.67038783e+00	3.01599458e+01
1256372000	-3.11059643e+00	1.59479609e+02	-5.35304929e+01	-1.45978559e+02	-5.29539627e+01	-1.51919562e+02	-7.67774967e+00	3.00487938e+01
1256657571.43	-3.10337986e+00	1.59457674e+02	-5.36578065e+01	-1.45990833e+02	-5.29223491e+01	-1.52025377e+02	-7.66947976e+00	2.99430025e+01
1256943142.86	-3.10436590e+00	1.59466050e+02	-5.36405499e+01	-1.46209138e+02	-5.30013631e+01	-1.52577835e+02	-7.68635938e+00	2.98777346e+01
1257228714.29	-3.10942203e+00	1.59474876e+02	-5.35634457e+01	-1.46277923e+02	-5.29837907e+01	-1.52787533e+02	-7.68233182e+00	2.97602136e+01
1257514285.71	-3.10696998e+00	1.59472208e+02	-5.36416709e+01	-1.46713152e+02	-5.30440649e+01	-1.53134705e+02	-7.68044425e+00	2.96103282e+01
1257799857.14	-3.10835956e+00	1.59439206e+02	-5.36461055e+01	-1.47711336e+02	-5.31131473e+01	-1.53759131e+02	-7.67288849e+00	2.95341823e+01
1258085428.57	-3.10429914e+00	1.59440206e+02	-5.36118291e+01	-1.47858217e+02	-5.31571024e+01	-1.54329403e+02	-7.66774442e+00	2.94144727e+01
1258371000	-3.10093567e+00	1.59408040e+02	-5.37056355e+01	-1.48044184e+02	-5.31201850e+01	-1.54511532e+02	-7.67599971e+00	2.93449841e+01
1258656571.43	-3.10282411e+00	1.59409095e+02	-5.37797055e+01	-1.48583176e+02	-5.31545423e+01	-1.54968279e+02	-7.67725121e+00	2.91868021e+01
1258942142.86	-3.10103988e+00	1.59394119e+02	-5.37886169e+01	-1.48747455e+02	-5.31841234e+01	-1.55404784e+02	-7.67843950e+00	2.90825489e+01
1259227714.29	-3.10220254e+00	1.59355741e+02	-5.38122311e+01	-1.48453193e+02	-5.32739921e+01	-1.56193116e+02	-7.68816047e+00	2.90266229e+01
1259513285.71	-3.09858818e+00	1.59403126e+02	-5.38437631e+01	-1.49292698e+02	-5.32737699e+01	-1.55845182e+02	-7.69902547e+00	2.88939168e+01
1259798857.14	-3.09782113e+00	1.59361048e+02	-5.37957911e+01	-1.50262985e+02	-5.33682571e+01	-1.56294077e+02	-7.69069653e+00	2.88540475e+01
1260084428.57	-3.09659568e+00	1.59368048e+02	-5.39314570e+01	-1.50198026e+02	-5.33330868e+01	-1.56841598e+02	-7.70421740e+00	2.88025095e+01
1260370000	-3.09881972e+00	1.59339112e+02	-5.40015938e+01	-1.50719603e+02	-5.33948134e+01	-1.57564831e+02	-7.71042812e+00	2.86805643e+01
1260655571.43	-3.09229231e+00	1.59301781e+02	-5.40353495e+01	-1.51097261e+02	-5.35066709e+01	-1.57530984e+02	-7.70980209e+00	2.86092333e+01
1260941142.86	-3.08866408e+00	1.59283488e+02	-5.39613937e+01	-1.50835991e+02	-5.35386415e+01	-1.57512053e+02	-7.72570002e+00	2.84994720e+01
1261226714.29	-3.08697719e+00	1.59312853e+02	-5.39965908e+01	-1.51365672e+02	-5.35254817e+01	-1.58204700e+02	-7.71740807e+00	2.83496534e+01
1261512285.71	-3.09060668e+00	1.59280626e+02	-5.39256575e+01	-1.51596117e+02	-5.35100454e+01	-1.58398534e+02	-7.73043855e+00	2.83102470e+01
1261797857.14	-3.09244001e+00	1.59261130e+02	-5.39663064e+01	-1.52301644e+02	-5.35535794e+01	-1.58328632e+02	-7.71928816e+00	2.82106820e+01
1262083428.57	-3.09121339e+00	1.59254888e+02	-5.40149362e+01	-1.52604125e+02	-5.35904928e+01	-1.58812358e+02	-7.72987466e+00	2.81792329e+01
1262369000	-3.08280524e+00	1.59270496e+02	-5.39942430e+01	-1.52573961e+02	-5.35862476e+01	-1.58795662e+02	-7.73685331e+00	2.81480207e+01
1262654571.43	-3.08475171e+00	1.59272956e+02	-5.41766569e+01	-1.52842984e+02	-5.36136523e+01	-1.59446458e+02	-7.73532826e+00	2.80236801e+01
1262940142.86	-3.08671408e+00	1.59262132e+02	-5.40088329e+01	-1.53267964e+02	-5.35842335e+01	-1.59488653e+02	-7.74313915e+00	2.79701522e+01
1263225714.29	-3.09077345e+00	1.59251052e+02	-5.41782072e+01	-1.53357282e+02	-5.36948165e+01	-1.59027322e+02	-7.75685159e+00	2.79037709e+01
1263511285.71	-3.08704164e+00	1.59228764e+02	-5.40654070e+01	-1.53797441e+02	-5.36709231e+01	-1.59580415e+02	-7.74971665e+00	2.78480440e+01
1263796857.14	-3.08460590e+00	1.59233258e+02	-5.41351943e+01	-1.54331443e+02	-5.37203823e+01	-1.60193110e+02	-7.75638354e+00	2.78278199e+01
1264082428.57	-3.08586423e+00	1.59185508e+02	-5.41462917e+01	-1.54414529e+02	-5.37073981e+01	-1.60980152e+02	-7.76597842e+00	2.78402434e+01
1264368000	-3.08687247e+00	1.59215626e+02	-5.41507388e+01	-1.54914293e+02	-5.37127583e+01	-1.61210571e+02	-7.77462950e+00	2.78225936e+01
1264653571.43	-3.08538968e+00	1.59188818e+02	-5.42293274e+01	-1.55001673e+02	-5.36991388e+01	-1.61120070e+02	-7.78017939e+00	2.78055926e+01
1264939142.86	-3.08463501e+00	1.59160918e+02	-5.41677297e+01	-1.55455787e+02	-5.37619932e+01	-1.61465910e+02	-7.78008304e+00	2.77800748e+01
1265224714.29	-3.08417653e+00	1.59173529e+02	-5.41493656e+01	-1.56023353e+02	-5.37568250e+01	-1.61803565e+02	-7.78072630e+00	2.77147025e+01
1265510285.71	-3.08110474e+00	1.59165259e+02	-5.42148567e+01	-1.56672994e+02	-5.37710308e+01	-1.62140127e+02	-7.79942322e+00	2.77988865e+01
1265795857.14	-3.08478693e+00	1.59201329e+02	-5.41995564e+01	-1.56352927e+02	-5.37894988e+01	-1.62714550e+02	-7.81417761e+00	2.77796588e+01
1266081428.57	-3.08538967e+00	1.59147430e+02	-5.42117247e+01	-1.57355108e+02	-5.37708863e+01	-1.62832532e+02	-7.80826712e+00	2.76917773e+01
1266367000	-3.08630426e+00	1.59132791e+02	-5.41594409e+01	-1.56786891e+02	-5.38566779e+01	-1.63557348e+02	-7.81537707e+00	2.76886024e+01
1266652571.43	-3.08341810e+00	1.59110270e+02	-5.41982629e+01	-1.57343266e+02	-5.37067040e+01	-1.63920776e+02	-7.81704820e+00	2.76598862e+01
1266938142.86	-3.08087660e+00	1.59101222e+02	-5.42401986e+01	-1.58107410e+02	-5.37402927e+01	-1.64169405e+02	-7.82552786e+00	2.76750592e+01
1267223714.29	-3.08498217e+00	1.59113565e+02	-5.41515395e+01	-1.58635512e+02	-5.38325452e+01	-1.64380422e+02	-7.83557803e+00	2.76038109e+01
1267509285.71	-3.08534446e+00	1.59118276e+02	-5.42099302e+01	-1.58957258e+02	-5.37959766e+01	-1.64910909e+02	-7.83730600e+00	2.75924760e+01
1267794857.14	-3.08497241e+00	1.59135950e+02	-5.41518275e+01	-1.59289275e+02	-5.38121071e+01	-1.65612296e+02	-7.83923251e+00	2.74601296e+01
1268080428.57	-3.08022466e+00	1.59142431e+02	-5.41895018e+01	-1.59987399e+02	-5.38609393e+01	-1.65568002e+02	-7.84388400e+00	2.74620109e+01
1268366000	-3.08224473e+00	1.59118671e+02	-5.42697211e+01	-1.59620518e+02	-5.38222477e+01	-1.66065728e+02	-7.85484116e+00	2.74401152e+01
1268651571.43	-3.08015837e+00	1.59100848e+02	-5.42464354e+01	-1.60313497e+02	-5.38180893e+01	-1.66047656e+02	-7.85379546e+00	2.74330980e+01
1268937142.86	-3.07600779e+00	1.59110294e+02	-5.41513947e+01	-1.60573177e+02	-5.38036801e+01	-1.66601370e+02	-7.85865025e+00	2.73595231e+01
1269222714.29	-3.07764707e+00	1.59095866e+02	-5.43184045e+01	-1.61261594e+02	-5.38343799e+01	-1.66898998e+02	-7.87096706e+00	2.73631587e+01
1269508285.71	-3.08056718e+00	1.59084279e+02	-5.43263115e+01	-1.61973350e+02	-5.38041611e+01	-1.67749575e+02	-7.87308164e+00	2.72922591e+01
1269793857.14	-3.07778185e+00	1.59067590e+02	-5.43936753e+01	-1.62774564e+02	-5.39136231e+01	-1.67912466e+02	-7.86737677e+00	2.71639412e+01
1270079428.57	-3.07926491e+00	1.59110879e+02	-5.43338171e+01	-1.62030945e+02	-5.39544064e+01	-1.68424514e+02	-7.86261483e+00	2.71728853e+01
1270365000	-3.08076303e+00	1.59076911e+02	-5.42837480e+01	-1.62910893e+02	-5.39141565e+01	-1.68740904e+02	-7.85899141e+00	2.70548144e+01
1270650571.43	-3.07615329e+00	1.59012234e+02	-5.43171590e+01	-1.63112145e+02	-5.38450090e+01	-1.69393436e+02	-7.86966956e+00	2.71712603e+01
1270936142.86	-3.07458266e+00	1.58995782e+02	-5.43713539e+01	-1.63929524e+02	-5.38478560e+01	-1.69544992e+02	-7.86453637e+00	2.71572243e+01
1271221714.29	-3.07386350e+00	1.59033503e+02	-5.43911915e+01	-1.63983056e+02	-5.38629485e+01	-1.69962004e+02	-7.86583243e+00	2.70040386e+01
1271507285.71	-3.06699168e+00	1.59053500e+02	-5.43325724e+01	-1.64521166e+02	-5.39616258e+01	-1.70729574e+02	-7.85873103e+00	2.70118401e+01
1271792857.14	-3.07244850e+00	1.59042226e+02	-5.44194999e+01	-1.64856212e+02	-5.39820722e+01	-1.70667605e+02	-7.86684693e+00	2.70319381e+01
1272078428.57	-3.07423900e+00	1.59019606e+02	-5.44481688e+01	-1.66206086e+02	-5.39410639e+01	-1.70865750e+02	-7.86756326e+00	2.70399810e+01
1272364000	-3.07140983e+00	1.58986946e+02	-5.43636077e+01	-1.65722405e+02	-5.39669896e+01	-1.71717381e+02	-7.86033770e+00	2.70059731e+01
1272649571.43	-3.07393568e+00	1.58991583e+02	-5.44095262e+01	-1.66550835e+02	-5.40473895e+01	-1.72210062e+02	-7.87266167e+00	2.69434094e+01
1272935142.86	-3.07357050e+00	1.58961694e+02	-5.44252050e+01	-1.67343965e+02	-5.39483285e+01	-1.72489108e+02	-7.86708709e+00	2.69509149e+01
1273220714.29	-3.07697156e+00	1.58957104e+02	-5.44176684e+01	-1.67649528e+02	-5.40590712e+01	-1.72844200e+02	-7.85248599e+00	2.68610887e+01
1273506285.71	-3.07713898e+00	1.58983359e+02	-5.44390114e+01	-1.67965089e+02	-5.40097022e+01	-1.73719905e+02	-7.85451511e+00	2.68464202e+01
1273791857.14	-3.07441931e+00	1.58941158e+02	-5.45706806e+01	-1.68236328e+02	-5.40767690e+01	-1.73644069e+02	-7.84047596e+00	2.68271522e+01
1274077428.57	-3.07426651e+00	1.58925132e+02	-5.45286423e+01	-1.68954019e+02	-5.40434564e+01	-1.74320353e+02	-7.84399516e+00	2.68260032e+01
1274363000	-3.07315597e+00	1.58923720e+02	-5.45029442e+01	-1.68955355e+02	-5.40739643e+01	-1.74929421e+02	-7.83506795e+00	2.67549699e+01
1274648571.43	-3.07398357e+00	1.58943122e+02	-5.45625662e+01	-1.69462563e+02	-5.41233862e+01	-1.75217132e+02	-7.83888126e+00	2.68445868e+01
1274934142.86	-3.07672144e+00	1.58938822e+02	-5.45646438e+01	-1.70714113e+02	-5.40919440e+01	-1.76010389e+02	-7.83318330e+00	2.68378431e+01
1275219714.29	-3.07141899e+00	1.58910964e+02	-5.45672345e+01	-1.70358435e+02	-5.41765680e+01	-1.76170404e+02	-7.82406536e+00	2.68580041e+01
1275505285.71	-3.07269992e+00	1.58878704e+02	-5.46748599e+01	-1.70864292e+02	-5.41829022e+01	-1.76828958e+02	-7.82436524e+00	2.67857918e+01
1275790857.14	-3.07706516e+00	1.58864132e+02	-5.46855847e+01	-1.71118601e+02	-5.42060924e+01	-1.76970248e+02	-7.81773380e+00	2.67117086e+01
1276076428.57	-3.07501653e+00	1.58887669e+02	-5.46025433e+01	-1.70768574e+02	-5.41822631e+01	-1.77916501e+02	-7.81021505e+00	2.66982901e+01
1276362000	-3.07170239e+00	1.58874933e+02	-5.46259060e+01	-1.71875529e+02	-5.41998461e+01	-1.78276393e+02	-7.81029230e+00	2.66416614e+01
1276647571.43	-3.06583454e+00	1.58871534e+02	-5.47828597e+01	-1.72664828e+02	-5.43345338e+01	-1.78975390e+02	-7.80319737e+00	2.67400132e+01
1276933142.86	-3.07231865e+00	1.58836544e+02	-5.46956518e+01	-1.72728992e+02	-5.43291556e+01	-1.79163292e+02	-7.80342857e+00	2.66311783e+01
1277218714.29	-3.07268518e+00	1.58807957e+02	-5.47835481e+01	-1.73196265e+02	-5.43389489e+01	-1.79396728e+02	-7.79559796e+00	2.66020727e+01
1277504285.71	-3.07463161e+00	1.58784550e+02	-5.47790658e+01	-1.74221062e+02	-5.43482079e+01	1.79880622e+02	-7.78172261e+00	2.65828089e+01
1277789857.14	-3.07124633e+00	1.58785888e+02	-5.47875961e+01	-1.74017481e+02	-5.43409344e+01	1.79383258e+02	-7.78173286e+00	2.65213166e+01
1278075428.57	-3.07310138e+00	1.58789026e+02	-5.48907237e+01	-1.74716295e+02	-5.44201533e+01	1.78877824e+02	-7.78105451e+00	2.65154514e+01
1278361000	-3.07634843e+00	1.58696873e+02	-5.47750646e+01	-1.75632251e+02	-5.44216027e+01	1.78988738e+02	-7.78980012e+00	2.63700875e+01
1278646571.43	-3.08015222e+00	1.58725305e+02	-5.47943520e+01	-1.76200414e+02	-5.44389212e+01	1.78216541e+02	-7.79436746e+00	2.62127674e+01
1278932142.86	-3.07918415e+00	1.58703995e+02	-5.48585448e+01	-1.75782756e+02	-5.45247468e+01	1.77904998e+02	-7.78410800e+00	2.61677964e+01
1279217714.29	-3.07823574e+00	1.58704222e+02	-5.49722668e+01	-1.76843476e+02	-5.44767680e+01	1.77874077e+02	-7.79196303e+00	2.61444342e+01
1279503285.71	-3.08151617e+00	1.58690653e+02	-5.50019164e+01	-1.77093173e+02	-5.45644346e+01	1.77092201e+02	-7.79748151e+00	2.60818888e+01
1279788857.14	-3.08278759e+00	1.58621079e+02	-5.49944512e+01	-1.77393666e+02	-5.45897712e+01	1.76415359e+02	-7.78263881e+00	2.60282515e+01
1280074428.57	-3.07478020e+00	1.58601853e+02	-5.49349149e+01	-1.77666876e+02	-5.46159995e+01	1.75746780e+02	-7.78823494e+00	2.59208449e+01
1280360000	-3.08142913e+00	1.58604779e+02	-5.49672137e+01	-1.78521005e+02	-5.46331394e+01	1.75136391e+02	-7.78581930e+00	2.59046236e+01
1280645571.43	-3.07497295e+00	1.58615991e+02	-5.49994161e+01	-1.78295712e+02	-5.46724376e+01	1.75150582e+02	-7.77003182e+00	2.57833367e+01
1280931142.86	-3.08064743e+00	1.58617698e+02	-5.50455926e+01	-1.78045807e+02	-5.46512937e+01	1.75224826e+02	-7.76638755e+00	2.57442352e+01
1281216714.29	-3.07840861e+00	1.58605800e+02	-5.50308212e+01	-1.78756550e+02	-5.47213423e+01	1.74615157e+02	-7.76472218e+00	2.57733139e+01
1281502285.71	-3.07970583e+00	1.58584662e+02	-5.52006700e+01	-1.79329275e+02	-5.47202071e+01	1.73898906e+02	-7.76659960e+00	2.57137405e+01
1281787857.14	-3.07842616e+00	1.58545416e+02	-5.52080388e+01	1.79041093e+02	-5.47563800e+01	1.74096699e+02	-7.76755662e+00	2.56629411e+01
1282073428.57	-3.07725629e+00	1.58501905e+02	-5.52451160e+01	-1.79704008e+02	-5.47155008e+01	1.73987635e+02	-7.77583964e+00	2.56692901e+01
1282359000	-3.07603533e+00	1.58503663e+02	-5.50691650e+01	1.79386288e+02	-5.48120872e+01	1.72772590e+02	-7.79020020e+00	2.55983917e+01
1282644571.43	-3.07655132e+00	1.58470085e+02	-5.52122244e+01	1.78779107e+02	-5.48556046e+01	1.72119933e+02	-7.77883691e+00	2.54997535e+01
1282930142.86	-3.07146292e+00	1.58459813e+02	-5.52147475e+01	1.79156531e+02	-5.48696710e+01	1.72305290e+02	-7.77253768e+00	2.54531745e+01
1283215714.29	-3.06941194e+00	1.58409917e+02	-5.52519904e+01	1.78781654e+02	-5.48061069e+01	1.72644786e+02	-7.76945790e+00	2.53666846e+01
1283501285.71	-3.07199088e+00	1.58381555e+02	-5.52467470e+01	1.77486096e+02	-5.49938143e+01	1.72135560e+02	-7.78005256e+00	2.54154186e+01
1283786857.14	-3.06558863e+00	1.58376138e+02	-5.53206361e+01	1.77284088e+02	-5.48615917e+01	1.70958150e+02	-7.78703724e+00	2.54305815e+01
1284072428.57	-3.06547597e+00	1.58343762e+02	-5.53135658e+01	1.77156878e+02	-5.49658116e+01	1.70508428e+02	-7.78129101e+00	2.53902121e+01
1284358000	-3.06146834e+00	1.58317678e+02	-5.53480974e+01	1.76613636e+02	-5.50345682e+01	1.70442969e+02	-7.78033347e+00	2.54264959e+01
1284643571.43	-3.06554963e+00	1.58291375e+02	-5.53672531e+01	1.76234897e+02	-5.50268156e+01	1.69815301e+02	-7.77428579e+00	2.54290281e+01
1284929142.86	-3.06935246e+00	1.58235306e+02	-5.54631766e+01	1.76377831e+02	-5.49927531e+01	1.69764308e+02	-7.76913605e+00	2.54124496e+01
1285214714.29	-3.07396564e+00	1.58225388e+02	-5.53829454e+01	1.75876212e+02	-5.50046550e+01	1.69579326e+02	-7.76995805e+00	2.54738776e+01
1285500285.71	-3.07680402e+00	1.58265157e+02	-5.53112326e+01	1.76085358e+02	-5.51139806e+01	1.69234375e+02	-7.76567499e+00	2.54549705e+01
1285785857.14	-3.06911838e+00	1.58244212e+02	-5.53948039e+01	1.74499372e+02	-5.50749074e+01	1.67777621e+02	-7.77080315e+00	2.55096455e+01
1286071428.57	-3.07058910e+00	1.58231545e+02	-5.54319004e+01	1.74538517e+02	-5.50377726e+01	1.68421038e+02	-7.76581674e+00	2.55298722e+01
1286357000	-3.06980759e+00	1.58212738e+02	-5.54147283e+01	1.73735751e+02	-5.50669353e+01	1.67547115e+02	-7.77313008e+00	2.55765091e+01
1286642571.43	-3.07083125e+00	1.58188082e+02	-5.55016391e+01	1.73622490e+02	-5.50297194e+01	1.67438720e+02	-7.77288494e+00	2.55594554e+01
1286928142.86	-3.06845516e+00	1.58125969e+02	-5.54199153e+01	1.73209285e+02	-5.51030429e+01	1.67518153e+02	-7.76504524e+00	2.55782338e+01
1287213714.29	-3.07066581e+00	1.58110311e+02	-5.55131842e+01	1.73207102e+02	-5.50867956e+01	1.66686992e+02	-7.76340150e+00	2.56194306e+01
1287499285.71	-3.06828241e+00	1.58119140e+02	-5.54043249e+01	1.72268588e+02	-5.51249791e+01	1.66215511e+02	-7.76814890e+00	2.55714645e+01
1287784857.14	-3.06825631e+00	1.58116300e+02	-5.54744883e+01	1.72008478e+02	-5.51714624e+01	1.65434147e+02	-7.77840266e+00	2.56112461e+01
1288070428.57	-3.06695179e+00	1.58071227e+02	-5.54976523e+01	1.71440418e+02	-5.51569644e+01	1.65276142e+02	-7.77195310e+00	2.56406694e+01
1288356000	-3.06522659e+00	1.58098132e+02	-5.55686858e+01	1.70801984e+02	-5.51699384e+01	1.64223430e+02	-7.76502332e+00	2.56210655e+01
1288641571.43	-3.06656264e+00	1.58078641e+02	-5.55324584e+01	1.70592675e+02	-5.51046532e+01	1.64419874e+02	-7.76036818e+00	2.56368879e+01
1288927142.86	-3.05798145e+00	1.58114452e+02	-5.55535993e+01	1.70502135e+02	-5.51941070e+01	1.64085241e+02	-7.76230786e+00	2.56183064e+01
1289212714.29	-3.05479640e+00	1.58077439e+02	-5.54307885e+01	1.69109953e+02	-5.52342431e+01	1.63106266e+02	-7.77458572e+00	2.56834043e+01
1289498285.71	-3.05687154e+00	1.58005189e+02	-5.54800218e+01	1.69451263e+02	-5.52601505e+01	1.62685637e+02	-7.77130468e+00	2.56516920e+01
1289783857.14	-3.05122966e+00	1.58004110e+02	-5.55830876e+01	1.68435628e+02	-5.52343799e+01	1.62136894e+02	-7.77428745e+00	2.56101517e+01
1290069428.57	-3.05615897e+00	1.57978128e+02	-5.55786757e+01	1.68335086e+02	-5.52010615e+01	1.61407948e+02	-7.77913216e+00	2.56509687e+01
1290355000	-3.05089606e+00	1.57947478e+02	-5.55683522e+01	1.66927840e+02	-5.52974452e+01	1.60944933e+02	-7.78281682e+00	2.56700450e+01
1290640571.43	-3.05261295e+00	1.57970984e+02	-5.56205795e+01	1.67075588e+02	-5.53316977e+01	1.60774946e+02	-7.78119788e+00	2.55861843e+01
1290926142.86	-3.05206176e+00	1.57951667e+02	-5.56430876e+01	1.66618129e+02	-5.53476782e+01	1.59810584e+02	-7.78418931e+00	2.55849300e+01
1291211714.29	-3.05509697e+00	1.57881606e+02	-5.56357785e+01	1.66331692e+02	-5.53836841e+01	1.59406853e+02	-7.77062133e+00	2.55354008e+01
1291497285.71	-3.05135141e+00	1.57877297e+02	-5.56496257e+01	1.66428830e+02	-5.53725773e+01	1.58571565e+02	-7.75906141e+00	2.54856177e+01
1291782857.14	-3.05773363e+00	1.57828083e+02	-5.55898698e+01	1.65006596e+02	-5.54797623e+01	1.59018206e+02	-7.76105042e+00	2.55156783e+01
1292068428.57	-3.06376893e+00	1.57834302e+02	-5.57722143e+01	1.64853737e+02	-5.54882841e+01	1.58283131e+02	-7.75819091e+00	2.54855472e+01
1292354000	-3.05953124e+00	1.57792623e+02	-5.57333567e+01	1.64043282e+02	-5.54984517e+01	1.57939498e+02	-7.76259119e+00	2.54797158e+01
1292639571.43	-3.05219706e+00	1.57749384e+02	-5.57897997e+01	1.63419169e+02	-5.55217608e+01	1.57264165e+02	-7.75911909e+00	2.54313662e+01
1292925142.86	-3.04539610e+00	1.57704310e+02	-5.57714327e+01	1.62819099e+02	-5.54937649e+01	1.57094595e+02	-7.75679743e+00	2.54665341e+01
1293210714.29	-3.05191100e+00	1.57688748e+02	-5.57929273e+01	1.62550917e+02	-5.54997539e+01	1.55849299e+02	-7.73787647e+00	2.54081812e+01
1293496285.71	-3.04699310e+00	1.57684120e+02	-5.58147140e+01	1.61500713e+02	-5.56709889e+01	1.55813434e+02	-7.74431064e+00	2.54310980e+01
1293781857.14	-3.04653258e+00	1.57687856e+02	-5.59335891e+01	1.61716653e+02	-5.56773197e+01	1.55276716e+02	-7.72531897e+00	2.53590031e+01
1294067428.57	-3.04135346e+00	1.57695720e+02	-5.59179561e+01	1.61232180e+02	-5.57030604e+01	1.54406635e+02	-7.73583334e+00	2.53445363e+01
1294353000	-3.04146709e+00	1.57643051e+02	-5.58997863e+01	1.60673351e+02	-5.58102824e+01	1.54390135e+02	-7.71358174e+00	2.54618481e+01
1294638571.43	-3.04126068e+00	1.57640299e+02	-5.59840288e+01	1.59813899e+02	-5.57920753e+01	1.53476455e+02	-7.72895588e+00	2.54040897e+01
1294924142.86	-3.04171910e+00	1.57614119e+02	-5.60377642e+01	1.59183849e+02	-5.58403963e+01	1.52979466e+02	-7.72501457e+00	2.53284421e+01
1295209714.29	-3.04314720e+00	1.57627883e+02	-5.60728774e+01	1.58280912e+02	-5.58449010e+01	1.52161822e+02	-7.71211177e+00	2.52949119e+01
1295495285.71	-3.04442033e+00	1.57630614e+02	-5.59413734e+01	1.57917320e+02	-5.58793980e+01	1.52003119e+02	-7.70283985e+00	2.51274397e+01
1295780857.14	-3.03447632e+00	1.57564749e+02	-5.61696187e+01	1.58032745e+02	-5.57501032e+01	1.51326734e+02	-7.69547121e+00	2.51402803e+01
1296066428.57	-3.03521418e+00	1.57556532e+02	-5.62289141e+01	1.56620456e+02	-5.60610195e+01	1.51223367e+02	-7.69368506e+00	2.50923094e+01
1296352000	-3.03971281e+00	1.57462911e+02	-5.62777593e+01	1.56567161e+02	-5.60109823e+01	1.50214015e+02	-7.70090168e+00	2.50247934e+01
1296637571.43	-3.03892236e+00	1.57467478e+02	-5.63107520e+01	1.55884097e+02	-5.60418712e+01	1.50323962e+02	-7.69214018e+00	2.49909350e+01
1296923142.86	-3.02766477e+00	1.57449433e+02	-5.64387527e+01	1.55569236e+02	-5.60717306e+01	1.50037596e+02	-7.68274922e+00	2.49828203e+01
1297208714.29	-3.02744594e+00	1.57449737e+02	-5.64216182e+01	1.54827678e+02	-5.61889516e+01	1.49128932e+02	-7.68636903e+00	2.50321146e+01
1297494285.71	-3.02489232e+00	1.57417568e+02	-5.64173264e+01	1.54855372e+02	-5.62521945e+01	1.48936645e+02	-7.67090953e+00	2.49669766e+01
1297779857.14	-3.02771949e+00	1.57424402e+02	-5.65353724e+01	1.53975729e+02	-5.62741725e+01	1.48262028e+02	-7.68479124e+00	2.49866329e+01
1298065428.57	-3.02785900e+00	1.57378789e+02	-5.65281681e+01	1.54234318e+02	-5.63413056e+01	1.47809567e+02	-7.67604828e+00	2.49003954e+01
1298351000	-3.02612769e+00	1.57373459e+02	-5.66818883e+01	1.54826731e+02	-5.62694442e+01	1.48066139e+02	-7.67027147e+00	2.49045027e+01
1298636571.43	-3.02640622e+00	1.57319340e+02	-5.67046045e+01	1.53009579e+02	-5.64305923e+01	1.47120209e+02	-7.67056744e+00	2.48282720e+01
1298922142.86	-3.02211542e+00	1.57349092e+02	-5.65856860e+01	1.52613280e+02	-5.64307619e+01	1.46956786e+02	-7.65872651e+00	2.48500380e+01
1299207714.29	-3.02251734e+00	1.57308404e+02	-5.67331784e+01	1.52890778e+02	-5.65215315e+01	1.46281109e+02	-7.65590914e+00	2.47625768e+01
1299493285.71	-3.02428526e+00	1.57328157e+02	-5.67142056e+01	1.52493083e+02	-5.65518634e+01	1.46076429e+02	-7.63817145e+00	2.47020153e+01
1299778857.14	-3.01744228e+00	1.57292673e+02	-5.69010660e+01	1.51392566e+02	-5.65575827e+01	1.45649261e+02	-7.63600210e+00	2.46653755e+01
1300064428.57	-3.01607329e+00	1.57288527e+02	-5.69224996e+01	1.51321263e+02	-5.66447556e+01	1.45289296e+02	-7.63826116e+00	2.45270126e+01
1300350000	-3.01731302e+00	1.57266916e+02	-5.67708380e+01	1.50946288e+02	-5.66076224e+01	1.45009717e+02	-7.63616997e+00	2.44453544e+01
1300635571.43	-3.01373937e+00	1.57248686e+02	-5.69655818e+01	1.50583429e+02	-5.65690914e+01	1.44555894e+02	-7.62834279e+00	2.43683029e+01
1300921142.86	-3.01429833e+00	1.57218025e+02	-5.70028105e+01	1.51099223e+02	-5.66063970e+01	1.44343158e+02	-7.61945095e+00	2.43366892e+01
1301206714.29	-3.01296562e+00	1.57222928e+02	-5.69346830e+01	1.50119306e+02	-5.66367134e+01	1.43665392e+02	-7.60201590e+00	2.43304969e+01
1301492285.71	-3.01284517e+00	1.57216134e+02	-5.69507560e+01	1.49065730e+02	-5.67655211e+01	1.43685767e+02	-7.61070692e+00	2.42838616e+01
1301777857.14	-3.01573830e+00	1.57199329e+02	-5.69667161e+01	1.49246239e+02	-5.68322472e+01	1.43607598e+02	-7.61077375e+00	2.41826573e+01
1302063428.57	-3.01331086e+00	1.57202647e+02	-5.69435036e+01	1.49490142e+02	-5.67771980e+01	1.42585897e+02	-7.60970496e+00	2.40924095e+01
1302349000	-3.01679982e+00	1.57163073e+02	-5.72341651e+01	1.48210799e+02	-5.69583873e+01	1.42077986e+02	-7.59608074e+00	2.39875834e+01
1302634571.43	-3.01553812e+00	1.57131934e+02	-5.70374655e+01	1.48557829e+02	-5.68023035e+01	1.41936588e+02	-7.59821603e+00	2.39690766e+01
1302920142.86	-3.02345956e+00	1.57100587e+02	-5.71837843e+01	1.47246388e+02	-5.69682710e+01	1.42222783e+02	-7.59310434e+00	2.38704809e+01
1303205714.29	-3.01771928e+00	1.57110018e+02	-5.70878414e+01	1.46930807e+02	-5.70268744e+01	1.40479466e+02	-7.58851700e+00	2.37604507e+01
1303491285.71	-3.01927544e+00	1.57063935e+02	-5.72216388e+01	1.47453195e+02	-5.69546423e+01	1.40218014e+02	-7.58516922e+00	2.36812490e+01
1303776857.14	-3.01571782e+00	1.57097891e+02	-5.72825505e+01	1.46054390e+02	-5.70905746e+01	1.40258140e+02	-7.57813179e+00	2.35460047e+01
1304062428.57	-3.01147663e+00	1.57062879e+02	-5.72886240e+01	1.45028695e+02	-5.70879697e+01	1.39729034e+02	-7.56438370e+00	2.34558519e+01
1304348000	-3.00543086e+00	1.57045714e+02	-5.74221790e+01	1.46059092e+02	-5.71015661e+01	1.38207697e+02	-7.56752878e+00	2.34686696e+01
1304633571.43	-3.00682816e+00	1.57038948e+02	-5.74123798e+01	1.44846280e+02	-5.71884447e+01	1.38903537e+02	-7.56355621e+00	2.33441090e+01
1304919142.86	-3.00934819e+00	1.57071442e+02	-5.72557852e+01	1.44379366e+02	-5.71693343e+01	1.37811938e+02	-7.55206721e+00	2.32853808e+01
1305204714.29	-3.00826664e+00	1.57041894e+02	-5.74740504e+01	1.43785406e+02	-5.72589730e+01	1.36911818e+02	-7.55077582e+00	2.32930151e+01
1305490285.71	-3.00383401e+00	1.57054550e+02	-5.75940855e+01	1.43148846e+02	-5.72879580e+01	1.36727037e+02	-7.54628989e+00	2.32027435e+01
1305775857.14	-3.00080632e+00	1.57009560e+02	-5.76798099e+01	1.42144759e+02	-5.73226249e+01	1.36358703e+02	-7.54246025e+00	2.30860619e+01
1306061428.57	-3.00621049e+00	1.57004416e+02	-5.75979001e+01	1.41811844e+02	-5.74321398e+01	1.35969311e+02	-7.53861488e+00	2.30197100e+01
1306347000	-3.00444169e+00	1.56983961e+02	-5.75496301e+01	1.41936946e+02	-5.72916646e+01	1.35661651e+02	-7.52764984e+00	2.29972954e+01
1306632571.43	-3.00625964e+00	1.56966498e+02	-5.76713233e+01	1.41225827e+02	-5.74902378e+01	1.36054568e+02	-7.51709983e+00	2.28889165e+01
1306918142.86	-3.00015035e+00	1.56980103e+02	-5.77973392e+01	1.41580172e+02	-5.75691953e+01	1.34605444e+02	-7.51562113e+00	2.28437367e+01
1307203714.29	-2.99799490e+00	1.56962726e+02	-5.78187684e+01	1.41084193e+02	-5.74889884e+01	1.34168042e+02	-7.52343412e+00	2.27776289e+01
1307489285.71	-2.99996078e+00	1.56935947e+02	-5.78704131e+01	1.40367799e+02	-5.76979725e+01	1.34608088e+02	-7.50993629e+00	2.26008841e+01
1307774857.14	-3.00226617e+00	1.56915915e+02	-5.79061618e+01	1.40125721e+02	-5.77034724e+01	1.34120123e+02	-7.50566460e+00	2.24693129e+01
1308060428.57	-2.99228078e+00	1.56868197e+02	-5.79205421e+01	1.39779538e+02	-5.76783355e+01	1.32819722e+02	-7.50494000e+00	2.23924355e+01
1308346000	-2.99922379e+00	1.56863360e+02	-5.80434632e+01	1.38828055e+02	-5.77317638e+01	1.32200826e+02	-7.49691922e+00	2.22959656e+01
1308631571.43	-2.99418889e+00	1.56870050e+02	-5.80808515e+01	1.39203073e+02	-5.78888501e+01	1.31898728e+02	-7.48906234e+00	2.21407777e+01
1308917142.86	-2.99355972e+00	1.56875983e+02	-5.81031046e+01	1.38208243e+02	-5.79290127e+01	1.31638126e+02	-7.48477013e+00	2.20391744e+01
1309202714.29	-3.00206758e+00	1.56863842e+02	-5.81463118e+01	1.38363720e+02	-5.79111722e+01	1.31059162e+02	-7.48424489e+00	2.19750981e+01
1309488285.71	-2.99485388e+00	1.56853252e+02	-5.83017003e+01	1.38400401e+02	-5.80809833e+01	1.30778031e+02	-7.47627369e+00	2.18580790e+01
1309773857.14	-2.99446455e+00	1.56840732e+02	-5.83806286e+01	1.38033745e+02	-5.81527316e+01	1.30153598e+02	-7.45916384e+00	2.17972959e+01
1310059428.57	-2.99458872e+00	1.56802894e+02	-5.82314538e+01	1.37324117e+02	-5.81164265e+01	1.29212956e+02	-7.47042964e+00	2.16646132e+01
1310345000	-2.99013677e+00	1.56771601e+02	-5.83377053e+01	1.36904589e+02	-5.81347517e+01	1.29275827e+02	-7.46262629e+00	2.15619182e+01
1310630571.43	-2.99352229e+00	1.56788289e+02	-5.84927575e+01	1.36465600e+02	-5.83184941e+01	1.29103929e+02	-7.45569637e+00	2.15114903e+01
1310916142.86	-2.99069270e+00	1.56779560e+02	-5.83962792e+01	1.36451258e+02	-5.83174526e+01	1.28871318e+02	-7.45155221e+00	2.13829271e+01
1311201714.29	-2.99472031e+00	1.56768198e+02	-5.84354485e+01	1.37074718e+02	-5.83817288e+01	1.29835982e+02	-7.44506960e+00	2.12709003e+01
1311487285.71	-2.99444993e+00	1.56742286e+02	-5.87643608e+01	1.35842703e+02	-5.85102728e+01	1.29109320e+02	-7.44708704e+00	2.11357820e+01
1311772857.14	-2.98719131e+00	1.56708928e+02	-5.87297553e+01	1.35382369e+02	-5.84605833e+01	1.29198124e+02	-7.45199939e+00	2.11399302e+01
1312058428.57	-2.98336331e+00	1.56741545e+02	-5.86930594e+01	1.35531309e+02	-5.85801428e+01	1.28187483e+02	-7.43897233e+00	2.10361798e+01
1312344000	-2.98481722e+00	1.56733644e+02	-5.88308200e+01	1.35513486e+02	-5.86216858e+01	1.27839257e+02	-7.43681575e+00	2.10103850e+01
1312629571.43	-2.98339409e+00	1.56729758e+02	-5.86618996e+01	1.35106798e+02	-5.85811623e+01	1.26957573e+02	-7.42632454e+00	2.09176424e+01
1312915142.86	-2.98036393e+00	1.56685219e+02	-5.89184972e+01	1.33030784e+02	-5.87363691e+01	1.27246604e+02	-7.42372712e+00	2.08031805e+01
1313200714.29	-2.98591238e+00	1.56661066e+02	-5.89712894e+01	1.34129001e+02	-5.87698539e+01	1.27247127e+02	-7.41581430e+00	2.07338172e+01
1313486285.71	-2.98290015e+00	1.56653797e+02	-5.89909526e+01	1.34193249e+02	-5.89015806e+01	1.26171422e+02	-7.41117706e+00	2.06323229e+01
1313771857.14	-2.98387686e+00	1.56611531e+02	-5.90734809e+01	1.33797886e+02	-5.91285713e+01	1.25572439e+02	-7.40669420e+00	2.05874051e+01
1314057428.57	-2.98314169e+00	1.56602361e+02	-5.90533643e+01	1.32861242e+02	-5.89069782e+01	1.26043883e+02	-7.41044809e+00	2.04998396e+01
1314343000	-2.98451488e+00	1.56633330e+02	-5.90121502e+01	1.32935114e+02	-5.90413594e+01	1.25669404e+02	-7.41005218e+00	2.04609115e+01
1314628571.43	-2.98120623e+00	1.56614220e+02	-5.90501598e+01	1.33824781e+02	-5.89623593e+01	1.25519006e+02	-7.39848306e+00	2.03659257e+01
1314914142.86	-2.97767324e+00	1.56606070e+02	-5.90928582e+01	1.33730715e+02	-5.91416544e+01	1.24771846e+02	-7.39669965e+00	2.02597326e+01
1315199714.29	-2.97515113e+00	1.56595439e+02	-5.90863097e+01	1.32545200e+02	-5.91821004e+01	1.25630451e+02	-7.40119968e+00	2.01590283e+01
1315485285.71	-2.97159610e+00	1.56566916e+02	-5.90702265e+01	1.33049265e+02	-5.90998157e+01	1.25103373e+02	-7.39420542e+00	2.01115449e+01
1315770857.14	-2.96853746e+00	1.56563239e+02	-5.93092802e+01	1.32611971e+02	-5.90545406e+01	1.24663367e+02	-7.40268319e+00	1.99847384e+01
1316056428.57	-2.97336277e+00	1.56559893e+02	-5.92730291e+01	1.31175501e+02	-5.91362627e+01	1.24059073e+02	-7.39557642e+00	1.99757653e+01
1316342000	-2.96797770e+00	1.56550390e+02	-5.91980892e+01	1.32037463e+02	-5.91727835e+01	1.23680283e+02	-7.38282482e+00	1.99663539e+01
1316627571.43	-2.96907280e+00	1.56544340e+02	-5.92298321e+01	1.31412932e+02	-5.92346996e+01	1.24308798e+02	-7.37623947e+00	1.97735497e+01
1316913142.86	-2.97054223e+00	1.56512189e+02	-5.93057090e+01	1.30649126e+02	-5.93561236e+01	1.23738505e+02	-7.36856406e+00	1.97187239e+01
1317198714.29	-2.97060242e+00	1.56475415e+02	-5.91972566e+01	1.29360526e+02	-5.92935637e+01	1.22427076e+02	-7.36585550e+00	1.96072512e+01
1317484285.71	-2.96654161e+00	1.56447572e+02	-5.93830793e+01	1.29136422e+02	-5.94116838e+01	1.22055943e+02	-7.35286040e+00	1.95317038e+01
1317769857.14	-2.96789606e+00	1.56451562e+02	-5.93942616e+01	1.28543956e+02	-5.94207125e+01	1.21232676e+02	-7.35540513e+00	1.93409042e+01
1318055428.57	-2.96868467e+00	1.56445878e+02	-5.94133448e+01	1.28889965e+02	-5.94765785e+01	1.19998281e+02	-7.35191747e+00	1.93028270e+01
1318341000	-2.97142983e+00	1.56431028e+02	-5.93976005e+01	1.27208934e+02	-5.95094146e+01	1.21124502e+02	-7.34259411e+00	1.92300599e+01
1318626571.43	-2.97195821e+00	1.56458143e+02	-5.96047466e+01	1.27785794e+02	-5.95569985e+01	1.20910441e+02	-7.34662199e+00	1.90985509e+01
1318912142.86	-2.96326431e+00	1.56449801e+02	-5.96306099e+01	1.28012650e+02	-5.96493146e+01	1.19408940e+02	-7.33143856e+00	1.90990946e+01
1319197714.29	-2.96169525e+00	1.56453305e+02	-5.97341803e+01	1.26406365e+02	-5.97922315e+01	1.19046081e+02	-7.33332729e+00	1.89846635e+01
1319483285.71	-2.96132369e+00	1.56402946e+02	-5.96035581e+01	1.26247502e+02	-5.96348152e+01	1.17674582e+02	-7.31630151e+00	1.89413344e+01
1319768857.14	-2.95853008e+00	1.56369795e+02	-5.97260175e+01	1.26429398e+02	-5.98973690e+01	1.18718179e+02	-7.30750899e+00	1.88503295e+01
1320054428.57	-2.95964123e+00	1.56331226e+02	-5.97012517e+01	1.25336462e+02	-5.99398872e+01	1.17827312e+02	-7.29714694e+00	1.88085656e+01
1320340000	-2.95873189e+00	1.56329892e+02	-5.97615789e+01	1.24396560e+02	-5.99192749e+01	1.18650419e+02	-7.29526142e+00	1.86123293e+01
1320625571.43	-2.95582950e+00	1.56364892e+02	-5.97935021e+01	1.23623325e+02	-5.98573663e+01	1.16951463e+02	-7.27911215e+00	1.85710028e+01
1320911142.86	-2.96019561e+00	1.56369740e+02	-5.98578402e+01	1.23316450e+02	-5.99126493e+01	1.16911407e+02	-7.27650383e+00	1.84718438e+01
1321196714.29	-2.95991126e+00	1.56385455e+02	-6.00382184e+01	1.23336602e+02	-6.00423768e+01	1.16017914e+02	-7.26200712e+00	1.85034522e+01
1321482285.71	-2.95443996e+00	1.56357798e+02	-5.98873824e+01	1.24227723e+02	-6.01497623e+01	1.16066846e+02	-7.26008567e+00	1.84352282e+01
1321767857.14	-2.95625191e+00	1.56338329e+02	-5.97849700e+01	1.21916294e+02	-6.01423982e+01	1.15258037e+02	-7.25966698e+00	1.84006613e+01
1322053428.57	-2.95684588e+00	1.56314593e+02	-6.01085331e+01	1.21828776e+02	-6.03008376e+01	1.15666291e+02	-7.24774972e+00	1.82910737e+01
1322339000	-2.96042357e+00	1.56270245e+02	-6.02632070e+01	1.23517000e+02	-6.02714177e+01	1.16034087e+02	-7.24414503e+00	1.82530724e+01
1322624571.43	-2.95605465e+00	1.56299196e+02	-6.03464270e+01	1.21796128e+02	-6.04448432e+01	1.16154460e+02	-7.24315980e+00	1.81621594e+01
1322910142.86	-2.95447978e+00	1.56288348e+02	-6.02693657e+01	1.20948397e+02	-6.06104838e+01	1.14106676e+02	-7.24443467e+00	1.81805281e+01
1323195714.29	-2.95176027e+00	1.56300536e+02	-6.03522008e+01	1.20377248e+02	-6.06602340e+01	1.14621563e+02	-7.23828293e+00	1.80573658e+01
1323481285.71	-2.95913716e+00	1.56332386e+02	-6.03114722e+01	1.21827626e+02	-6.07434688e+01	1.13478803e+02	-7.23801138e+00	1.79987236e+01
1323766857.14	-2.95898330e+00	1.56313086e+02	-6.04050993e+01	1.19373223e+02	-6.07441867e+01	1.13553741e+02	-7.22773109e+00	1.79057195e+01
1324052428.57	-2.95469383e+00	1.56273113e+02	-6.05764184e+01	1.20429479e+02	-6.08722363e+01	1.12783513e+02	-7.22491888e+00	1.78386073e+01
1324338000	-2.94908365e+00	1.56257077e+02	-6.07124332e+01	1.19023022e+02	-6.09447921e+01	1.13231908e+02	-7.21504832e+00	1.77974342e+01
1324623571.43	-2.95647853e+00	1.56224119e+02	-6.07978846e+01	1.19019331e+02	-6.09303282e+01	1.11987790e+02	-7.22375966e+00	1.76787806e+01
1324909142.86	-2.95698818e+00	1.56202577e+02	-6.07085601e+01	1.17537076e+02	-6.10193928e+01	1.12638322e+02	-7.21658008e+00	1.76383223e+01
1325194714.29	-2.95502710e+00	1.56214211e+02	-6.07461110e+01	1.18258160e+02	-6.10470217e+01	1.12198722e+02	-7.20854543e+00	1.74848580e+01
1325480285.71	-2.95380389e+00	1.56169541e+02	-6.10614235e+01	1.17348114e+02	-6.10120213e+01	1.12077557e+02	-7.20195007e+00	1.73172733e+01
1325765857.14	-2.95125455e+00	1.56199941e+02	-6.08371597e+01	1.17225218e+02	-6.11932079e+01	1.10683067e+02	-7.19161237e+00	1.71951998e+01
1326051428.57	-2.94980318e+00	1.56206593e+02	-6.08583952e+01	1.16112315e+02	-6.12126950e+01	1.10377475e+02	-7.18126310e+00	1.71104211e+01
1326337000	-2.95146629e+00	1.56196468e+02	-6.09808737e+01	1.16387297e+02	-6.13602104e+01	1.11189888e+02	-7.17987471e+00	1.70582811e+01
1326622571.43	-2.95432284e+00	1.56163966e+02	-6.10119314e+01	1.17220503e+02	-6.15008240e+01	1.10072644e+02	-7.16289798e+00	1.68873879e+01
1326908142.86	-2.94983778e+00	1.56150203e+02	-6.13060260e+01	1.15773885e+02	-6.14575287e+01	1.09960744e+02	-7.16941933e+00	1.68371896e+01
1327193714.29	-2.94907115e+00	1.56137799e+02	-6.12491413e+01	1.15400295e+02	-6.13552336e+01	1.09678123e+02	-7.17002210e+00	1.66474017e+01
1327479285.71	-2.94973369e+00	1.56189765e+02	-6.15074630e+01	1.14864884e+02	-6.16751367e+01	1.09270664e+02	-7.14517507e+00	1.65591363e+01
1327764857.14	-2.94961282e+00	1.56170652e+02	-6.13657006e+01	1.14286023e+02	-6.15824894e+01	1.08217655e+02	-7.15124339e+00	1.64772002e+01
1328050428.57	-2.95346740e+00	1.56150535e+02	-6.12428802e+01	1.14720880e+02	-6.16256636e+01	1.07869982e+02	-7.13584881e+00	1.63619626e+01
1328336000	-2.94958409e+00	1.56135498e+02	-6.16095811e+01	1.13219995e+02	-6.16358158e+01	1.07940064e+02	-7.12298393e+00	1.62942861e+01
1328621571.43	-2.94592588e+00	1.56138085e+02	-6.17434453e+01	1.12765202e+02	-6.19253795e+01	1.08277104e+02	-7.12211684e+00	1.61651292e+01
1328907142.86	-2.94107436e+00	1.56164234e+02	-6.17429219e+01	1.12838092e+02	-6.19530516e+01	1.07689738e+02	-7.11159986e+00	1.61076093e+01
1329192714.29	-2.94669363e+00	1.56160635e+02	-6.19977282e+01	1.12200341e+02	-6.20732612e+01	1.06440693e+02	-7.09864587e+00	1.59860239e+01
1329478285.71	-2.95055225e+00	1.56172383e+02	-6.20480888e+01	1.09879696e+02	-6.23173783e+01	1.05840400e+02	-7.08987753e+00	1.58958748e+01
1329763857.14	-2.94599422e+00	1.56144301e+02	-6.22500351e+01	1.11494286e+02	-6.24704763e+01	1.06370778e+02	-7.08297615e+00	1.58116515e+01
1330049428.57	-2.94538221e+00	1.56118801e+02	-6.22678840e+01	1.10997556e+02	-6.24925591e+01	1.06762820e+02	-7.08331428e+00	1.57001511e+01
1330335000	-2.94249528e+00	1.56066417e+02	-6.22920301e+01	1.11145956e+02	-6.25977597e+01	1.04999749e+02	-7.05617639e+00	1.55803400e+01
1330620571.43	-2.94778677e+00	1.56082999e+02	-6.24400673e+01	1.10258255e+02	-6.29356975e+01	1.05817560e+02	-7.04487347e+00	1.54713467e+01
1330906142.86	-2.94803444e+00	1.56103561e+02	-6.24740014e+01	1.08503140e+02	-6.28411590e+01	1.04390995e+02	-7.04729447e+00	1.53572265e+01
1331191714.29	-2.95259694e+00	1.56040493e+02	-6.28769898e+01	1.10683126e+02	-6.30965726e+01	1.04360456e+02	-7.03592481e+00	1.52972346e+01
1331477285.71	-2.95084100e+00	1.56032228e+02	-6.26469675e+01	1.08704185e+02	-6.30558101e+01	1.04267266e+02	-7.04184013e+00	1.52249162e+01
1331762857.14	-2.95217629e+00	1.56078640e+02	-6.29762482e+01	1.10657456e+02	-6.34379039e+01	1.03953291e+02	-7.02775240e+00	1.51467437e+01
1332048428.57	-2.94961179e+00	1.56050968e+02	-6.31079382e+01	1.09394111e+02	-6.33563614e+01	1.04403313e+02	-7.02610422e+00	1.50296355e+01
1332334000	-2.94695784e+00	1.56057550e+02	-6.32368706e+01	1.09119035e+02	-6.36214650e+01	1.04451846e+02	-7.01881091e+00	1.49212969e+01
1332619571.43	-2.94566813e+00	1.56047862e+02	-6.35112291e+01	1.10283112e+02	-6.35232145e+01	1.04198037e+02	-6.99961148e+00	1.48359419e+01
1332905142.86	-2.94684835e+00	1.55996021e+02	-6.34022473e+01	1.08887900e+02	-6.37943220e+01	1.04098247e+02	-6.98806117e+00	1.47339837e+01
1333190714.29	-2.94166628e+00	1.55982974e+02	-6.37545398e+01	1.08599075e+02	-6.39870123e+01	1.03854257e+02	-6.98614575e+00	1.46694510e+01
1333476285.71	-2.94360175e+00	1.55972416e+02	-6.39562350e+01	1.08059129e+02	-6.38294344e+01	1.04720075e+02	-6.96854257e+00	1.45202748e+01
1333761857.14	-2.94602911e+00	1.55982282e+02	-6.39403645e+01	1.10530932e+02	-6.43684999e+01	1.04509229e+02	-6.96961493e+00	1.44541957e+01
1334047428.57	-2.94588425e+00	1.55974386e+02	-6.39408966e+01	1.10496296e+02	-6.40493060e+01	1.05537963e+02	-6.95491598e+00	1.43829578e+01
1334333000	-2.94155702e+00	1.55972087e+02	-6.41072279e+01	1.09084869e+02	-6.47893370e+01	1.04837995e+02	-6.94880080e+00	1.42660321e+01
1334618571.43	-2.94199401e+00	1.55954610e+02	-6.44553215e+01	1.09126387e+02	-6.46321464e+01	1.06060571e+02	-6.94373262e+00	1.41260303e+01
1334904142.86	-2.94711091e+00	1.55917959e+02	-6.45316756e+01	1.08501391e+02	-6.47528849e+01	1.05315728e+02	-6.92348375e+00	1.40208456e+01
1335189714.29	-2.95304719e+00	1.55930574e+02	-6.47955927e+01	1.10766049e+02	-6.47080835e+01	1.05726657e+02	-6.92561190e+00	1.39942161e+01
1335475285.71	-2.94642416e+00	1.55889494e+02	-6.45974842e+01	1.11353996e+02	-6.50535785e+01	1.07043421e+02	-6.91611237e+00	1.39147605e+01
1335760857.14	-2.94697240e+00	1.55913096e+02	-6.50229006e+01	1.11266316e+02	-6.49872088e+01	1.06270675e+02	-6.90654826e+00	1.38544237e+01
1336046428.57	-2.94286025e+00	1.55915492e+02	-6.49694209e+01	1.11463806e+02	-6.48606018e+01	1.08333715e+02	-6.88528980e+00	1.38004127e+01
1336332000	-2.95046726e+00	1.55895445e+02	-6.48545947e+01	1.11079560e+02	-6.54053272e+01	1.06716167e+02	-6.88534152e+00	1.36306103e+01
1336617571.43	-2.95460884e+00	1.55892329e+02	-6.49505392e+01	1.11726298e+02	-6.52703245e+01	1.07883804e+02	-6.87629330e+00	1.35145352e+01
1336903142.86	-2.95516835e+00	1.55894484e+02	-6.55995504e+01	1.12167913e+02	-6.54982007e+01	1.09020371e+02	-6.87613966e+00	1.34291344e+01
1337188714.29	-2.95115531e+00	1.55905873e+02	-6.52957036e+01	1.14537776e+02	-6.52647820e+01	1.08906036e+02	-6.87135402e+00	1.32289251e+01
1337474285.71	-2.95056985e+00	1.55887218e+02	-6.57169639e+01	1.16002117e+02	-6.55013774e+01	1.09167167e+02	-6.86421317e+00	1.31782197e+01
1337759857.14	-2.94599131e+00	1.55869445e+02	-6.55402047e+01	1.13988215e+02	-6.55251104e+01	1.11812032e+02	-6.86394825e+00	1.30569480e+01
1338045428.57	-2.95090330e+00	1.55824609e+02	-6.55315556e+01	1.16019197e+02	-6.55896494e+01	1.10946519e+02	-6.84867640e+00	1.29841288e+01
1338331000	-2.94654496e+00	1.55782295e+02	-6.55228752e+01	1.15662095e+02	-6.56009721e+01	1.11017894e+02	-6.84324360e+00	1.28617958e+01
1338616571.43	-2.95319353e+00	1.55767940e+02	-6.55154504e+01	1.15457234e+02	-6.56999594e+01	1.11926596e+02	-6.83042367e+00	1.27071534e+01
1338902142.86	-2.95837006e+00	1.55738020e+02	-6.59148174e+01	1.20017110e+02	-6.60089293e+01	1.12324083e+02	-6.82694160e+00	1.25687243e+01
1339187714.29	-2.95677078e+00	1.55686946e+02	-6.56318152e+01	1.18448982e+02	-6.57485105e+01	1.12487428e+02	-6.81639373e+00	1.24607240e+01
1339473285.71	-2.95750269e+00	1.55702094e+02	-6.57772710e+01	1.19806273e+02	-6.60312816e+01	1.13679938e+02	-6.79752695e+00	1.23203401e+01
1339758857.14	-2.95258386e+00	1.55695657e+02	-6.59988452e+01	1.19630938e+02	-6.59583439e+01	1.14643631e+02	-6.78221562e+00	1.22884350e+01
1340044428.57	-2.95438132e+00	1.55701131e+02	-6.59473962e+01	1.19054205e+02	-6.59338783e+01	1.14556283e+02	-6.77029303e+00	1.21725775e+01
1340330000	-2.95367452e+00	1.55633473e+02	-6.58171738e+01	1.17981524e+02	-6.60009679e+01	1.16948356e+02	-6.77083031e+00	1.20740803e+01
1340615571.43	-2.95172031e+00	1.55668115e+02	-6.58352495e+01	1.21381968e+02	-6.59932647e+01	1.15147425e+02	-6.76528779e+00	1.19659573e+01
1340901142.86	-2.95569966e+00	1.55633856e+02	-6.59004589e+01	1.21589580e+02	-6.58161250e+01	1.16675072e+02	-6.75006273e+00	1.18572091e+01
1341186714.29	-2.95538559e+00	1.55630253e+02	-6.60196493e+01	1.23032851e+02	-6.59324147e+01	1.15886134e+02	-6.74284096e+00	1.17358032e+01
1341472285.71	-2.95337729e+00	1.55633780e+02	-6.61794189e+01	1.24374717e+02	-6.60004068e+01	1.17144897e+02	-6.74287628e+00	1.16304446e+01
1341757857.14	-2.95580278e+00	1.55634587e+02	-6.61247118e+01	1.24994070e+02	-6.59685349e+01	1.18828242e+02	-6.73678514e+00	1.15882210e+01
1342043428.57	-2.95608103e+00	1.55626367e+02	-6.63860877e+01	1.25042362e+02	-6.60349366e+01	1.15091694e+02	-6.72541858e+00	1.15577189e+01
1342329000	-2.95242948e+00	1.55587631e+02	-6.62301385e+01	1.23900913e+02	-6.58291103e+01	1.17949775e+02	-6.71217862e+00	1.14145473e+01
1342614571.43	-2.95218047e+00	1.55528793e+02	-6.57168428e+01	1.24086888e+02	-6.58772203e+01	1.17874931e+02	-6.71446140e+00	1.13123215e+01
1342900142.86	-2.95177577e+00	1.55489924e+02	-6.62487969e+01	1.24756754e+02	-6.61326266e+01	1.17037825e+02	-6.71133370e+00	1.12354480e+01
1343185714.29	-2.94932251e+00	1.55457970e+02	-6.61295042e+01	1.24899358e+02	-6.60159253e+01	1.18754598e+02	-6.69765257e+00	1.12098253e+01
1343471285.71	-2.95023367e+00	1.55444967e+02	-6.60517370e+01	1.28177004e+02	-6.60248735e+01	1.17523852e+02	-6.68349244e+00	1.11915323e+01
1343756857.14	-2.95079844e+00	1.55455329e+02	-6.58017572e+01	1.27704111e+02	-6.59441518e+01	1.17308438e+02	-6.68606463e+00	1.11349339e+01
1344042428.57	-2.95642196e+00	1.55430578e+02	-6.56809819e+01	1.27997991e+02	-6.57832290e+01	1.16401574e+02	-6.67748811e+00	1.10299311e+01
1344328000	-2.95112469e+00	1.55377520e+02	-6.57038925e+01	1.27828340e+02	-6.60972312e+01	1.19131209e+02	-6.67917759e+00	1.09862726e+01
1344613571.43	-2.94128464e+00	1.55357292e+02	-6.58898971e+01	1.27557082e+02	-6.60829222e+01	1.18963423e+02	-6.66979709e+00	1.10031191e+01
1344899142.86	-2.94163292e+00	1.55322779e+02	-6.58603405e+01	1.26092459e+02	-6.61133084e+01	1.20178378e+02	-6.66868169e+00	1.09122454e+01
1345184714.29	-2.94472172e+00	1.55296666e+02	-6.56252933e+01	1.27827470e+02	-6.60367693e+01	1.19543495e+02	-6.67282848e+00	1.08955445e+01
1345470285.71	-2.94796355e+00	1.55260557e+02	-6.58932552e+01	1.29195310e+02	-6.63993358e+01	1.19251729e+02	-6.65985346e+00	1.08074760e+01
1345755857.14	-2.94861724e+00	1.55285379e+02	-6.57428382e+01	1.28357213e+02	-6.58284519e+01	1.17045653e+02	-6.66050754e+00	1.06915117e+01
1346041428.57	-2.94712493e+00	1.55283221e+02	-6.56142987e+01	1.30298606e+02	-6.60354198e+01	1.20491716e+02	-6.66127062e+00	1.05598322e+01
1346327000	-2.95458313e+00	1.55295139e+02	-6.51388507e+01	1.29796654e+02	-6.61730669e+01	1.19014551e+02	-6.65425139e+00	1.05144159e+01
1346612571.43	-2.94806963e+00	1.55272297e+02	-6.56168686e+01	1.28346311e+02	-6.59610627e+01	1.19235832e+02	-6.65823927e+00	1.04162681e+01
1346898142.86	-2.94974144e+00	1.55285890e+02	-6.57063703e+01	1.29829151e+02	-6.58186894e+01	1.20305428e+02	-6.65725352e+00	1.03364409e+01
1347183714.29	-2.95095768e+00	1.55241263e+02	-6.59517707e+01	1.29666346e+02	-6.62724483e+01	1.18035422e+02	-6.66067479e+00	1.03265231e+01
1347469285.71	-2.95697688e+00	1.55186753e+02	-6.56664575e+01	1.29184791e+02	-6.61146695e+01	1.20980551e+02	-6.65685681e+00	1.02292353e+01
1347754857.14	-2.94992773e+00	1.55175980e+02	-6.55424355e+01	1.27992151e+02	-6.62205798e+01	1.21600572e+02	-6.65055821e+00	1.01208611e+01
1348040428.57	-2.94870333e+00	1.55156328e+02	-6.53855773e+01	1.31152770e+02	-6.58407681e+01	1.21012950e+02	-6.64452992e+00	1.00572330e+01
1348326000	-2.95050484e+00	1.55121174e+02	-6.55834413e+01	1.30270855e+02	-6.59475780e+01	1.21047347e+02	-6.64270234e+00	1.00571459e+01
1348611571.43	-2.94989581e+00	1.55068710e+02	-6.52446589e+01	1.32238305e+02	-6.62290137e+01	1.19620203e+02	-6.64579084e+00	9.96332134e+00
1348897142.86	-2.95245819e+00	1.55073221e+02	-6.53752251e+01	1.28799068e+02	-6.61825563e+01	1.21257161e+02	-6.64004614e+00	9.89195720e+00
1349182714.29	-2.94997119e+00	1.55059381e+02	-6.54672813e+01	1.28882159e+02	-6.61712204e+01	1.21155364e+02	-6.62306437e+00	9.80737430e+00
1349468285.71	-2.95148055e+00	1.55067960e+02	-6.53006317e+01	1.29804706e+02	-6.61779716e+01	1.20623871e+02	-6.62865820e+00	9.75982523e+00
1349753857.14	-2.94872730e+00	1.55050676e+02	-6.53978454e+01	1.30665952e+02	-6.62377842e+01	1.22402592e+02	-6.61534291e+00	9.61615034e+00
1350039428.57	-2.95057273e+00	1.55040181e+02	-6.54674533e+01	1.30795721e+02	-6.61599247e+01	1.23784463e+02	-6.61041501e+00	9.54711921e+00
1350325000	-2.95464530e+00	1.55006088e+02	-6.55969779e+01	1.33117424e+02	-6.62603785e+01	1.23865670e+02	-6.60646104e+00	9.53337644e+00
1350610571.43	-2.95115528e+00	1.55012687e+02	-6.56864979e+01	1.31720074e+02	-6.62929180e+01	1.23467967e+02	-6.59061183e+00	9.45637160e+00
1350896142.86	-2.94882702e+00	1.54995178e+02	-6.53446060e+01	1.33214314e+02	-6.65070338e+01	1.25114521e+02	-6.59825354e+00	9.36597402e+00
1351181714.29	-2.94477460e+00	1.54958003e+02	-6.57404394e+01	1.30801322e+02	-6.66993954e+01	1.26167943e+02	-6.59385018e+00	9.31918106e+00
1351467285.71	-2.94007504e+00	1.54945533e+02	-6.55557996e+01	1.30285349e+02	-6.62258214e+01	1.24660340e+02	-6.59968415e+00	9.21563237e+00
1351752857.14	-2.94230065e+00	1.54938031e+02	-6.55076139e+01	1.31046911e+02	-6.64144962e+01	1.25423859e+02	-6.58535284e+00	9.18445350e+00
1352038428.57	-2.94209582e+00	1.54888472e+02	-6.56546315e+01	1.36774518e+02	-6.63449273e+01	1.23763160e+02	-6.59045957e+00	9.07639100e+00
1352324000	-2.93830628e+00	1.54884531e+02	-6.56445812e+01	1.35361592e+02	-6.64672949e+01	1.25688381e+02	-6.57695105e+00	9.01972018e+00
1352609571.43	-2.94255299e+00	1.54846280e+02	-6.56696722e+01	1.34816725e+02	-6.62015586e+01	1.26053871e+02	-6.56728132e+00	8.97119504e+00
1352895142.86	-2.94510404e+00	1.54844865e+02	-6.54540759e+01	1.34668690e+02	-6.62897878e+01	1.27729472e+02	-6.56982216e+00	8.94405537e+00
1353180714.29	-2.94362015e+00	1.54798168e+02	-6.52954232e+01	1.33849128e+02	-6.65451858e+01	1.29771631e+02	-6.56717858e+00	8.84035113e+00
1353466285.71	-2.94005472e+00	1.54758409e+02	-6.56166935e+01	1.36767785e+02	-6.63633180e+01	1.27581153e+02	-6.56475089e+00	8.79585416e+00
1353751857.14	-2.94010569e+00	1.54741597e+02	-6.50291954e+01	1.36749872e+02	-6.62380834e+01	1.31146925e+02	-6.55861036e+00	8.70045429e+00
1354037428.57	-2.94270408e+00	1.54701066e+02	-6.53434639e+01	1.39007697e+02	-6.60939668e+01	1.26728964e+02	-6.56000852e+00	8.57254487e+00
1354323000	-2.94040047e+00	1.54677628e+02	-6.51237083e+01	1.37480196e+02	-6.64155754e+01	1.29886535e+02	-6.54689052e+00	8.48194248e+00
1354608571.43	-2.94317649e+00	1.54646302e+02	-6.48301183e+01	1.35981424e+02	-6.58062572e+01	1.33574316e+02	-6.54410841e+00	8.37115764e+00
1354894142.86	-2.94165651e+00	1.54621575e+02	-6.48101076e+01	1.35228219e+02	-6.62427736e+01	1.28154918e+02	-6.54673356e+00	8.27345796e+00
1355179714.29	-2.93668565e+00	1.54663293e+02	-6.47151981e+01	1.39674047e+02	-6.58931232e+01	1.33862992e+02	-6.55036480e+00	8.13658451e+00
1355465285.71	-2.93870056e+00	1.54624997e+02	-6.48873609e+01	1.39378624e+02	-6.60291282e+01	1.29979985e+02	-6.55105913e+00	8.15138461e+00
1355750857.14	-2.94092157e+00	1.54605072e+02	-6.43897673e+01	1.37541521e+02	-6.57945607e+01	1.30658605e+02	-6.53801305e+00	8.02729934e+00
1356036428.57	-2.93797920e+00	1.54548071e+02	-6.46318459e+01	1.38242458e+02	-6.56811006e+01	1.31093055e+02	-6.54812242e+00	7.93557507e+00
1356322000	-2.94070883e+00	1.54521708e+02	-6.42173443e+01	1.38313071e+02	-6.54232767e+01	1.31412606e+02	-6.53573335e+00	7.82077802e+00
1356607571.43	-2.93924380e+00	1.54528786e+02	-6.40611371e+01	1.38557047e+02	-6.53174253e+01	1.34323293e+02	-6.53194404e+00	7.78695676e+00
1356893142.86	-2.93495297e+00	1.54490168e+02	-6.42001928e+01	1.37665817e+02	-6.54338599e+01	1.33351602e+02	-6.52818680e+00	7.76527468e+00
1357178714.29	-2.93277289e+00	1.54503497e+02	-6.42938363e+01	1.38113179e+02	-6.52050736e+01	1.32644052e+02	-6.51718040e+00	7.70593078e+00
1357464285.71	-2.92967507e+00	1.54468099e+02	-6.39363799e+01	1.39777210e+02	-6.50171834e+01	1.34160486e+02	-6.51357577e+00	7.60947859e+00
1357749857.14	-2.92579104e+00	1.54429266e+02	-6.41632912e+01	1.38412382e+02	-6.50983845e+01	1.33628933e+02	-6.51747162e+00	7.47937330e+00
1358035428.57	-2.92782768e+00	1.54383983e+02	-6.37934468e+01	1.38273886e+02	-6.48141236e+01	1.33101204e+02	-6.50790896e+00	7.34116456e+00
1358321000	-2.93253679e+00	1.54368255e+02	-6.38876212e+01	1.38896141e+02	-6.46365522e+01	1.34603708e+02	-6.50626428e+00	7.34082748e+00
1358606571.43	-2.92691716e+00	1.54341145e+02	-6.37227574e+01	1.36947412e+02	-6.50731067e+01	1.34689218e+02	-6.50924631e+00	7.26575406e+00
1358892142.86	-2.92130816e+00	1.54333021e+02	-6.34701436e+01	1.37625676e+02	-6.45940882e+01	1.32644434e+02	-6.49801744e+00	7.13772267e+00
1359177714.29	-2.92110498e+00	1.54337264e+02	-6.34816221e+01	1.37169554e+02	-6.44605054e+01	1.32593807e+02	-6.48934497e+00	7.05645206e+00
1359463285.71	-2.92231022e+00	1.54322399e+02	-6.33872241e+01	1.37500600e+02	-6.45589262e+01	1.30430008e+02	-6.49105975e+00	6.95740871e+00
1359748857.14	-2.92487643e+00	1.54269767e+02	-6.33131551e+01	1.36853564e+02	-6.46655433e+01	1.33822144e+02	-6.49016239e+00	6.86238768e+00
1360034428.57	-2.92273797e+00	1.54257430e+02	-6.32997683e+01	1.36542449e+02	-6.41319047e+01	1.33871427e+02	-6.48391063e+00	6.79220310e+00
1360320000	-2.91935037e+00	1.54232341e+02	-6.28158583e+01	1.34946285e+02	-6.42415952e+01	1.31948265e+02	-6.47586011e+00	6.70432245e+00
1360605571.43	-2.92279010e+00	1.54238178e+02	-6.30357822e+01	1.35526989e+02	-6.43146514e+01	1.31131827e+02	-6.46994359e+00	6.65555558e+00
1360891142.86	-2.91919223e+00	1.54206863e+02	-6.26640329e+01	1.34677381e+02	-6.41043815e+01	1.30852413e+02	-6.46682114e+00	6.59221039e+00
1361176714.29	-2.91711590e+00	1.54191438e+02	-6.28270995e+01	1.33726501e+02	-6.37970753e+01	1.31725784e+02	-6.47155060e+00	6.44191459e+00
1361462285.71	-2.91914290e+00	1.54175391e+02	-6.27532216e+01	1.33635982e+02	-6.37211246e+01	1.29316569e+02	-6.47105561e+00	6.33274730e+00
1361747857.14	-2.91800618e+00	1.54152537e+02	-6.29568762e+01	1.33163091e+02	-6.36790143e+01	1.29935097e+02	-6.46248859e+00	6.21803102e+00
1362033428.57	-2.91930506e+00	1.54174099e+02	-6.28841147e+01	1.33419570e+02	-6.37998282e+01	1.31320386e+02	-6.46293670e+00	6.16308701e+00
1362319000	-2.92073218e+00	1.54121664e+02	-6.25106325e+01	1.34418635e+02	-6.38464304e+01	1.29977115e+02	-6.46900115e+00	5.98440708e+00
1362604571.43	-2.92092738e+00	1.54127031e+02	-6.25432042e+01	1.33401713e+02	-6.38119866e+01	1.30249649e+02	-6.47164149e+00	5.93450119e+00
1362890142.86	-2.91513547e+00	1.54094324e+02	-6.24599792e+01	1.32767589e+02	-6.34496037e+01	1.28547469e+02	-6.44848356e+00	5.85005508e+00
1363175714.29	-2.91379965e+00	1.54097407e+02	-6.27626642e+01	1.31623270e+02	-6.33638589e+01	1.28917853e+02	-6.45283432e+00	5.79427663e+00
1363461285.71	-2.91834152e+00	1.54084474e+02	-6.24628553e+01	1.31307728e+02	-6.36528243e+01	1.27894642e+02	-6.45650447e+00	5.72303688e+00
1363746857.14	-2.91366142e+00	1.54042335e+02	-6.23677616e+01	1.32765546e+02	-6.34474590e+01	1.28295144e+02	-6.45283663e+00	5.63305493e+00
1364032428.57	-2.91187295e+00	1.54030156e+02	-6.23246365e+01	1.31004363e+02	-6.34081681e+01	1.28805187e+02	-6.44386350e+00	5.58336533e+00
1364318000	-2.91596549e+00	1.54031233e+02	-6.22249572e+01	1.30863647e+02	-6.33326024e+01	1.28769606e+02	-6.44782484e+00	5.49698417e+00
1364603571.43	-2.91536776e+00	1.54040244e+02	-6.22074179e+01	1.29377303e+02	-6.31259816e+01	1.27307141e+02	-6.44772842e+00	5.35011194e+00
1364889142.86	-2.91585404e+00	1.54023127e+02	-6.22358100e+01	1.28274310e+02	-6.33597357e+01	1.27708325e+02	-6.45813417e+00	5.17847668e+00
1365174714.29	-2.91601904e+00	1.53981903e+02	-6.22447264e+01	1.29788608e+02	-6.30391556e+01	1.26627998e+02	-6.45586353e+00	5.12194498e+00
1365460285.71	-2.91472165e+00	1.53953039e+02	-6.22927357e+01	1.28765432e+02	-6.32188769e+01	1.26636658e+02	-6.44544667e+00	5.04663116e+00
1365745857.14	-2.91660099e+00	1.53921367e+02	-6.19451075e+01	1.26180240e+02	-6.31278696e+01	1.24842778e+02	-6.44455723e+00	4.94212077e+00
1366031428.57	-2.90968820e+00	1.53931151e+02	-6.23030524e+01	1.27272230e+02	-6.31836101e+01	1.23935121e+02	-6.43413673e+00	4.86650000e+00
1366317000	-2.90768068e+00	1.53922079e+02	-6.19194423e+01	1.27525536e+02	-6.30425483e+01	1.24397940e+02	-6.44085092e+00	4.74784436e+00
1366602571.43	-2.90904906e+00	1.53925508e+02	-6.19370076e+01	1.25756836e+02	-6.27202123e+01	1.24438293e+02	-6.44331795e+00	4.61824840e+00
1366888142.86	-2.90570978e+00	1.53906025e+02	-6.17709619e+01	1.26054297e+02	-6.28182842e+01	1.23834682e+02	-6.45321230e+00	4.47985798e+00
1367173714.29	-2.90750478e+00	1.53869293e+02	-6.19789897e+01	1.23815376e+02	-6.27430814e+01	1.22924679e+02	-6.44844684e+00	4.40170735e+00
1367459285.71	-2.91057960e+00	1.53859678e+02	-6.17806493e+01	1.25770941e+02	-6.26355668e+01	1.23520816e+02	-6.44565389e+00	4.28305155e+00
1367744857.14	-2.90779955e+00	1.53828074e+02	-6.15685506e+01	1.24539414e+02	-6.25885133e+01	1.23022499e+02	-6.45295566e+00	4.17081795e+00
1368030428.57	-2.91145807e+00	1.53823417e+02	-6.17686141e+01	1.22922073e+02	-6.27429423e+01	1.21474781e+02	-6.45345350e+00	4.17762436e+00
1368316000	-2.91246227e+00	1.53806846e+02	-6.17952260e+01	1.22972415e+02	-6.28513963e+01	1.20613372e+02	-6.45914902e+00	4.09883221e+00
1368601571.43	-2.91053707e+00	1.53771302e+02	-6.17397510e+01	1.23714995e+02	-6.26884867e+01	1.20363210e+02	-6.46732396e+00	4.03506446e+00
1368887142.86	-2.91112539e+00	1.53734710e+02	-6.16295298e+01	1.21493301e+02	-6.27330828e+01	1.19604767e+02	-6.46858244e+00	3.93225678e+00
1369172714.29	-2.90960167e+00	1.53738443e+02	-6.14664371e+01	1.22165085e+02	-6.26736252e+01	1.19460224e+02	-6.45492777e+00	3.89458394e+00
1369458285.71	-2.90716200e+00	1.53733391e+02	-6.16181485e+01	1.22708858e+02	-6.25701797e+01	1.19769375e+02	-6.45929428e+00	3.80736347e+00
1369743857.14	-2.90768455e+00	1.53702431e+02	-6.18198532e+01	1.19513618e+02	-6.26177576e+01	1.20010415e+02	-6.45717917e+00	3.72455782e+00
1370029428.57	-2.90349261e+00	1.53691383e+02	-6.17036656e+01	1.20670372e+02	-6.24494472e+01	1.19625897e+02	-6.46567960e+00	3.57773911e+00
1370315000	-2.90184953e+00	1.53730069e+02	-6.16256713e+01	1.18207566e+02	-6.26980390e+01	1.18697863e+02	-6.46913640e+00	3.54061773e+00
1370600571.43	-2.89879240e+00	1.53732416e+02	-6.18162047e+01	1.20188598e+02	-6.25259505e+01	1.17642835e+02	-6.45771322e+00	3.48648458e+00
1370886142.86	-2.89939708e+00	1.53695693e+02	-6.16663646e+01	1.19584207e+02	-6.24835428e+01	1.16513815e+02	-6.47057542e+00	3.35469139e+00
1371171714.29	-2.89912814e+00	1.53661160e+02	-6.17551497e+01	1.18410125e+02	-6.25492459e+01	1.19401116e+02	-6.46485854e+00	3.32226978e+00
1371457285.71	-2.89506706e+00	1.53627013e+02	-6.16655842e+01	1.19042727e+02	-6.26464761e+01	1.16059226e+02	-6.46315440e+00	3.28022567e+00
1371742857.14	-2.89127488e+00	1.53625060e+02	-6.14929301e+01	1.17828408e+02	-6.25579454e+01	1.14975836e+02	-6.48079832e+00	3.11442772e+00
1372028428.57	-2.89255370e+00	1.53602930e+02	-6.17598589e+01	1.16665853e+02	-6.26860150e+01	1.15527988e+02	-6.48237431e+00	3.09498175e+00
1372314000	-2.88907160e+00	1.53616669e+02	-6.16856435e+01	1.16866331e+02	-6.27389500e+01	1.15835219e+02	-6.48766175e+00	2.96681183e+00
1372599571.43	-2.88629048e+00	1.53603529e+02	-6.17353691e+01	1.17923120e+02	-6.24647841e+01	1.15482449e+02	-6.47890131e+00	2.95153670e+00
1372885142.86	-2.89401011e+00	1.53619018e+02	-6.17393881e+01	1.15594779e+02	-6.26082547e+01	1.14532738e+02	-6.49727608e+00	2.89473580e+00
1373170714.29	-2.89417705e+00	1.53606870e+02	-6.17049129e+01	1.14649756e+02	-6.24817978e+01	1.14805614e+02	-6.50763403e+00	2.86063174e+00
1373456285.71	-2.88958474e+00	1.53577355e+02	-6.15358660e+01	1.15160786e+02	-6.26343453e+01	1.14254132e+02	-6.50451396e+00	2.76984661e+00
1373741857.14	-2.89060826e+00	1.53543493e+02	-6.18854227e+01	1.13859721e+02	-6.25408885e+01	1.13456214e+02	-6.49601554e+00	2.59235048e+00
1374027428.57	-2.88911492e+00	1.53534307e+02	-6.15553915e+01	1.13950391e+02	-6.26549075e+01	1.12810112e+02	-6.49578320e+00	2.53189750e+00
1374313000	-2.88707566e+00	1.53528151e+02	-6.15497724e+01	1.14426062e+02	-6.26798096e+01	1.14137934e+02	-6.50222243e+00	2.57357772e+00
1374598571.43	-2.88825193e+00	1.53515029e+02	-6.15926037e+01	1.13731173e+02	-6.24075463e+01	1.12441906e+02	-6.49891809e+00	2.47391553e+00
1374884142.86	-2.89262587e+00	1.53454566e+02	-6.14545365e+01	1.12767155e+02	-6.27591342e+01	1.10971449e+02	-6.50376507e+00	2.42744379e+00
1375169714.29	-2.89156441e+00	1.53440784e+02	-6.16025805e+01	1.13496888e+02	-6.25428646e+01	1.12074832e+02	-6.48839043e+00	2.40559526e+00
1375455285.71	-2.89220687e+00	1.53429635e+02	-6.16414747e+01	1.11748577e+02	-6.23742603e+01	1.10961182e+02	-6.49438589e+00	2.29035930e+00
1375740857.14	-2.88885371e+00	1.53416155e+02	-6.17783343e+01	1.09144656e+02	-6.26635695e+01	1.10151913e+02	-6.49115720e+00	2.23122945e+00
1376026428.57	-2.88864705e+00	1.53408488e+02	-6.17283426e+01	1.11974636e+02	-6.23567153e+01	1.11539278e+02	-6.48855199e+00	2.12588657e+00
1376312000	-2.88833730e+00	1.53419008e+02	-6.18240481e+01	1.09597932e+02	-6.24355694e+01	1.11627923e+02	-6.48996992e+00	2.09903464e+00
1376597571.43	-2.88434125e+00	1.53410472e+02	-6.17203692e+01	1.09932256e+02	-6.24092047e+01	1.11659716e+02	-6.49015602e+00	1.95840822e+00
1376883142.86	-2.88592396e+00	1.53406033e+02	-6.16108003e+01	1.10129524e+02	-6.26676930e+01	1.10276700e+02	-6.49456476e+00	1.96473373e+00
1377168714.29	-2.88226212e+00	1.53418850e+02	-6.13854740e+01	1.08626868e+02	-6.23441136e+01	1.09012433e+02	-6.49393133e+00	1.85657167e+00
1377454285.71	-2.88373584e+00	1.53413335e+02	-6.15965779e+01	1.08680257e+02	-6.25298244e+01	1.09084303e+02	-6.48048270e+00	1.85037161e+00
1377739857.14	-2.88451963e+00	1.53402056e+02	-6.16332685e+01	1.09795385e+02	-6.27467372e+01	1.06563937e+02	-6.49697297e+00	1.76045295e+00
1378025428.57	-2.88145206e+00	1.53362732e+02	-6.15697414e+01	1.07263051e+02	-6.25960506e+01	1.07800173e+02	-6.49418821e+00	1.85627713e+00
1378311000	-2.88014262e+00	1.53369272e+02	-6.15499500e+01	1.06811237e+02	-6.25138826e+01	1.05978284e+02	-6.49697219e+00	1.75772074e+00
1378596571.43	-2.88586119e+00	1.53342279e+02	-6.16824802e+01	1.06174577e+02	-6.26366299e+01	1.07545158e+02	-6.50141334e+00	1.70339173e+00
1378882142.86	-2.88248964e+00	1.53312127e+02	-6.16890221e+01	1.04637792e+02	-6.27486356e+01	1.05788156e+02	-6.50050846e+00	1.66056641e+00
1379167714.29	-2.88829795e+00	1.53288288e+02	-6.14469088e+01	1.04619041e+02	-6.26398084e+01	1.05586886e+02	-6.49328651e+00	1.65421153e+00
1379453285.71	-2.88001261e+00	1.53216606e+02	-6.19012149e+01	1.04589417e+02	-6.27454943e+01	1.05572160e+02	-6.49871458e+00	1.56099877e+00
1379738857.14	-2.87740970e+00	1.53231175e+02	-6.18615371e+01	1.05125213e+02	-6.25510727e+01	1.04541531e+02	-6.49958655e+00	1.51348475e+00
1380024428.57	-2.87792209e+00	1.53268666e+02	-6.17141751e+01	1.04798393e+02	-6.27064959e+01	1.05013942e+02	-6.50795967e+00	1.51239986e+00
1380310000	-2.87367031e+00	1.53283339e+02	-6.16059697e+01	1.01922978e+02	-6.24658854e+01	1.03524654e+02	-6.50642240e+00	1.41388472e+00
1380595571.43	-2.87443247e+00	1.53240693e+02	-6.18363406e+01	1.03742244e+02	-6.27215453e+01	1.04527648e+02	-6.50901443e+00	1.37351780e+00
1380881142.86	-2.87393620e+00	1.53231793e+02	-6.18427559e+01	1.02561432e+02	-6.25900255e+01	1.02352406e+02	-6.51054905e+00	1.19762862e+00
1381166714.29	-2.87580502e+00	1.53222725e+02	-6.18260165e+01	1.03628675e+02	-6.27474950e+01	1.03261337e+02	-6.51110489e+00	1.21343884e+00
1381452285.71	-2.87377875e+00	1.53254768e+02	-6.19734579e+01	1.03790537e+02	-6.28561751e+01	1.03000918e+02	-6.51027004e+00	1.10838719e+00
1381737857.14	-2.87221215e+00	1.53203299e+02	-6.19450086e+01	1.02685865e+02	-6.29002512e+01	1.02790864e+02	-6.50576080e+00	1.05807418e+00
1382023428.57	-2.87747653e+00	1.53191313e+02	-6.19948151e+01	1.02340923e+02	-6.30216171e+01	1.03031050e+02	-6.50877334e+00	8.92118097e-01
1382309000	-2.87868831e+00	1.53196475e+02	-6.18358446e+01	1.02370684e+02	-6.27483506e+01	1.02286327e+02	-6.50806955e+00	8.11364808e-01
1382594571.43	-2.87792741e+00	1.53170006e+02	-6.21207041e+01	1.00431023e+02	-6.27635271e+01	1.01586509e+02	-6.50744880e+00	7.32745173e-01
1382880142.86	-2.87522133e+00	1.53150587e+02	-6.19158532e+01	1.00306715e+02	-6.27153568e+01	1.01376709e+02	-6.50645765e+00	6.41754882e-01
1383165714.29	-2.87425859e+00	1.53127800e+02	-6.19995568e+01	1.00976058e+02	-6.28640200e+01	1.01489941e+02	-6.50789728e+00	5.25464353e-01
1383451285.71	-2.86744675e+00	1.53093466e+02	-6.21792401e+01	1.00511726e+02	-6.29381328e+01	1.01256248e+02	-6.50817094e+00	3.70263463e-01
1383736857.14	-2.86764543e+00	1.53113829e+02	-6.22083605e+01	9.93248283e+01	-6.30121541e+01	1.00419765e+02	-6.50434652e+00	2.23151178e-01
1384022428.57	-2.87028811e+00	1.53060595e+02	-6.21965003e+01	9.94011166e+01	-6.29552274e+01	1.00650957e+02	-6.49862377e+00	1.40966347e-01
1384308000	-2.86676295e+00	1.53082704e+02	-6.21943788e+01	9.98923234e+01	-6.30105004e+01	1.00079738e+02	-6.49158167e+00	4.19428721e-02
1384593571.43	-2.86810382e+00	1.53074232e+02	-6.21239254e+01	9.73663459e+01	-6.28732829e+01	1.00327528e+02	-6.49000532e+00	-8.31861590e-02
1384879142.86	-2.87228393e+00	1.53073309e+02	-6.22387821e+01	9.88815594e+01	-6.31279216e+01	9.90762846e+01	-6.49299273e+00	-1.93857258e-01
1385164714.29	-2.87030980e+00	1.53099535e+02	-6.24729037e+01	9.81260930e+01	-6.31478648e+01	1.00405279e+02	-6.48825324e+00	-2.19048261e-01
1385450285.71	-2.87256711e+00	1.53080978e+02	-6.22526780e+01	9.97162970e+01	-6.32189808e+01	1.00694454e+02	-6.48502876e+00	-2.77810890e-01
1385735857.14	-2.86792028e+00	1.53040259e+02	-6.24236349e+01	9.78849853e+01	-6.31499391e+01	9.79382301e+01	-6.47215600e+00	-4.16446907e-01
1386021428.57	-2.86717632e+00	1.53036883e+02	-6.24785042e+01	9.64894030e+01	-6.32515271e+01	9.86023636e+01	-6.48152141e+00	-5.24202430e-01
1386307000	-2.86554647e+00	1.53058195e+02	-6.24566385e+01	9.59537563e+01	-6.31458745e+01	9.87218525e+01	-6.46894458e+00	-6.57598302e-01
1386592571.43	-2.86907028e+00	1.53081314e+02	-6.25595693e+01	9.68376849e+01	-6.32994335e+01	9.88382677e+01	-6.47867645e+00	-7.54329232e-01
1386878142.86	-2.86687779e+00	1.53080837e+02	-6.25729109e+01	9.69965219e+01	-6.33430556e+01	9.87945949e+01	-6.48116465e+00	-8.42562707e-01
1387163714.29	-2.86419698e+00	1.53047842e+02	-6.26265591e+01	9.72475476e+01	-6.33106470e+01	9.72950073e+01	-6.47508414e+00	-8.22971168e-01
1387449285.71	-2.86460421e+00	1.53051377e+02	-6.27040829e+01	9.60746277e+01	-6.32257357e+01	9.76734710e+01	-6.46890838e+00	-8.94642209e-01
1387734857.14	-2.85822608e+00	1.53063247e+02	-6.24495774e+01	9.65056103e+01	-6.35060502e+01	9.65366879e+01	-6.46366635e+00	-1.06527553e+00
1388020428.57	-2.86150712e+00	1.53056466e+02	-6.27828750e+01	9.66991599e+01	-6.33457491e+01	9.65311506e+01	-6.46027475e+00	-1.09306110e+00
1388306000	-2.85943626e+00	1.53015829e+02	-6.30101578e+01	9.50588836e+01	-6.35477904e+01	9.81470236e+01	-6.46624519e+00	-1.21633335e+00
1388591571.43	-2.86036314e+00	1.53015603e+02	-6.26850780e+01	9.61930822e+01	-6.35661338e+01	9.70194227e+01	-6.45522240e+00	-1.33910134e+00
1388877142.86	-2.86208320e+00	1.52986783e+02	-6.30275993e+01	9.45186787e+01	-6.32878571e+01	9.64174271e+01	-6.46049853e+00	-1.45624769e+00
1389162714.29	-2.86543469e+00	1.52994147e+02	-6.29634598e+01	9.47516450e+01	-6.37131322e+01	9.63299223e+01	-6.45641382e+00	-1.58203609e+00
1389448285.71	-2.86010617e+00	1.53004523e+02	-6.29240359e+01	9.64780436e+01	-6.37012689e+01	9.81606749e+01	-6.45728771e+00	-1.73290878e+00
1389733857.14	-2.86092670e+00	1.52984079e+02	-6.30647462e+01	9.41453359e+01	-6.39982978e+01	9.75212458e+01	-6.45806190e+00	-1.85449310e+00
1390019428.57	-2.86070943e+00	1.52970909e+02	-6.32456410e+01	9.60539378e+01	-6.38317124e+01	9.81020860e+01	-6.44891778e+00	-1.92439710e+00
1390305000	-2.86389603e+00	1.53013530e+02	-6.30521643e+01	9.38658139e+01	-6.38755598e+01	9.99155730e+01	-6.44087906e+00	-1.98180174e+00
1390590571.43	-2.86531685e+00	1.52945526e+02	-6.29985723e+01	9.59134765e+01	-6.40286288e+01	9.80063956e+01	-6.43794319e+00	-2.12561954e+00
1390876142.86	-2.85811315e+00	1.52982464e+02	-6.32907923e+01	9.42854769e+01	-6.38098201e+01	9.80651749e+01	-6.43551420e+00	-2.29755310e+00
1391161714.29	-2.85904386e+00	1.52962650e+02	-6.31105551e+01	9.50039795e+01	-6.37462615e+01	9.79550316e+01	-6.43912184e+00	-2.43625481e+00
1391447285.71	-2.85748266e+00	1.52948618e+02	-6.32377595e+01	9.55484097e+01	-6.38562677e+01	1.00244933e+02	-6.43536591e+00	-2.50396617e+00
1391732857.14	-2.85215597e+00	1.52957665e+02	-6.31132396e+01	9.50581908e+01	-6.38763321e+01	9.81680164e+01	-6.44098097e+00	-2.65820359e+00
1392018428.57	-2.85758057e+00	1.52980264e+02	-6.32217527e+01	9.58614725e+01	-6.41709978e+01	9.73128223e+01	-6.43982057e+00	-2.73164721e+00
1392304000	-2.85764357e+00	1.52938880e+02	-6.31568737e+01	9.58772353e+01	-6.37595966e+01	9.88364354e+01	-6.44247220e+00	-2.81688606e+00
1392589571.43	-2.86184738e+00	1.52923439e+02	-6.32161579e+01	9.48184931e+01	-6.39420425e+01	1.00038686e+02	-6.44567362e+00	-2.94385832e+00
1392875142.86	-2.85897558e+00	1.52927876e+02	-6.31952389e+01	9.86400913e+01	-6.38870911e+01	1.00366132e+02	-6.44596742e+00	-2.96537657e+00
1393160714.29	-2.85927543e+00	1.52963517e+02	-6.34940297e+01	9.75433819e+01	-6.38860537e+01	1.00445892e+02	-6.43856205e+00	-3.08468419e+00
1393446285.71	-2.85796574e+00	1.52930402e+02	-6.30648608e+01	9.48233930e+01	-6.39261364e+01	1.00004196e+02	-6.43868579e+00	-3.12511024e+00
1393731857.14	-2.86226116e+00	1.52897287e+02	-6.30081602e+01	9.67271328e+01	-6.36581643e+01	1.00568594e+02	-6.43113872e+00	-3.24740584e+00
1394017428.57	-2.85907632e+00	1.52934703e+02	-6.31984467e+01	9.46429997e+01	-6.37387590e+01	1.00357556e+02	-6.43130045e+00	-3.33023154e+00
1394303000	-2.86012339e+00	1.52931579e+02	-6.33837511e+01	9.79696012e+01	-6.37176900e+01	9.95017531e+01	-6.43858095e+00	-3.50684341e+00
1394588571.43	-2.86126661e+00	1.52986330e+02	-6.33898893e+01	9.58086473e+01	-6.36998145e+01	9.88115437e+01	-6.44609634e+00	-3.65630237e+00
1394874142.86	-2.85725879e+00	1.52999039e+02	-6.31973036e+01	9.67583957e+01	-6.37311516e+01	1.01448940e+02	-6.44077416e+00	-3.66595018e+00
1395159714.29	-2.86022274e+00	1.52978929e+02	-6.31412934e+01	9.68100616e+01	-6.35357506e+01	9.97301092e+01	-6.43946959e+00	-3.81565185e+00
1395445285.71	-2.86542359e+00	1.52937711e+02	-6.31975863e+01	9.83070202e+01	-6.34777742e+01	9.97291933e+01	-6.43631912e+00	-3.93832746e+00
1395730857.14	-2.86700122e+00	1.52913845e+02	-6.30697764e+01	9.69125471e+01	-6.37863905e+01	9.93785044e+01	-6.45188926e+00	-4.05630540e+00
1396016428.57	-2.86089571e+00	1.52901976e+02	-6.30985219e+01	9.64230566e+01	-6.34341449e+01	9.91810725e+01	-6.45335093e+00	-4.15487667e+00
1396302000	-2.86093925e+00	1.52917687e+02	-6.29943910e+01	9.59768944e+01	-6.35098395e+01	9.95355772e+01	-6.45877429e+00	-4.31128344e+00
1396587571.43	-2.86133295e+00	1.52904817e+02	-6.31462884e+01	9.61112333e+01	-6.34128782e+01	9.97253137e+01	-6.45343943e+00	-4.34594633e+00
1396873142.86	-2.86891087e+00	1.52912784e+02	-6.31865400e+01	9.66635876e+01	-6.33452406e+01	9.95021922e+01	-6.44901821e+00	-4.41336242e+00
1397158714.29	-2.86148230e+00	1.52892916e+02	-6.30690438e+01	9.69408774e+01	-6.31087193e+01	9.99744236e+01	-6.44385912e+00	-4.52133176e+00
1397444285.71	-2.85480729e+00	1.52925938e+02	-6.29892674e+01	9.63883755e+01	-6.33984255e+01	9.97184940e+01	-6.44382376e+00	-4.62165316e+00
1397729857.14	-2.86127290e+00	1.52909514e+02	-6.29851707e+01	9.59276288e+01	-6.32310684e+01	9.95681800e+01	-6.44581183e+00	-4.69739096e+00
1398015428.57	-2.85987185e+00	1.52899999e+02	-6.29560601e+01	9.61024100e+01	-6.32652445e+01	1.01357652e+02	-6.43652098e+00	-4.76479801e+00
1398301000	-2.86431438e+00	1.52895612e+02	-6.28639974e+01	9.58631905e+01	-6.32353690e+01	1.00109845e+02	-6.42833644e+00	-4.91627182e+00
1398586571.43	-2.85986986e+00	1.52871915e+02	-6.28143188e+01	9.66467902e+01	-6.31065157e+01	9.98740790e+01	-6.42119110e+00	-4.90964893e+00
1398872142.86	-2.86182341e+00	1.52833871e+02	-6.29094089e+01	9.57779692e+01	-6.31651240e+01	9.97908986e+01	-6.41452774e+00	-4.93100530e+00
1399157714.29	-2.86102508e+00	1.52807450e+02	-6.27567009e+01	9.70704586e+01	-6.31513130e+01	9.89739409e+01	-6.42020737e+00	-4.96407278e+00
1399443285.71	-2.86446223e+00	1.52795613e+02	-6.29723661e+01	9.67814476e+01	-6.29866490e+01	9.97569308e+01	-6.41583619e+00	-4.96978561e+00
1399728857.14	-2.86509640e+00	1.52756626e+02	-6.27250724e+01	9.59961660e+01	-6.29839442e+01	9.94104292e+01	-6.40926643e+00	-5.04851957e+00
1400014428.57	-2.86851737e+00	1.52760000e+02	-6.30489118e+01	9.43040637e+01	-6.28313964e+01	9.78242254e+01	-6.40159988e+00	-5.08379755e+00
1400300000	-2.87135506e+00	1.52723791e+02	-6.29702380e+01	9.58431892e+01	-6.30125031e+01	9.84908443e+01	-6.39388886e+00	-5.05924115e+00
1400585571.43	-2.86837884e+00	1.52736716e+02	-6.29190345e+01	9.50437516e+01	-6.28067628e+01	9.70490562e+01	-6.39384908e+00	-5.15508100e+00
1400871142.86	-2.87216498e+00	1.52737071e+02	-6.27625139e+01	9.56112884e+01	-6.28405913e+01	9.89558157e+01	-6.38295966e+00	-5.19854073e+00
1401156714.29	-2.87357370e+00	1.52750773e+02	-6.28788719e+01	9.29762061e+01	-6.27875304e+01	9.80630365e+01	-6.38588628e+00	-5.26482932e+00
1401442285.71	-2.87007747e+00	1.52792730e+02	-6.27303907e+01	9.40941312e+01	-6.26371263e+01	9.76987224e+01	-6.37345332e+00	-5.27460231e+00
1401727857.14	-2.87209547e+00	1.52745072e+02	-6.29080715e+01	9.40979836e+01	-6.27729040e+01	9.76364068e+01	-6.36819452e+00	-5.35048358e+00
1402013428.57	-2.87059681e+00	1.52750086e+02	-6.27733767e+01	9.44699971e+01	-6.24521269e+01	9.70543582e+01	-6.34772568e+00	-5.38175110e+00
1402299000	-2.87286768e+00	1.52747248e+02	-6.27919265e+01	9.35193492e+01	-6.27731174e+01	9.71998529e+01	-6.34617873e+00	-5.41920416e+00
1402584571.43	-2.86918314e+00	1.52702290e+02	-6.27448774e+01	9.39081578e+01	-6.29581942e+01	9.77507767e+01	-6.34934750e+00	-5.49993089e+00
1402870142.86	-2.86637747e+00	1.52674730e+02	-6.25383116e+01	9.42525145e+01	-6.27039817e+01	9.67207711e+01	-6.34437142e+00	-5.52132132e+00
1403155714.29	-2.87208056e+00	1.52647527e+02	-6.28415786e+01	9.33548547e+01	-6.25151250e+01	9.65344163e+01	-6.33340319e+00	-5.57773092e+00
1403441285.71	-2.87115553e+00	1.52653439e+02	-6.27771576e+01	9.26352381e+01	-6.26253071e+01	9.49786329e+01	-6.33337535e+00	-5.59050766e+00
1403726857.14	-2.87026716e+00	1.52629006e+02	-6.27706383e+01	9.28503686e+01	-6.26363298e+01	9.40399899e+01	-6.32222630e+00	-5.73673178e+00
1404012428.57	-2.87266350e+00	1.52629220e+02	-6.29455301e+01	9.36965427e+01	-6.25844713e+01	9.41530198e+01	-6.30853787e+00	-5.88391018e+00
1404298000	-2.86807298e+00	1.52617943e+02	-6.26571202e+01	9.24758227e+01	-6.25495397e+01	9.41753768e+01	-6.30375478e+00	-6.02248012e+00
1404583571.43	-2.86384116e+00	1.52623807e+02	-6.24588008e+01	9.20130081e+01	-6.26831106e+01	9.46326830e+01	-6.29854593e+00	-6.04508717e+00
1404869142.86	-2.86573696e+00	1.52581812e+02	-6.28946443e+01	9.18922786e+01	-6.24436766e+01	9.38915693e+01	-6.29389757e+00	-6.20540038e+00
1405154714.29	-2.86723718e+00	1.52538726e+02	-6.25174178e+01	9.21949681e+01	-6.27289747e+01	9.38052647e+01	-6.28423466e+00	-6.26842833e+00
1405440285.71	-2.86292782e+00	1.52532360e+02	-6.25244776e+01	9.19115757e+01	-6.25686916e+01	9.43100013e+01	-6.27266331e+00	-6.34327060e+00
1405725857.14	-2.86364230e+00	1.52512835e+02	-6.27613801e+01	9.41043300e+01	-6.25537688e+01	9.31817813e+01	-6.26927936e+00	-6.50996461e+00
1406011428.57	-2.85747868e+00	1.52495405e+02	-6.27313695e+01	9.26566435e+01	-6.24705267e+01	9.36727557e+01	-6.26020612e+00	-6.65235091e+00
1406297000	-2.86462443e+00	1.52513919e+02	-6.26709287e+01	9.09493543e+01	-6.24071469e+01	9.32801807e+01	-6.25471604e+00	-6.79380576e+00
1406582571.43	-2.86752458e+00	1.52518792e+02	-6.25567615e+01	9.15063209e+01	-6.25814776e+01	9.27354843e+01	-6.24546888e+00	-6.92881385e+00
1406868142.86	-2.86504165e+00	1.52497939e+02	-6.27661939e+01	9.16932773e+01	-6.26726953e+01	9.36733940e+01	-6.22912954e+00	-7.00279980e+00
1407153714.29	-2.86545625e+00	1.52497415e+02	-6.26246636e+01	9.14899517e+01	-6.24959724e+01	9.18560910e+01	-6.22694114e+00	-7.08721292e+00
1407439285.71	-2.86919667e+00	1.52442704e+02	-6.25857877e+01	9.22105215e+01	-6.23763990e+01	9.19429318e+01	-6.22379468e+00	-7.19410315e+00
1407724857.14	-2.87179997e+00	1.52451864e+02	-6.24662011e+01	9.03988964e+01	-6.26609539e+01	9.28545607e+01	-6.21503671e+00	-7.26746960e+00
1408010428.57	-2.87386289e+00	1.52440224e+02	-6.25413961e+01	9.17167454e+01	-6.25096998e+01	9.16788952e+01	-6.20312175e+00	-7.32833954e+00
1408296000	-2.86667309e+00	1.52419121e+02	-6.23340506e+01	8.96357904e+01	-6.23855135e+01	9.14909988e+01	-6.19953295e+00	-7.45658804e+00
1408581571.43	-2.87051651e+00	1.52426595e+02	-6.24795581e+01	9.15522050e+01	-6.23069872e+01	9.14484514e+01	-6.19310520e+00	-7.60462620e+00
1408867142.86	-2.87272905e+00	1.52436257e+02	-6.26953236e+01	9.12710388e+01	-6.23629505e+01	9.32946134e+01	-6.18858790e+00	-7.75133992e+00
1409152714.29	-2.86498974e+00	1.52448246e+02	-6.22964194e+01	9.12054310e+01	-6.22746963e+01	9.15671795e+01	-6.19161395e+00	-7.85250253e+00
1409438285.71	-2.86945176e+00	1.52397573e+02	-6.24499700e+01	9.25698027e+01	-6.25114823e+01	8.99302961e+01	-6.19586086e+00	-7.94938122e+00
1409723857.14	-2.86671938e+00	1.52370511e+02	-6.26258568e+01	9.14220190e+01	-6.22921223e+01	9.06165414e+01	-6.20101592e+00	-7.99163455e+00
1410009428.57	-2.86599457e+00	1.52372454e+02	-6.23478885e+01	9.15757368e+01	-6.23978616e+01	9.08481057e+01	-6.19536321e+00	-8.11960956e+00
1410295000	-2.86399426e+00	1.52406212e+02	-6.24840844e+01	8.96231714e+01	-6.23150458e+01	9.04097511e+01	-6.18677432e+00	-8.21576135e+00
1410580571.43	-2.86753136e+00	1.52399325e+02	-6.25081725e+01	9.02994463e+01	-6.23566539e+01	8.97132592e+01	-6.18673868e+00	-8.30121107e+00
1410866142.86	-2.86822357e+00	1.52325984e+02	-6.22928616e+01	8.90054205e+01	-6.22916543e+01	9.11455440e+01	-6.18598086e+00	-8.40591576e+00
1411151714.29	-2.87533261e+00	1.52313407e+02	-6.22184497e+01	8.83403968e+01	-6.23721371e+01	9.11617931e+01	-6.17598251e+00	-8.48862869e+00
1411437285.71	-2.87272429e+00	1.52286530e+02	-6.21313255e+01	8.82089286e+01	-6.23546330e+01	8.99091865e+01	-6.16702994e+00	-8.52233636e+00
1411722857.14	-2.88348529e+00	1.52250999e+02	-6.24084875e+01	9.07902842e+01	-6.22994187e+01	8.98685842e+01	-6.15979968e+00	-8.63823675e+00
1412008428.57	-2.87412900e+00	1.52259262e+02	-6.23976102e+01	9.03680378e+01	-6.23812294e+01	8.97557452e+01	-6.16349969e+00	-8.72888197e+00
1412294000	-2.86470858e+00	1.52278233e+02	-6.23273970e+01	8.98659950e+01	-6.22182940e+01	8.97116101e+01	-6.14987924e+00	-8.79666326e+00
1412579571.43	-2.87398616e+00	1.52254992e+02	-6.23074797e+01	9.05119445e+01	-6.24184009e+01	9.06709836e+01	-6.14966806e+00	-8.90136862e+00
1412865142.86	-2.87052597e+00	1.52274822e+02	-6.22487399e+01	9.11235804e+01	-6.24537300e+01	8.78464739e+01	-6.13720212e+00	-9.02870665e+00
1413150714.29	-2.86885737e+00	1.52256863e+02	-6.21824930e+01	8.98184480e+01	-6.21380242e+01	9.00342924e+01	-6.14088693e+00	-9.15907320e+00
1413436285.71	-2.86807375e+00	1.52243806e+02	-6.20490767e+01	9.01607743e+01	-6.21439249e+01	8.92509905e+01	-6.13877195e+00	-9.22465760e+00
1413721857.14	-2.86698599e+00	1.52227559e+02	-6.23296281e+01	8.98558624e+01	-6.22622767e+01	8.78969216e+01	-6.12969231e+00	-9.37841922e+00
1414007428.57	-2.87010704e+00	1.52193387e+02	-6.18528528e+01	8.86777479e+01	-6.22754480e+01	9.00650730e+01	-6.12237763e+00	-9.39756677e+00
1414293000	-2.86873981e+00	1.52176172e+02	-6.20957945e+01	8.87473314e+01	-6.21796172e+01	8.86430736e+01	-6.10758116e+00	-9.48263177e+00
1414578571.43	-2.87234954e+00	1.52125780e+02	-6.19455867e+01	9.02542041e+01	-6.20303156e+01	8.98164451e+01	-6.10906497e+00	-9.63026997e+00
1414864142.86	-2.86739477e+00	1.52103685e+02	-6.21300180e+01	8.98435576e+01	-6.21095648e+01	8.85969757e+01	-6.10344956e+00	-9.78680755e+00
1415149714.29	-2.86875196e+00	1.52095807e+02	-6.19334802e+01	8.93866543e+01	-6.19819216e+01	8.92967124e+01	-6.09129276e+00	-9.88827519e+00
1415435285.71	-2.86725024e+00	1.52098489e+02	-6.17387387e+01	8.89088329e+01	-6.19859230e+01	8.91799616e+01	-6.08869943e+00	-9.94728229e+00
1415720857.14	-2.86892300e+00	1.52052214e+02	-6.16503428e+01	8.88317823e+01	-6.18890729e+01	8.88486782e+01	-6.08438322e+00	-1.00150919e+01
1416006428.57	-2.87049563e+00	1.52044869e+02	-6.17790012e+01	8.77381308e+01	-6.18420425e+01	8.90206728e+01	-6.08134962e+00	-1.00710303e+01
1416292000	-2.86936581e+00	1.52009553e+02	-6.18181210e+01	8.74635063e+01	-6.19065268e+01	8.81877988e+01	-6.07096220e+00	-1.01553170e+01
1416577571.43	-2.86805370e+00	1.52023975e+02	-6.15035649e+01	8.82868262e+01	-6.17508961e+01	8.78231376e+01	-6.05255720e+00	-1.02444896e+01
1416863142.86	-2.86525595e+00	1.51981395e+02	-6.14471385e+01	8.82518903e+01	-6.17331670e+01	8.89844303e+01	-6.05084325e+00	-1.03712139e+01
1417148714.29	-2.86868410e+00	1.52019917e+02	-6.14844459e+01	8.69348213e+01	-6.16488078e+01	8.79900016e+01	-6.04185401e+00	-1.04766057e+01
1417434285.71	-2.87196429e+00	1.52004280e+02	-6.15358767e+01	8.61315682e+01	-6.16698344e+01	8.78500793e+01	-6.03343532e+00	-1.05438270e+01
1417719857.14	-2.87718379e+00	1.52007816e+02	-6.15299093e+01	8.64772490e+01	-6.15345781e+01	8.89042886e+01	-6.03683985e+00	-1.06099190e+01
1418005428.57	-2.87842304e+00	1.51986863e+02	-6.13830481e+01	8.62142159e+01	-6.14655715e+01	8.70074970e+01	-6.02455732e+00	-1.07254960e+01
1418291000	-2.87753571e+00	1.51908968e+02	-6.12467278e+01	8.68699244e+01	-6.15370517e+01	8.82428906e+01	-6.01726343e+00	-1.08469931e+01
1418576571.43	-2.86819860e+00	1.51939900e+02	-6.14308356e+01	8.78351898e+01	-6.12658628e+01	8.63797507e+01	-6.01297087e+00	-1.09004157e+01
1418862142.86	-2.86288849e+00	1.51912926e+02	-6.13854896e+01	8.51869968e+01	-6.13949043e+01	8.59927066e+01	-6.01077103e+00	-1.09712523e+01
1419147714.29	-2.86793941e+00	1.51860179e+02	-6.14336876e+01	8.59433827e+01	-6.12847389e+01	8.74991481e+01	-6.00605550e+00	-1.11457432e+01
1419433285.71	-2.86910581e+00	1.51830060e+02	-6.13231572e+01	8.46592071e+01	-6.11734445e+01	8.55082049e+01	-5.99526609e+00	-1.12345264e+01
1419718857.14	-2.86754342e+00	1.51822859e+02	-6.09690915e+01	8.42944081e+01	-6.12711463e+01	8.67226695e+01	-5.98013200e+00	-1.12865499e+01
1420004428.57	-2.86817419e+00	1.51834196e+02	-6.10275894e+01	8.42366280e+01	-6.10808504e+01	8.43685315e+01	-5.96958942e+00	-1.13850808e+01
1420290000	-2.86814499e+00	1.51831706e+02	-6.10516114e+01	8.33634183e+01	-6.10222774e+01	8.31828273e+01	-5.96808018e+00	-1.14979589e+01
1420575571.43	-2.86545342e+00	1.51803748e+02	-6.08872610e+01	8.38931392e+01	-6.08698708e+01	8.45134742e+01	-5.96458200e+00	-1.16018080e+01
1420861142.86	-2.87088311e+00	1.51787019e+02	-6.09696680e+01	8.10098923e+01	-6.11122892e+01	8.34497248e+01	-5.96046306e+00	-1.16961324e+01
1421146714.29	-2.86511701e+00	1.51754010e+02	-6.07774346e+01	8.25326260e+01	-6.10062790e+01	8.36684720e+01	-5.95373199e+00	-1.18389180e+01
1421432285.71	-2.87142134e+00	1.51749128e+02	-6.08551805e+01	8.30389134e+01	-6.08582888e+01	8.19203027e+01	-5.94222470e+00	-1.18786955e+01
1421717857.14	-2.86867415e+00	1.51729433e+02	-6.09706875e+01	8.20979532e+01	-6.10082126e+01	8.08609674e+01	-5.94129747e+00	-1.19809067e+01
1422003428.57	-2.86431520e+00	1.51695816e+02	-6.08460411e+01	8.04095936e+01	-6.08626924e+01	8.09140284e+01	-5.93285150e+00	-1.20005733e+01
1422289000	-2.86756214e+00	1.51664029e+02	-6.08571414e+01	8.09823663e+01	-6.08425439e+01	8.08588996e+01	-5.92816258e+00	-1.20816026e+01
1422574571.43	-2.87135938e+00	1.51671227e+02	-6.09858251e+01	8.02320368e+01	-6.07282521e+01	7.96506289e+01	-5.92682347e+00	-1.21400473e+01
1422860142.86	-2.86913550e+00	1.51681934e+02	-6.07697745e+01	8.10688556e+01	-6.07298297e+01	7.97940663e+01	-5.91782892e+00	-1.22683077e+01
1423145714.29	-2.87184466e+00	1.51645661e+02	-6.07888666e+01	7.92109720e+01	-6.08490070e+01	7.95931346e+01	-5.90277331e+00	-1.24035266e+01
1423431285.71	-2.87046060e+00	1.51627692e+02	-6.08712585e+01	7.92716831e+01	-6.08659862e+01	8.03305906e+01	-5.90648569e+00	-1.24443287e+01
1423716857.14	-2.87245875e+00	1.51638376e+02	-6.07901031e+01	7.84881416e+01	-6.06883399e+01	7.95340089e+01	-5.91134273e+00	-1.25228653e+01
1424002428.57	-2.87163872e+00	1.51652590e+02	-6.10325508e+01	7.75079208e+01	-6.07059981e+01	7.85882985e+01	-5.90266004e+00	-1.26672700e+01
1424288000	-2.87364964e+00	1.51618587e+02	-6.07381865e+01	7.69620490e+01	-6.07531098e+01	7.89933327e+01	-5.89657554e+00	-1.27042941e+01
1424573571.43	-2.87518030e+00	1.51570990e+02	-6.06996189e+01	7.63577725e+01	-6.07259823e+01	7.71041395e+01	-5.88377185e+00	-1.27880754e+01
1424859142.86	-2.86985774e+00	1.51582289e+02	-6.06836801e+01	7.62529629e+01	-6.07287751e+01	7.63935023e+01	-5.88926871e+00	-1.28515290e+01
1425144714.29	-2.87074505e+00	1.51558825e+02	-6.04542587e+01	7.66311900e+01	-6.05593214e+01	7.74079335e+01	-5.87868857e+00	-1.28939934e+01
1425430285.71	-2.86770088e+00	1.51575197e+02	-6.09315952e+01	7.57803778e+01	-6.08231888e+01	7.65151168e+01	-5.87221830e+00	-1.29795290e+01
1425715857.14	-2.87209692e+00	1.51533552e+02	-6.09137612e+01	7.47170414e+01	-6.08389110e+01	7.61234573e+01	-5.85432378e+00	-1.31329535e+01
1426001428.57	-2.87176911e+00	1.51508482e+02	-6.06798611e+01	7.47999525e+01	-6.09054550e+01	7.61308889e+01	-5.84047047e+00	-1.31144393e+01
1426287000	-2.86425553e+00	1.51469033e+02	-6.05768992e+01	7.61309192e+01	-6.09227112e+01	7.57632937e+01	-5.84147048e+00	-1.31826507e+01
1426572571.43	-2.86859680e+00	1.51446429e+02	-6.08151680e+01	7.48649032e+01	-6.07328430e+01	7.54942261e+01	-5.84005390e+00	-1.32544839e+01
1426858142.86	-2.87271387e+00	1.51458607e+02	-6.06408421e+01	7.29484409e+01	-6.06978353e+01	7.51194947e+01	-5.83434925e+00	-1.33666598e+01
1427143714.29	-2.87470432e+00	1.51465672e+02	-6.08118097e+01	7.40631851e+01	-6.07913882e+01	7.46414113e+01	-5.83143486e+00	-1.34711013e+01
1427429285.71	-2.87227259e+00	1.51459457e+02	-6.07179742e+01	7.27520222e+01	-6.09511312e+01	7.43417502e+01	-5.83424245e+00	-1.35262179e+01
1427714857.14	-2.87600895e+00	1.51461556e+02	-6.07491005e+01	7.33031670e+01	-6.10239326e+01	7.29700249e+01	-5.82337022e+00	-1.35376736e+01
1428000428.57	-2.87313063e+00	1.51417307e+02	-6.08697562e+01	7.23929685e+01	-6.09400212e+01	7.36456646e+01	-5.82101232e+00	-1.35848866e+01
1428286000	-2.87855653e+00	1.51344181e+02	-6.08211519e+01	7.26625897e+01	-6.07682243e+01	7.42411955e+01	-5.81431237e+00	-1.37766516e+01
1428571571.43	-2.86946576e+00	1.51302560e+02	-6.08482659e+01	7.28251627e+01	-6.07578355e+01	7.28436581e+01	-5.80667241e+00	-1.38324873e+01
1428857142.86	-2.87441965e+00	1.51315213e+02	-6.09132137e+01	7.36790352e+01	-6.08324003e+01	7.45379123e+01	-5.80095217e+00	-1.39796874e+01
1429142714.29	-2.86948454e+00	1.51303447e+02	-6.08460129e+01	7.20238348e+01	-6.08453928e+01	7.39875194e+01	-5.79327488e+00	-1.40849801e+01
1429428285.71	-2.87757132e+00	1.51286857e+02	-6.09687075e+01	7.20580599e+01	-6.10258948e+01	7.41172851e+01	-5.78949277e+00	-1.42308290e+01
1429713857.14	-2.87865090e+00	1.51277498e+02	-6.09010773e+01	7.11801199e+01	-6.09330281e+01	7.34471418e+01	-5.78582855e+00	-1.42857771e+01
1429999428.57	-2.87593337e+00	1.51280487e+02	-6.11242470e+01	7.21883278e+01	-6.10060418e+01	7.30727616e+01	-5.78539122e+00	-1.43195354e+01
1430285000	-2.87485829e+00	1.51265657e+02	-6.07282542e+01	7.13285530e+01	-6.11177540e+01	7.34148171e+01	-5.77735505e+00	-1.44598557e+01
1430570571.43	-2.87277962e+00	1.51239158e+02	-6.09522156e+01	7.09110163e+01	-6.09644985e+01	7.27694906e+01	-5.77542432e+00	-1.44885182e+01
1430856142.86	-2.87718448e+00	1.51215424e+02	-6.08400542e+01	7.15946339e+01	-6.09087401e+01	7.31802339e+01	-5.76695735e+00	-1.45574378e+01
1431141714.29	-2.87664093e+00	1.51226034e+02	-6.10428290e+01	7.30152525e+01	-6.09146582e+01	7.32349198e+01	-5.76144392e+00	-1.45839779e+01
1431427285.71	-2.87496030e+00	1.51177307e+02	-6.11298528e+01	7.12810144e+01	-6.08010409e+01	7.40110607e+01	-5.75641031e+00	-1.46335778e+01
1431712857.14	-2.87715789e+00	1.51181192e+02	-6.10493104e+01	7.20135533e+01	-6.09895548e+01	7.29287633e+01	-5.75585690e+00	-1.47138074e+01
1431998428.57	-2.87858108e+00	1.51129108e+02	-6.08846279e+01	7.13914780e+01	-6.07019917e+01	7.28630459e+01	-5.74633603e+00	-1.48265198e+01
1432284000	-2.88028287e+00	1.51135826e+02	-6.08058811e+01	7.20112402e+01	-6.07978294e+01	7.42364368e+01	-5.74641141e+00	-1.49516155e+01
1432569571.43	-2.88105234e+00	1.51099692e+02	-6.09648682e+01	7.08629666e+01	-6.08181169e+01	7.34255522e+01	-5.73914697e+00	-1.49542704e+01
1432855142.86	-2.86886799e+00	1.51111065e+02	-6.10237552e+01	7.17257934e+01	-6.07064428e+01	7.36292432e+01	-5.73131396e+00	-1.50156195e+01
1433140714.29	-2.86996264e+00	1.51092080e+02	-6.09595575e+01	7.38963079e+01	-6.06806067e+01	7.45813683e+01	-5.71544992e+00	-1.50208295e+01
1433426285.71	-2.86877696e+00	1.51072290e+02	-6.07121546e+01	7.18788524e+01	-6.05378854e+01	7.47434957e+01	-5.71413547e+00	-1.51042046e+01
1433711857.14	-2.86762602e+00	1.51063496e+02	-6.06924415e+01	7.20528842e+01	-6.06042272e+01	7.36987291e+01	-5.70320321e+00	-1.51220975e+01
1433997428.57	-2.86788209e+00	1.51053831e+02	-6.08553517e+01	7.30034825e+01	-6.05435346e+01	7.30771708e+01	-5.70694901e+00	-1.52474358e+01
1434283000	-2.87706211e+00	1.51003289e+02	-6.06405450e+01	7.19271842e+01	-6.06194391e+01	7.40056435e+01	-5.70429188e+00	-1.52887044e+01
1434568571.43	-2.87101096e+00	1.50967103e+02	-6.08428052e+01	7.25887460e+01	-6.04110170e+01	7.16021328e+01	-5.69581995e+00	-1.53914552e+01
1434854142.86	-2.87541092e+00	1.50958631e+02	-6.07729819e+01	7.17967394e+01	-6.04776879e+01	7.32908802e+01	-5.68157628e+00	-1.55095900e+01
1435139714.29	-2.87716651e+00	1.50947485e+02	-6.06542986e+01	7.14523613e+01	-6.05677166e+01	7.39291939e+01	-5.68133823e+00	-1.55735215e+01
1435425285.71	-2.87994064e+00	1.50880028e+02	-6.05573181e+01	7.11039533e+01	-6.04167924e+01	7.25740936e+01	-5.68745625e+00	-1.56234024e+01
1435710857.14	-2.87553042e+00	1.50885826e+02	-6.03794303e+01	7.11691482e+01	-6.02006303e+01	7.21207257e+01	-5.69185970e+00	-1.56552933e+01
1435996428.57	-2.87098082e+00	1.50879990e+02	-6.04156719e+01	7.09094529e+01	-6.02625036e+01	7.24826749e+01	-5.68891458e+00	-1.56889716e+01
1436282000	-2.87275854e+00	1.50879525e+02	-6.04005438e+01	7.18400584e+01	-6.02079251e+01	7.26604821e+01	-5.68312301e+00	-1.57003487e+01
1436567571.43	-2.87579965e+00	1.50882366e+02	-6.03077269e+01	6.98549774e+01	-6.00923922e+01	7.27292443e+01	-5.68611281e+00	-1.58695372e+01
1436853142.86	-2.87370050e+00	1.50878411e+02	-6.02162593e+01	7.10822728e+01	-6.00185568e+01	7.22908349e+01	-5.68980740e+00	-1.60239254e+01
1437138714.29	-2.87385034e+00	1.50830904e+02	-6.01766418e+01	7.18694782e+01	-6.00841764e+01	7.31808161e+01	-5.68802160e+00	-1.60861994e+01
1437424285.71	-2.87233618e+00	1.50799282e+02	-6.01163700e+01	7.04294010e+01	-5.99133676e+01	7.11841030e+01	-5.68221509e+00	-1.61896798e+01
1437709857.14	-2.87005309e+00	1.50769396e+02	-6.02039802e+01	7.13933950e+01	-5.97893985e+01	7.14052655e+01	-5.68326549e+00	-1.62808909e+01
1437995428.57	-2.86893136e+00	1.50813670e+02	-6.02191162e+01	7.04979915e+01	-5.98535142e+01	7.03233079e+01	-5.67964966e+00	-1.63593807e+01
1438281000	-2.86825343e+00	1.50785908e+02	-6.00704697e+01	7.06617032e+01	-5.97102515e+01	7.15414336e+01	-5.67468464e+00	-1.64847240e+01
1438566571.43	-2.87284896e+00	1.50793198e+02	-5.98910968e+01	7.12897990e+01	-5.95313631e+01	7.17566925e+01	-5.66516142e+00	-1.65866835e+01
1438852142.86	-2.87000490e+00	1.50738506e+02	-5.98391169e+01	6.99708026e+01	-5.96467837e+01	7.10200092e+01	-5.67281975e+00	-1.67383557e+01
1439137714.29	-2.86822764e+00	1.50733507e+02	-5.96675178e+01	7.01712739e+01	-5.95240073e+01	7.02164460e+01	-5.65529240e+00	-1.67974154e+01
1439423285.71	-2.87060584e+00	1.50712374e+02	-5.98924753e+01	6.94878279e+01	-5.93921548e+01	6.99836658e+01	-5.65239400e+00	-1.69811639e+01
1439708857.14	-2.86545201e+00	1.50670806e+02	-5.96651386e+01	6.89388340e+01	-5.92844248e+01	6.88308042e+01	-5.64965819e+00	-1.70778742e+01
1439994428.57	-2.87213895e+00	1.50674699e+02	-5.97985096e+01	7.04992886e+01	-5.95279500e+01	6.92423657e+01	-5.66448611e+00	-1.71215238e+01
1440280000	-2.87227591e+00	1.50671858e+02	-5.94505227e+01	6.82517163e+01	-5.93387670e+01	6.90133720e+01	-5.65564118e+00	-1.72459293e+01
1440565571.43	-2.87808531e+00	1.50623555e+02	-5.94019015e+01	6.80701815e+01	-5.92108304e+01	6.88381670e+01	-5.67583278e+00	-1.73557463e+01
1440851142.86	-2.87054639e+00	1.50619560e+02	-5.95479952e+01	6.80400264e+01	-5.91557936e+01	6.90211223e+01	-5.65544184e+00	-1.74662580e+01
1441136714.29	-2.86901747e+00	1.50581699e+02	-5.95233852e+01	6.81123062e+01	-5.92665893e+01	6.76399392e+01	-5.65986129e+00	-1.75640298e+01
1441422285.71	-2.86567372e+00	1.50586909e+02	-5.93651475e+01	6.62471218e+01	-5.91580612e+01	6.72519015e+01	-5.64902657e+00	-1.76568568e+01
1441707857.14	-2.86416991e+00	1.50618491e+02	-5.93252141e+01	6.68588763e+01	-5.88638655e+01	6.72299855e+01	-5.64242498e+00	-1.77865563e+01
1441993428.57	-2.86878391e+00	1.50582701e+02	-5.93061717e+01	6.68415633e+01	-5.90055605e+01	6.73345988e+01	-5.64699432e+00	-1.79176362e+01
1442279000	-2.86573447e+00	1.50568928e+02	-5.91463432e+01	6.63339629e+01	-5.89455871e+01	6.60993397e+01	-5.64736104e+00	-1.79415082e+01
1442564571.43	-2.86545291e+00	1.50528821e+02	-5.94566772e+01	6.63213962e+01	-5.87924231e+01	6.55765266e+01	-5.63579217e+00	-1.81145373e+01
1442850142.86	-2.86242992e+00	1.50501290e+02	-5.91228022e+01	6.54882302e+01	-5.88824404e+01	6.59342622e+01	-5.64347536e+00	-1.81395102e+01
1443135714.29	-2.86518564e+00	1.50498133e+02	-5.92576680e+01	6.45653951e+01	-5.86563485e+01	6.53689058e+01	-5.64414366e+00	-1.81728348e+01
1443421285.71	-2.86167513e+00	1.50480728e+02	-5.91597746e+01	6.41781609e+01	-5.87476709e+01	6.40911811e+01	-5.64767457e+00	-1.83276730e+01
1443706857.14	-2.86487152e+00	1.50446673e+02	-5.89316062e+01	6.54732207e+01	-5.86716355e+01	6.34577101e+01	-5.65499662e+00	-1.84098489e+01
1443992428.57	-2.85958216e+00	1.50435125e+02	-5.87498219e+01	6.46574413e+01	-5.86854134e+01	6.40391886e+01	-5.64857551e+00	-1.85019186e+01
1444278000	-2.86605707e+00	1.50417303e+02	-5.89706642e+01	6.28686538e+01	-5.86395745e+01	6.30732085e+01	-5.65239945e+00	-1.86154442e+01
1444563571.43	-2.86886020e+00	1.50399185e+02	-5.88010234e+01	6.30551977e+01	-5.85431879e+01	6.32817962e+01	-5.64378985e+00	-1.87143611e+01
1444849142.86	-2.86815266e+00	1.50370529e+02	-5.87022578e+01	6.29792295e+01	-5.84919963e+01	6.34963685e+01	-5.64398693e+00	-1.88110820e+01
1445134714.29	-2.87561864e+00	1.50361005e+02	-5.87113160e+01	6.29307055e+01	-5.83033793e+01	6.19042806e+01	-5.63978655e+00	-1.90080265e+01
1445420285.71	-2.86691133e+00	1.50376551e+02	-5.85439662e+01	6.09754357e+01	-5.83457783e+01	6.09874123e+01	-5.64316653e+00	-1.91037081e+01
1445705857.14	-2.86911133e+00	1.50385388e+02	-5.85592541e+01	6.16778753e+01	-5.82515145e+01	6.12984105e+01	-5.63530653e+00	-1.91991973e+01
1445991428.57	-2.86517619e+00	1.50389443e+02	-5.86396617e+01	6.08054849e+01	-5.82679288e+01	6.05691673e+01	-5.63966226e+00	-1.93071986e+01
1446277000	-2.86756175e+00	1.50329088e+02	-5.84623043e+01	6.07542802e+01	-5.82847572e+01	5.94395624e+01	-5.64432539e+00	-1.94603936e+01
1446562571.43	-2.86588746e+00	1.50332749e+02	-5.84401097e+01	6.00445916e+01	-5.82079682e+01	6.04899381e+01	-5.63530532e+00	-1.95687111e+01
1446848142.86	-2.86154189e+00	1.50346820e+02	-5.85509618e+01	5.96150919e+01	-5.80793220e+01	6.00218576e+01	-5.62896727e+00	-1.96662732e+01
1447133714.29	-2.86109223e+00	1.50335171e+02	-5.84117377e+01	6.04102051e+01	-5.82148633e+01	5.93900695e+01	-5.62605402e+00	-1.97567166e+01
1447419285.71	-2.86143197e+00	1.50330375e+02	-5.83808384e+01	6.03757366e+01	-5.80905203e+01	5.88773653e+01	-5.62131585e+00	-1.98570977e+01
1447704857.14	-2.86665725e+00	1.50296908e+02	-5.83714169e+01	5.86694685e+01	-5.80605201e+01	5.86946005e+01	-5.63380155e+00	-1.99912785e+01
1447990428.57	-2.85722392e+00	1.50344465e+02	-5.81880083e+01	5.93560138e+01	-5.79522640e+01	5.79229301e+01	-5.61947424e+00	-2.00626443e+01
1448276000	-2.85616454e+00	1.50310943e+02	-5.80821956e+01	5.81768431e+01	-5.78811450e+01	5.75426486e+01	-5.61234693e+00	-2.01643368e+01
1448561571.43	-2.85934473e+00	1.50294860e+02	-5.80673781e+01	5.77698958e+01	-5.76802927e+01	5.78676807e+01	-5.61317855e+00	-2.02508996e+01
1448847142.86	-2.85520795e+00	1.50280554e+02	-5.80581208e+01	5.66817405e+01	-5.79212066e+01	5.55779416e+01	-5.61864455e+00	-2.04313323e+01
1449132714.29	-2.86069499e+00	1.50257206e+02	-5.78822018e+01	5.66779474e+01	-5.78608669e+01	5.65846032e+01	-5.62401868e+00	-2.04697354e+01
1449418285.71	-2.86379872e+00	1.50227674e+02	-5.80139261e+01	5.73394762e+01	-5.76551949e+01	5.60601230e+01	-5.60556749e+00	-2.04712794e+01
1449703857.14	-2.85920502e+00	1.50270004e+02	-5.79020722e+01	5.42844686e+01	-5.77475679e+01	5.52231816e+01	-5.59703824e+00	-2.06270752e+01
1449989428.57	-2.86528928e+00	1.50232349e+02	-5.79961282e+01	5.49655896e+01	-5.76710410e+01	5.42371292e+01	-5.59300351e+00	-2.07347982e+01
1450275000	-2.85758480e+00	1.50243106e+02	-5.79048864e+01	5.42614802e+01	-5.75748348e+01	5.46171359e+01	-5.59232174e+00	-2.08271233e+01
1450560571.43	-2.86288327e+00	1.50199251e+02	-5.79033149e+01	5.46722926e+01	-5.76552126e+01	5.34684217e+01	-5.58708481e+00	-2.08995636e+01
1450846142.86	-2.86134007e+00	1.50199640e+02	-5.78352215e+01	5.49215484e+01	-5.76740914e+01	5.35134246e+01	-5.59033525e+00	-2.09892021e+01
1451131714.29	-2.85877327e+00	1.50219054e+02	-5.78188096e+01	5.30379177e+01	-5.75053891e+01	5.37800028e+01	-5.59338511e+00	-2.11019329e+01
1451417285.71	-2.86432856e+00	1.50216303e+02	-5.77049237e+01	5.23680817e+01	-5.75342686e+01	5.25044797e+01	-5.58779131e+00	-2.12495809e+01
1451702857.14	-2.86560348e+00	1.50221968e+02	-5.76560544e+01	5.29714810e+01	-5.74442491e+01	5.15173223e+01	-5.59578521e+00	-2.13824581e+01
1451988428.57	-2.86206776e+00	1.50190928e+02	-5.77409967e+01	5.19570575e+01	-5.75241850e+01	5.07428252e+01	-5.58218332e+00	-2.14370844e+01
1452274000	-2.86982779e+00	1.50192691e+02	-5.75670425e+01	5.14675825e+01	-5.73934219e+01	5.07070324e+01	-5.57422103e+00	-2.15679764e+01
1452559571.43	-2.86674716e+00	1.50171027e+02	-5.76818227e+01	5.05801234e+01	-5.74719577e+01	5.04627472e+01	-5.57210416e+00	-2.17170100e+01
1452845142.86	-2.86320011e+00	1.50123845e+02	-5.74406212e+01	5.09792249e+01	-5.73545997e+01	4.99603045e+01	-5.57191975e+00	-2.18490693e+01
1453130714.29	-2.86298370e+00	1.50168503e+02	-5.75642425e+01	4.92594031e+01	-5.73030744e+01	4.99327418e+01	-5.56976485e+00	-2.19940712e+01
1453416285.71	-2.86213482e+00	1.50154489e+02	-5.75032150e+01	4.96462813e+01	-5.73481892e+01	4.91963229e+01	-5.57411129e+00	-2.20839104e+01
1453701857.14	-2.86193020e+00	1.50149390e+02	-5.75498237e+01	4.90396312e+01	-5.73087660e+01	4.80362792e+01	-5.57882535e+00	-2.22751310e+01
1453987428.57	-2.86218578e+00	1.50127947e+02	-5.74715892e+01	4.81627294e+01	-5.73765342e+01	4.85855892e+01	-5.57078909e+00	-2.24268365e+01
1454273000	-2.85779827e+00	1.50093937e+02	-5.74290050e+01	4.83001058e+01	-5.71748800e+01	4.79655408e+01	-5.57365688e+00	-2.25691219e+01
1454558571.43	-2.86116552e+00	1.50165846e+02	-5.72803822e+01	4.70679705e+01	-5.71451326e+01	4.73802854e+01	-5.56970007e+00	-2.27108613e+01
1454844142.86	-2.85617666e+00	1.50149009e+02	-5.73807285e+01	4.74452865e+01	-5.71762696e+01	4.60728476e+01	-5.55962481e+00	-2.28100693e+01
1455129714.29	-2.86020245e+00	1.50170050e+02	-5.72891817e+01	4.66400312e+01	-5.70583896e+01	4.72437432e+01	-5.55802311e+00	-2.29305889e+01
1455415285.71	-2.86415310e+00	1.50181422e+02	-5.71492032e+01	4.66912814e+01	-5.71248395e+01	4.62647579e+01	-5.56464604e+00	-2.29964365e+01
1455700857.14	-2.86825087e+00	1.50140183e+02	-5.72022569e+01	4.57239161e+01	-5.70683296e+01	4.54178864e+01	-5.55321507e+00	-2.30677271e+01
1455986428.57	-2.86073553e+00	1.50133180e+02	-5.72565771e+01	4.57105799e+01	-5.70763949e+01	4.44338181e+01	-5.54072215e+00	-2.31546449e+01
1456272000	-2.86378045e+00	1.50105039e+02	-5.72863516e+01	4.44413270e+01	-5.70808098e+01	4.47921202e+01	-5.54055906e+00	-2.32579397e+01
1456557571.43	-2.86178023e+00	1.50095275e+02	-5.72479764e+01	4.40201179e+01	-5.69569401e+01	4.45877594e+01	-5.55337002e+00	-2.34513491e+01
1456843142.86	-2.86505506e+00	1.50095245e+02	-5.72234019e+01	4.41995575e+01	-5.69029289e+01	4.34219232e+01	-5.54361483e+00	-2.35365872e+01
1457128714.29	-2.86519244e+00	1.50047761e+02	-5.71012007e+01	4.27772019e+01	-5.68876924e+01	4.26302069e+01	-5.54823750e+00	-2.36263046e+01
1457414285.71	-2.86911129e+00	1.50095394e+02	-5.70596489e+01	4.23691423e+01	-5.68698948e+01	4.17506928e+01	-5.55095074e+00	-2.37449924e+01
1457699857.14	-2.86867569e+00	1.50083659e+02	-5.70534033e+01	4.25702889e+01	-5.68542745e+01	4.12961761e+01	-5.55087540e+00	-2.38302366e+01
1457985428.57	-2.86727835e+00	1.50119602e+02	-5.69646461e+01	4.13125667e+01	-5.68101855e+01	4.13851693e+01	-5.55249037e+00	-2.39717379e+01
1458271000	-2.86506567e+00	1.50083994e+02	-5.71837799e+01	4.17695262e+01	-5.67889841e+01	4.05461925e+01	-5.56221451e+00	-2.40857503e+01
1458556571.43	-2.85973947e+00	1.50049407e+02	-5.71559237e+01	3.94770924e+01	-5.67401725e+01	4.08343477e+01	-5.57112838e+00	-2.42225728e+01
1458842142.86	-2.86251726e+00	1.50041336e+02	-5.68870406e+01	4.01234317e+01	-5.68753488e+01	3.88623536e+01	-5.58133633e+00	-2.43481833e+01
1459127714.29	-2.86166055e+00	1.50000463e+02	-5.69698839e+01	3.94063386e+01	-5.66529116e+01	3.91407644e+01	-5.57565050e+00	-2.44151151e+01
1459413285.71	-2.86400152e+00	1.50008521e+02	-5.68809927e+01	3.82708881e+01	-5.67171502e+01	3.80141883e+01	-5.57634488e+00	-2.45777612e+01
1459698857.14	-2.86261991e+00	1.50003270e+02	-5.69390559e+01	3.78105801e+01	-5.66213907e+01	3.80445604e+01	-5.57090566e+00	-2.47560697e+01
1459984428.57	-2.86139438e+00	1.49965446e+02	-5.68952124e+01	3.71033895e+01	-5.65715245e+01	3.76637594e+01	-5.57043396e+00	-2.48880030e+01
1460270000	-2.86305016e+00	1.49966677e+02	-5.68847022e+01	3.73647724e+01	-5.66290273e+01	3.72998612e+01	-5.57859246e+00	-2.49295494e+01
1460555571.43	-2.86248744e+00	1.49963568e+02	-5.68781696e+01	3.65220197e+01	-5.67127223e+01	3.70302125e+01	-5.57975145e+00	-2.51041152e+01
1460841142.86	-2.86768574e+00	1.49957549e+02	-5.69805510e+01	3.66085412e+01	-5.65368061e+01	3.57687534e+01	-5.58638390e+00	-2.52030296e+01
1461126714.29	-2.86795825e+00	1.49917615e+02	-5.68664893e+01	3.61863969e+01	-5.66333286e+01	3.55727904e+01	-5.59495742e+00	-2.54133452e+01
1461412285.71	-2.87124420e+00	1.49931849e+02	-5.67501094e+01	3.65749880e+01	-5.65433276e+01	3.49538586e+01	-5.59786024e+00	-2.55553904e+01
1461697857.14	-2.87141721e+00	1.49884711e+02	-5.68858970e+01	3.51495336e+01	-5.65671591e+01	3.48230278e+01	-5.59838870e+00	-2.56596219e+01
1461983428.57	-2.87542981e+00	1.49927174e+02	-5.68493492e+01	3.52831914e+01	-5.65514244e+01	3.43532784e+01	-5.59832514e+00	-2.58019959e+01
1462269000	-2.87303798e+00	1.49922242e+02	-5.68408087e+01	3.52473958e+01	-5.65849966e+01	3.38490640e+01	-5.60221416e+00	-2.58721614e+01
1462554571.43	-2.87755534e+00	1.49949674e+02	-5.67417604e+01	3.35401819e+01	-5.64942083e+01	3.35567775e+01	-5.60163879e+00	-2.60082425e+01
1462840142.86	-2.87746573e+00	1.49946327e+02	-5.68193842e+01	3.31374113e+01	-5.65144493e+01	3.28973207e+01	-5.61166723e+00	-2.61601105e+01
1463125714.29	-2.87146923e+00	1.49842866e+02	-5.65677636e+01	3.32202033e+01	-5.65206526e+01	3.34953974e+01	-5.61446683e+00	-2.62991105e+01
1463411285.71	-2.87925853e+00	1.49889171e+02	-5.67905503e+01	3.25806884e+01	-5.64123352e+01	3.22732833e+01	-5.61865411e+00	-2.64051418e+01
1463696857.14	-2.87326264e+00	1.49890037e+02	-5.66156184e+01	3.23536770e+01	-5.65076788e+01	3.19371235e+01	-5.62401785e+00	-2.65357000e+01
1463982428.57	-2.87765000e+00	1.49864250e+02	-5.66173458e+01	3.07598467e+01	-5.63794382e+01	3.20205265e+01	-5.62353857e+00	-2.66848022e+01
1464268000	-2.87920336e+00	1.49870185e+02	-5.67270710e+01	3.09171273e+01	-5.64213749e+01	3.18396020e+01	-5.63153765e+00	-2.68196923e+01
1464553571.43	-2.87753956e+00	1.49831999e+02	-5.65885340e+01	3.11263377e+01	-5.63784084e+01	3.09393025e+01	-5.63931551e+00	-2.69193539e+01
1464839142.86	-2.88120596e+00	1.49836680e+02	-5.65661295e+01	3.09352848e+01	-5.62683703e+01	3.04299325e+01	-5.64713541e+00	-2.69618374e+01
1465124714.29	-2.87573472e+00	1.49754973e+02	-5.65585328e+01	2.95638473e+01	-5.63451423e+01	3.06067416e+01	-5.65670395e+00	-2.70478019e+01
1465410285.71	-2.87276582e+00	1.49744403e+02	-5.65356404e+01	2.94288313e+01	-5.62725823e+01	2.94125800e+01	-5.66098966e+00	-2.71410742e+01
1465695857.14	-2.86898636e+00	1.49730204e+02	-5.64073404e+01	2.92704254e+01	-5.62939763e+01	2.90910892e+01	-5.66378845e+00	-2.72494146e+01
1465981428.57	-2.87206907e+00	1.49760010e+02	-5.65273452e+01	2.91260918e+01	-5.61497263e+01	2.88772318e+01	-5.67021872e+00	-2.73656100e+01
1466267000	-2.86892353e+00	1.49776653e+02	-5.64518474e+01	2.87240123e+01	-5.61050921e+01	2.79768493e+01	-5.67534643e+00	-2.74485527e+01
1466552571.43	-2.87070297e+00	1.49724923e+02	-5.63939068e+01	2.79560781e+01	-5.60884420e+01	2.73133567e+01	-5.68310464e+00	-2.75881089e+01
1466838142.86	-2.87185134e+00	1.49704027e+02	-5.64002343e+01	2.77267956e+01	-5.60300013e+01	2.74170930e+01	-5.68090152e+00	-2.76425673e+01
1467123714.29	-2.87563478e+00	1.49722769e+02	-5.62446317e+01	2.70683383e+01	-5.60725688e+01	2.65676309e+01	-5.68843750e+00	-2.77373478e+01
1467409285.71	-2.87909162e+00	1.49739252e+02	-5.62646904e+01	2.64738794e+01	-5.60061791e+01	2.65869031e+01	-5.69477047e+00	-2.78596891e+01
1467694857.14	-2.88658788e+00	1.49781006e+02	-5.63033619e+01	2.58965167e+01	-5.58945777e+01	2.59538798e+01	-5.69118380e+00	-2.79990025e+01
1467980428.57	-2.87764180e+00	1.49713812e+02	-5.60394461e+01	2.51433507e+01	-5.59446471e+01	2.53334441e+01	-5.69090156e+00	-2.81020165e+01
1468266000	-2.88233187e+00	1.49701008e+02	-5.61121738e+01	2.56367064e+01	-5.58878253e+01	2.50531854e+01	-5.70330800e+00	-2.82434498e+01
1468551571.43	-2.87693119e+00	1.49705378e+02	-5.61188493e+01	2.47143735e+01	-5.58789758e+01	2.48950442e+01	-5.70905698e+00	-2.83148560e+01
1468837142.86	-2.87650196e+00	1.49696346e+02	-5.60213258e+01	2.35452235e+01	-5.58137353e+01	2.40172947e+01	-5.70578829e+00	-2.84070345e+01
1469122714.29	-2.87903995e+00	1.49713505e+02	-5.61020529e+01	2.29914491e+01	-5.57376908e+01	2.31909419e+01	-5.70674250e+00	-2.84634536e+01
1469408285.71	-2.87255437e+00	1.49662863e+02	-5.59018013e+01	2.26818660e+01	-5.57235936e+01	2.30935583e+01	-5.70023830e+00	-2.85337176e+01
1469693857.14	-2.87452294e+00	1.49659602e+02	-5.59540455e+01	2.17372074e+01	-5.57661095e+01	2.21658650e+01	-5.70492041e+00	-2.86655391e+01
1469979428.57	-2.87762393e+00	1.49661871e+02	-5.59031578e+01	2.15541452e+01	-5.56916799e+01	2.06449354e+01	-5.69902734e+00	-2.87343472e+01
1470265000	-2.87878299e+00	1.49622903e+02	-5.58690315e+01	2.02635471e+01	-5.56270008e+01	2.07051663e+01	-5.70412436e+00	-2.87907913e+01
1470550571.43	-2.87099305e+00	1.49641696e+02	-5.58378090e+01	2.00187289e+01	-5.57005693e+01	1.95628813e+01	-5.71904302e+00	-2.89006681e+01
1470836142.86	-2.87170372e+00	1.49637152e+02	-5.58304957e+01	1.94046932e+01	-5.55497423e+01	1.94043824e+01	-5.71957409e+00	-2.89333100e+01
1471121714.29	-2.87598717e+00	1.49647653e+02	-5.58207984e+01	1.92578078e+01	-5.56360559e+01	1.90042472e+01	-5.71283635e+00	-2.90865347e+01
1471407285.71	-2.88535519e+00	1.49666722e+02	-5.58015543e+01	1.79832140e+01	-5.56032498e+01	1.86319255e+01	-5.71368132e+00	-2.91895766e+01
1471692857.14	-2.88249100e+00	1.49626553e+02	-5.57643259e+01	1.71477883e+01	-5.55782817e+01	1.73781318e+01	-5.71719474e+00	-2.92867269e+01
1471978428.57	-2.88244128e+00	1.49610548e+02	-5.57865754e+01	1.61503645e+01	-5.55885895e+01	1.65929012e+01	-5.71599042e+00	-2.93621038e+01
1472264000	-2.88102537e+00	1.49605778e+02	-5.58350424e+01	1.60949812e+01	-5.54508249e+01	1.60966738e+01	-5.71182550e+00	-2.95230844e+01
1472549571.43	-2.88871735e+00	1.49577123e+02	-5.57290640e+01	1.60167273e+01	-5.55688327e+01	1.55138668e+01	-5.70503835e+00	-2.96512871e+01
1472835142.86	-2.89246641e+00	1.49561193e+02	-5.57654019e+01	1.53396738e+01	-5.54626628e+01	1.49692298e+01	-5.71513626e+00	-2.97034046e+01
1473120714.29	-2.89069323e+00	1.49565127e+02	-5.57719035e+01	1.55865521e+01	-5.54479486e+01	1.45537187e+01	-5.71471523e+00	-2.97549939e+01
1473406285.71	-2.89653971e+00	1.49571439e+02	-5.57947332e+01	1.39102925e+01	-5.53965220e+01	1.33006701e+01	-5.70983977e+00	-2.98463719e+01
1473691857.14	-2.89294357e+00	1.49553761e+02	-5.56543032e+01	1.31016617e+01	-5.54349661e+01	1.24892204e+01	-5.71034169e+00	-2.99673198e+01
1473977428.57	-2.88227978e+00	1.49524004e+02	-5.57253992e+01	1.20248920e+01	-5.54291271e+01	1.21537536e+01	-5.70790375e+00	-2.99935083e+01
1474263000	-2.88066979e+00	1.49557417e+02	-5.56972885e+01	1.16753410e+01	-5.54546595e+01	1.19907348e+01	-5.70426385e+00	-3.01441491e+01
1474548571.43	-2.88092380e+00	1.49545135e+02	-5.56832478e+01	1.15601362e+01	-5.54840671e+01	1.07489598e+01	-5.70482731e+00	-3.02061491e+01
1474834142.86	-2.88682236e+00	1.49551060e+02	-5.56717237e+01	1.00785196e+01	-5.54596227e+01	1.02494952e+01	-5.70464722e+00	-3.03296681e+01
1475119714.29	-2.88597414e+00	1.49470564e+02	-5.56265927e+01	1.06677331e+01	-5.55091963e+01	1.09443449e+01	-5.69441187e+00	-3.03909423e+01
1475405285.71	-2.88616456e+00	1.49467223e+02	-5.58388670e+01	9.70754024e+00	-5.54494151e+01	9.83894353e+00	-5.69699088e+00	-3.04674098e+01
1475690857.14	-2.88390320e+00	1.49456417e+02	-5.57988123e+01	8.95354919e+00	-5.54337932e+01	9.17287847e+00	-5.69371459e+00	-3.05807262e+01
1475976428.57	-2.88937805e+00	1.49479451e+02	-5.58520163e+01	8.11985341e+00	-5.53863435e+01	8.60733252e+00	-5.68864911e+00	-3.06794742e+01
1476262000	-2.88753248e+00	1.49451035e+02	-5.56089660e+01	7.95208249e+00	-5.53583000e+01	7.47732087e+00	-5.69501480e+00	-3.07863556e+01
1476547571.43	-2.89033466e+00	1.49435046e+02	-5.57445896e+01	7.05232097e+00	-5.54050551e+01	7.30183140e+00	-5.69985766e+00	-3.08525250e+01
1476833142.86	-2.89072083e+00	1.49417095e+02	-5.57396827e+01	5.78796996e+00	-5.54485711e+01	7.08043826e+00	-5.69178460e+00	-3.09846506e+01
1477118714.29	-2.88958679e+00	1.49376328e+02	-5.57582583e+01	5.59589395e+00	-5.53573061e+01	6.61733245e+00	-5.67820129e+00	-3.10213779e+01
1477404285.71	-2.89124160e+00	1.49344582e+02	-5.56570790e+01	5.83518278e+00	-5.52996259e+01	5.63719267e+00	-5.67989263e+00	-3.11242445e+01
1477689857.14	-2.89862423e+00	1.49319854e+02	-5.57916048e+01	4.56641096e+00	-5.52941329e+01	5.17029904e+00	-5.67990425e+00	-3.11944784e+01
1477975428.57	-2.90153389e+00	1.49349358e+02	-5.56416472e+01	3.32968515e+00	-5.54306211e+01	5.49774064e+00	-5.68693071e+00	-3.12604132e+01
1478261000	-2.89991881e+00	1.49352746e+02	-5.56956014e+01	4.57980222e+00	-5.53777311e+01	3.60505203e+00	-5.68337875e+00	-3.13142653e+01
1478546571.43	-2.89673697e+00	1.49378170e+02	-5.57189875e+01	3.03027528e+00	-5.54037322e+01	3.48359647e+00	-5.68455778e+00	-3.13289471e+01
1478832142.86	-2.89473311e+00	1.49348655e+02	-5.56845069e+01	3.28251724e+00	-5.53077814e+01	3.33266715e+00	-5.67820530e+00	-3.14019495e+01
1479117714.29	-2.89526341e+00	1.49337759e+02	-5.56468602e+01	1.26095132e+00	-5.54096398e+01	2.91628363e+00	-5.68098078e+00	-3.14679525e+01
1479403285.71	-2.89740348e+00	1.49293442e+02	-5.57403531e+01	1.80589246e+00	-5.54080278e+01	2.30155197e+00	-5.68058969e+00	-3.15188512e+01
1479688857.14	-2.88877000e+00	1.49320714e+02	-5.55525211e+01	1.00245032e+00	-5.54231216e+01	8.45182057e-01	-5.67104854e+00	-3.15880695e+01
1479974428.57	-2.88745298e+00	1.49284401e+02	-5.58451462e+01	-1.22774593e-01	-5.53612056e+01	9.44144026e-01	-5.67202274e+00	-3.16178673e+01
1480260000	-2.88546020e+00	1.49302013e+02	-5.58345966e+01	4.16781311e-01	-5.53323098e+01	5.24060062e-01	-5.65971953e+00	-3.16490049e+01
1480545571.43	-2.89026831e+00	1.49258270e+02	-5.56826376e+01	-3.49938785e-01	-5.53435770e+01	2.96330403e-02	-5.65768387e+00	-3.16177807e+01
1480831142.86	-2.89151409e+00	1.49287665e+02	-5.56758138e+01	-8.43109398e-01	-5.54180384e+01	-1.19477473e+00	-5.66136403e+00	-3.17145852e+01
1481116714.29	-2.88972380e+00	1.49265028e+02	-5.57589900e+01	-1.21816736e+00	-5.53646850e+01	-1.14615745e+00	-5.65316284e+00	-3.17659553e+01
1481402285.71	-2.89111192e+00	1.49252870e+02	-5.57171040e+01	-1.50246096e+00	-5.54169616e+01	-1.38745908e+00	-5.65780293e+00	-3.18488156e+01
1481687857.14	-2.89512159e+00	1.49225183e+02	-5.56330832e+01	-2.73264046e+00	-5.54121016e+01	-2.50075344e+00	-5.64670940e+00	-3.18936997e+01
1481973428.57	-2.89025907e+00	1.49202744e+02	-5.56720801e+01	-3.15523163e+00	-5.53668521e+01	-2.82618167e+00	-5.63550732e+00	-3.19628905e+01
1482259000	-2.89630691e+00	1.49185911e+02	-5.56542518e+01	-4.40475593e+00	-5.53245109e+01	-3.46883988e+00	-5.64138804e+00	-3.19658269e+01
1482544571.43	-2.89272669e+00	1.49166571e+02	-5.57056529e+01	-3.49649909e+00	-5.53879545e+01	-4.04177062e+00	-5.63229002e+00	-3.20169015e+01
1482830142.86	-2.89655109e+00	1.49154014e+02	-5.56900196e+01	-4.51335318e+00	-5.53575996e+01	-4.43393207e+00	-5.62953047e+00	-3.20814778e+01
1483115714.29	-2.89594403e+00	1.49129125e+02	-5.56524598e+01	-4.49021711e+00	-5.53853345e+01	-5.04759766e+00	-5.61998260e+00	-3.21600550e+01
1483401285.71	-2.89834955e+00	1.49173441e+02	-5.57239740e+01	-5.88496716e+00	-5.52305241e+01	-5.87613686e+00	-5.62318146e+00	-3.21948169e+01
1483686857.14	-2.89652954e+00	1.49187060e+02	-5.56327821e+01	-6.74664643e+00	-5.52760871e+01	-6.77080187e+00	-5.61723664e+00	-3.22976775e+01
1483972428.57	-2.89918387e+00	1.49150700e+02	-5.56803768e+01	-7.54092957e+00	-5.52753456e+01	-6.65461141e+00	-5.60542740e+00	-3.23857091e+01
1484258000	-2.90406301e+00	1.49157210e+02	-5.56251259e+01	-7.46131653e+00	-5.52052362e+01	-7.56379590e+00	-5.59896611e+00	-3.24088335e+01
1484543571.43	-2.90487245e+00	1.49129982e+02	-5.56805612e+01	-7.77228459e+00	-5.53453591e+01	-8.21495279e+00	-5.59109414e+00	-3.24764009e+01
1484829142.86	-2.90034498e+00	1.49095587e+02	-5.56241799e+01	-8.74435589e+00	-5.53469208e+01	-8.30812575e+00	-5.58280158e+00	-3.25375948e+01
1485114714.29	-2.90337975e+00	1.49091762e+02	-5.57680771e+01	-9.98452455e+00	-5.52903322e+01	-9.15021453e+00	-5.57095154e+00	-3.26047760e+01
1485400285.71	-2.90390448e+00	1.49102441e+02	-5.58176999e+01	-1.02225315e+01	-5.52806085e+01	-9.20040610e+00	-5.57432009e+00	-3.26466081e+01
1485685857.14	-2.90116776e+00	1.49087436e+02	-5.56916121e+01	-9.73899803e+00	-5.53027561e+01	-1.00488495e+01	-5.57966807e+00	-3.26628699e+01
1485971428.57	-2.90490982e+00	1.49086009e+02	-5.57425701e+01	-9.55302800e+00	-5.52240781e+01	-1.01437680e+01	-5.55615969e+00	-3.27206180e+01
1486257000	-2.90647365e+00	1.49042903e+02	-5.57324491e+01	-1.02489556e+01	-5.52861579e+01	-1.05373567e+01	-5.54753331e+00	-3.27798690e+01
1486542571.43	-2.90611769e+00	1.48996698e+02	-5.57399956e+01	-1.13775131e+01	-5.52645139e+01	-1.13982752e+01	-5.54641971e+00	-3.28700436e+01
1486828142.86	-2.90862921e+00	1.49015075e+02	-5.57444112e+01	-1.20510059e+01	-5.52768891e+01	-1.16108033e+01	-5.54324241e+00	-3.29693576e+01
1487113714.29	-2.90681867e+00	1.48990882e+02	-5.56193320e+01	-1.27491194e+01	-5.53638217e+01	-1.28909115e+01	-5.53661575e+00	-3.30195350e+01
1487399285.71	-2.91332985e+00	1.48983153e+02	-5.56489415e+01	-1.31636900e+01	-5.53644151e+01	-1.28951140e+01	-5.52563665e+00	-3.31019475e+01
1487684857.14	-2.91006704e+00	1.48968798e+02	-5.57384991e+01	-1.26298990e+01	-5.53209801e+01	-1.35817889e+01	-5.52008685e+00	-3.31359834e+01
1487970428.57	-2.91316057e+00	1.48943888e+02	-5.56707957e+01	-1.45549303e+01	-5.53038512e+01	-1.39862386e+01	-5.50810321e+00	-3.31778505e+01
1488256000	-2.91528284e+00	1.48923210e+02	-5.57526448e+01	-1.46756801e+01	-5.52587281e+01	-1.38600666e+01	-5.50940460e+00	-3.31797334e+01
1488541571.43	-2.91612350e+00	1.48925604e+02	-5.57321556e+01	-1.57329272e+01	-5.52799234e+01	-1.54420618e+01	-5.49583895e+00	-3.32761424e+01
1488827142.86	-2.91223874e+00	1.48907495e+02	-5.56746228e+01	-1.49466597e+01	-5.52707197e+01	-1.58240666e+01	-5.50044917e+00	-3.33547613e+01
1489112714.29	-2.91806140e+00	1.48916436e+02	-5.56517869e+01	-1.59971037e+01	-5.53475558e+01	-1.68244223e+01	-5.48555919e+00	-3.33112919e+01
1489398285.71	-2.91730152e+00	1.48919642e+02	-5.57549929e+01	-1.61799648e+01	-5.52555656e+01	-1.67690135e+01	-5.48279363e+00	-3.33484291e+01
1489683857.14	-2.91308211e+00	1.48876511e+02	-5.56449614e+01	-1.76566429e+01	-5.52576689e+01	-1.72234399e+01	-5.48326348e+00	-3.33478933e+01
1489969428.57	-2.91884463e+00	1.48847079e+02	-5.56518855e+01	-1.74320449e+01	-5.52648236e+01	-1.86345783e+01	-5.47347993e+00	-3.33641172e+01
1490255000	-2.91465047e+00	1.48798021e+02	-5.57920666e+01	-1.71600806e+01	-5.52603508e+01	-1.78286528e+01	-5.46638217e+00	-3.34161000e+01
1490540571.43	-2.92115476e+00	1.48827949e+02	-5.57394195e+01	-1.93655799e+01	-5.52555414e+01	-1.82070567e+01	-5.45988258e+00	-3.33705377e+01
1490826142.86	-2.91952687e+00	1.48806374e+02	-5.56563931e+01	-1.94715763e+01	-5.51637456e+01	-1.97380715e+01	-5.46063762e+00	-3.34707596e+01
1491111714.29	-2.92541658e+00	1.48821126e+02	-5.56837059e+01	-1.97852824e+01	-5.52759764e+01	-1.99232115e+01	-5.44940187e+00	-3.35175702e+01
1491397285.71	-2.92417033e+00	1.48813024e+02	-5.57596534e+01	-2.00233148e+01	-5.52483000e+01	-2.06728003e+01	-5.43469072e+00	-3.35616470e+01
1491682857.14	-2.92768377e+00	1.48759588e+02	-5.57403683e+01	-2.10376960e+01	-5.52355747e+01	-2.08174549e+01	-5.43943441e+00	-3.35926925e+01
1491968428.57	-2.91890168e+00	1.48735652e+02	-5.56425579e+01	-2.19852088e+01	-5.52493279e+01	-2.15379548e+01	-5.44448533e+00	-3.36899789e+01
1492254000	-2.91856313e+00	1.48693259e+02	-5.56939816e+01	-2.18830957e+01	-5.51640392e+01	-2.26211687e+01	-5.43923238e+00	-3.37711913e+01
1492539571.43	-2.92510418e+00	1.48723738e+02	-5.58211353e+01	-2.25710166e+01	-5.52467388e+01	-2.28738357e+01	-5.44487669e+00	-3.38171795e+01
1492825142.86	-2.92685619e+00	1.48690851e+02	-5.57066254e+01	-2.36772911e+01	-5.53550001e+01	-2.32036523e+01	-5.43973273e+00	-3.39331120e+01
1493110714.29	-2.93148889e+00	1.48648691e+02	-5.57016539e+01	-2.36627758e+01	-5.52340971e+01	-2.43942804e+01	-5.42870464e+00	-3.39939512e+01
1493396285.71	-2.92994623e+00	1.48653175e+02	-5.58134673e+01	-2.38338072e+01	-5.51857590e+01	-2.44643313e+01	-5.42678049e+00	-3.40914020e+01
1493681857.14	-2.93281011e+00	1.48646505e+02	-5.58359218e+01	-2.49367246e+01	-5.53086424e+01	-2.60404400e+01	-5.41279496e+00	-3.41138085e+01
1493967428.57	-2.93774338e+00	1.48590525e+02	-5.57998334e+01	-2.52492643e+01	-5.52227543e+01	-2.52235136e+01	-5.41487188e+00	-3.41539740e+01
1494253000	-2.93417593e+00	1.48592470e+02	-5.58065498e+01	-2.66147732e+01	-5.53205584e+01	-2.66697943e+01	-5.41831746e+00	-3.42098583e+01
1494538571.43	-2.93607454e+00	1.48556999e+02	-5.57244205e+01	-2.70400848e+01	-5.52239478e+01	-2.70732009e+01	-5.41742431e+00	-3.43019233e+01
1494824142.86	-2.93690802e+00	1.48542182e+02	-5.58325336e+01	-2.75833252e+01	-5.52505260e+01	-2.78979683e+01	-5.40840017e+00	-3.43868120e+01
1495109714.29	-2.93263324e+00	1.48498315e+02	-5.59112151e+01	-2.73508342e+01	-5.53247750e+01	-2.86045823e+01	-5.42008317e+00	-3.45320998e+01
1495395285.71	-2.93446027e+00	1.48447262e+02	-5.59234135e+01	-2.85715558e+01	-5.52804267e+01	-2.89487536e+01	-5.41941799e+00	-3.45655340e+01
1495680857.14	-2.93432749e+00	1.48419223e+02	-5.58869015e+01	-2.89436054e+01	-5.54462653e+01	-2.96233275e+01	-5.41664295e+00	-3.46299061e+01
1495966428.57	-2.93255106e+00	1.48407260e+02	-5.59952557e+01	-2.99254129e+01	-5.53328035e+01	-3.03399178e+01	-5.40949498e+00	-3.46233713e+01
1496252000	-2.93870679e+00	1.48427336e+02	-5.59095670e+01	-3.01267213e+01	-5.54954008e+01	-3.13923690e+01	-5.39714057e+00	-3.47342600e+01
1496537571.43	-2.94365439e+00	1.48407157e+02	-5.59672826e+01	-3.12494025e+01	-5.55399473e+01	-3.18635557e+01	-5.39459043e+00	-3.48200984e+01
1496823142.86	-2.94313308e+00	1.48411174e+02	-5.60497075e+01	-3.14692060e+01	-5.55568060e+01	-3.26951283e+01	-5.38695365e+00	-3.48638991e+01
1497108714.29	-2.93999977e+00	1.48389319e+02	-5.60772969e+01	-3.21022676e+01	-5.55610215e+01	-3.23087492e+01	-5.38322389e+00	-3.48630403e+01
1497394285.71	-2.94168520e+00	1.48358557e+02	-5.60281239e+01	-3.23678354e+01	-5.55399770e+01	-3.33924561e+01	-5.38043078e+00	-3.49181745e+01
1497679857.14	-2.93869835e+00	1.48364897e+02	-5.60484661e+01	-3.35153059e+01	-5.55797156e+01	-3.38813344e+01	-5.37555616e+00	-3.49474781e+01
1497965428.57	-2.93981063e+00	1.48318650e+02	-5.61669420e+01	-3.37497574e+01	-5.56927326e+01	-3.40281691e+01	-5.37081160e+00	-3.50542494e+01
1498251000	-2.93974404e+00	1.48313338e+02	-5.60663425e+01	-3.45183291e+01	-5.57453710e+01	-3.46890065e+01	-5.37296723e+00	-3.50265521e+01
1498536571.43	-2.93960524e+00	1.48248063e+02	-5.62410130e+01	-3.40895414e+01	-5.56101085e+01	-3.45033761e+01	-5.36741080e+00	-3.50312595e+01
1498822142.86	-2.94270439e+00	1.48239107e+02	-5.61888122e+01	-3.49539125e+01	-5.58150201e+01	-3.52851269e+01	-5.37273869e+00	-3.50995426e+01
1499107714.29	-2.94684259e+00	1.48205932e+02	-5.63336112e+01	-3.50995073e+01	-5.56478703e+01	-3.57925841e+01	-5.37325547e+00	-3.51010372e+01
1499393285.71	-2.94477347e+00	1.48205011e+02	-5.62579437e+01	-3.49442103e+01	-5.57879757e+01	-3.66904388e+01	-5.35981423e+00	-3.51867422e+01
1499678857.14	-2.94252835e+00	1.48190463e+02	-5.62760725e+01	-3.54865314e+01	-5.57709083e+01	-3.69640611e+01	-5.35716240e+00	-3.52026290e+01
1499964428.57	-2.94860434e+00	1.48149722e+02	-5.63422473e+01	-3.64907289e+01	-5.57885228e+01	-3.75167793e+01	-5.34789298e+00	-3.53456740e+01
1500250000	-2.95161501e+00	1.48135119e+02	-5.64035061e+01	-3.66180800e+01	-5.58621103e+01	-3.78629365e+01	-5.34375314e+00	-3.53764542e+01
1500535571.43	-2.95705535e+00	1.48063721e+02	-5.63763647e+01	-3.79298085e+01	-5.57947931e+01	-3.80321762e+01	-5.33454763e+00	-3.54204974e+01
1500821142.86	-2.95272643e+00	1.48047659e+02	-5.63861437e+01	-3.81662431e+01	-5.59677693e+01	-3.91455061e+01	-5.32698162e+00	-3.55866112e+01
1501106714.29	-2.95609134e+00	1.48044199e+02	-5.63213607e+01	-3.87605941e+01	-5.59227928e+01	-3.87170518e+01	-5.32125546e+00	-3.56601929e+01
1501392285.71	-2.95474798e+00	1.48007680e+02	-5.63519909e+01	-3.90342432e+01	-5.58769099e+01	-3.88369891e+01	-5.31398945e+00	-3.58131180e+01
1501677857.14	-2.95242925e+00	1.48039710e+02	-5.63627256e+01	-3.99140918e+01	-5.59017119e+01	-4.03716820e+01	-5.30665803e+00	-3.58787733e+01
1501963428.57	-2.95859844e+00	1.48012281e+02	-5.63998134e+01	-3.98497848e+01	-5.59315666e+01	-4.02231140e+01	-5.29533540e+00	-3.59191977e+01
1502249000	-2.95812396e+00	1.47934933e+02	-5.63426023e+01	-3.94246940e+01	-5.59346658e+01	-4.05717747e+01	-5.29076645e+00	-3.60006507e+01
1502534571.43	-2.95670209e+00	1.47917838e+02	-5.65223638e+01	-4.01810390e+01	-5.58171144e+01	-4.10813798e+01	-5.28291037e+00	-3.60625936e+01
1502820142.86	-2.95575630e+00	1.47861172e+02	-5.64642359e+01	-4.07244660e+01	-5.59474552e+01	-4.16670419e+01	-5.27302293e+00	-3.61454499e+01
1503105714.29	-2.95363982e+00	1.47821039e+02	-5.66227206e+01	-4.11883584e+01	-5.60793199e+01	-4.23372145e+01	-5.27019369e+00	-3.61929081e+01
1503391285.71	-2.95734169e+00	1.47823818e+02	-5.66858476e+01	-4.14237397e+01	-5.59829968e+01	-4.31635205e+01	-5.27189295e+00	-3.63541012e+01
1503676857.14	-2.95146296e+00	1.47757010e+02	-5.66414697e+01	-4.18475496e+01	-5.59692207e+01	-4.27952901e+01	-5.26871898e+00	-3.64565620e+01
1503962428.57	-2.95808638e+00	1.47775199e+02	-5.65006595e+01	-4.29347006e+01	-5.60684092e+01	-4.40435207e+01	-5.26034030e+00	-3.65232567e+01
1504248000	-2.96192924e+00	1.47766613e+02	-5.65321434e+01	-4.41660967e+01	-5.59648726e+01	-4.37677330e+01	-5.25894522e+00	-3.65830131e+01
1504533571.43	-2.95948869e+00	1.47782156e+02	-5.66475237e+01	-4.33588021e+01	-5.60391754e+01	-4.42213204e+01	-5.24471671e+00	-3.67192019e+01
1504819142.86	-2.96009146e+00	1.47761611e+02	-5.67670144e+01	-4.40923126e+01	-5.61836969e+01	-4.46426614e+01	-5.23197516e+00	-3.68061475e+01
1505104714.29	-2.95657820e+00	1.47727645e+02	-5.67780757e+01	-4.42255560e+01	-5.61479389e+01	-4.50384446e+01	-5.21624253e+00	-3.69466095e+01
1505390285.71	-2.95726668e+00	1.47647921e+02	-5.67529068e+01	-4.50798844e+01	-5.61944977e+01	-4.53649395e+01	-5.19987299e+00	-3.69631948e+01
1505675857.14	-2.95732256e+00	1.47595775e+02	-5.67995765e+01	-4.52183447e+01	-5.62977048e+01	-4.62653516e+01	-5.19347616e+00	-3.69926957e+01
1505961428.57	-2.96087861e+00	1.47598088e+02	-5.66456897e+01	-4.52098266e+01	-5.62279726e+01	-4.68240119e+01	-5.19259048e+00	-3.70829198e+01
1506247000	-2.94947435e+00	1.47613062e+02	-5.68947031e+01	-4.64998648e+01	-5.62869788e+01	-4.73346831e+01	-5.18019698e+00	-3.71567025e+01
1506532571.43	-2.96035398e+00	1.47563944e+02	-5.67424077e+01	-4.58989669e+01	-5.63043988e+01	-4.75399776e+01	-5.17768490e+00	-3.72179941e+01
1506818142.86	-2.96334723e+00	1.47564021e+02	-5.67767767e+01	-4.65712535e+01	-5.63959074e+01	-4.80813794e+01	-5.17749487e+00	-3.73086513e+01
1507103714.29	-2.96110082e+00	1.47536212e+02	-5.69299254e+01	-4.71685003e+01	-5.63376080e+01	-4.76040180e+01	-5.16985213e+00	-3.74345388e+01
1507389285.71	-2.95605265e+00	1.47531606e+02	-5.68300814e+01	-4.69414066e+01	-5.62781844e+01	-4.88791882e+01	-5.15555203e+00	-3.75011008e+01
1507674857.14	-2.95847481e+00	1.47487880e+02	-5.70686188e+01	-4.65202582e+01	-5.64087524e+01	-4.91720348e+01	-5.15010929e+00	-3.76241359e+01
1507960428.57	-2.95731136e+00	1.47499594e+02	-5.68322751e+01	-4.72304700e+01	-5.64540973e+01	-4.90484759e+01	-5.13419958e+00	-3.76819302e+01
1508246000	-2.95956538e+00	1.47487936e+02	-5.68650610e+01	-4.81528695e+01	-5.63849534e+01	-4.95521828e+01	-5.13628755e+00	-3.78268689e+01
1508531571.43	-2.95713307e+00	1.47434869e+02	-5.69476298e+01	-4.81841104e+01	-5.65051502e+01	-4.98904492e+01	-5.13215368e+00	-3.79640751e+01
1508817142.86	-2.96039425e+00	1.47446054e+02	-5.69644394e+01	-4.92471924e+01	-5.65357326e+01	-5.01325771e+01	-5.12726658e+00	-3.81076669e+01
1509102714.29	-2.95731103e+00	1.47414519e+02	-5.70273249e+01	-4.86389406e+01	-5.65270613e+01	-5.07558919e+01	-5.12591390e+00	-3.82255583e+01
1509388285.71	-2.95171219e+00	1.47413147e+02	-5.70524539e+01	-4.95305397e+01	-5.66166626e+01	-5.17448375e+01	-5.10978920e+00	-3.83537058e+01
1509673857.14	-2.95402119e+00	1.47377495e+02	-5.70860883e+01	-5.02303003e+01	-5.64583923e+01	-5.11774263e+01	-5.10908551e+00	-3.84623039e+01
1509959428.57	-2.96105467e+00	1.47325082e+02	-5.70046149e+01	-5.03213129e+01	-5.65992178e+01	-5.18643522e+01	-5.10073322e+00	-3.85468221e+01
1510245000	-2.95945875e+00	1.47286428e+02	-5.70610522e+01	-5.00986325e+01	-5.65728976e+01	-5.22520418e+01	-5.10549370e+00	-3.87054406e+01
1510530571.43	-2.95973650e+00	1.47262888e+02	-5.71222600e+01	-5.03106870e+01	-5.65777988e+01	-5.18956513e+01	-5.09337745e+00	-3.88005641e+01
1510816142.86	-2.95844171e+00	1.47260681e+02	-5.71996453e+01	-5.11008678e+01	-5.65399709e+01	-5.33430734e+01	-5.09081530e+00	-3.89887732e+01
1511101714.29	-2.96422556e+00	1.47216004e+02	-5.71011590e+01	-5.09110957e+01	-5.67224949e+01	-5.30505378e+01	-5.08480699e+00	-3.91189100e+01
1511387285.71	-2.96580979e+00	1.47239636e+02	-5.71527667e+01	-5.16961922e+01	-5.66050302e+01	-5.38810377e+01	-5.07663482e+00	-3.92503840e+01
1511672857.14	-2.96374341e+00	1.47183137e+02	-5.71246542e+01	-5.13074104e+01	-5.66662928e+01	-5.34317842e+01	-5.07565596e+00	-3.93708251e+01
1511958428.57	-2.96333160e+00	1.47200563e+02	-5.70838631e+01	-5.18878767e+01	-5.67437303e+01	-5.37759584e+01	-5.07560622e+00	-3.94157670e+01
1512244000	-2.96487419e+00	1.47215756e+02	-5.71838547e+01	-5.28143840e+01	-5.68027263e+01	-5.36239677e+01	-5.07136619e+00	-3.94707730e+01
1512529571.43	-2.96226995e+00	1.47200956e+02	-5.71742755e+01	-5.23516099e+01	-5.65919245e+01	-5.37995865e+01	-5.06900555e+00	-3.96144276e+01
1512815142.86	-2.95867198e+00	1.47192350e+02	-5.72143639e+01	-5.27448319e+01	-5.66887664e+01	-5.48606295e+01	-5.06936759e+00	-3.96871375e+01
1513100714.29	-2.95791481e+00	1.47146977e+02	-5.71022693e+01	-5.30056028e+01	-5.67237658e+01	-5.44436928e+01	-5.06537810e+00	-3.97837528e+01
1513386285.71	-2.95789127e+00	1.47121757e+02	-5.71318859e+01	-5.36330714e+01	-5.67916665e+01	-5.51674125e+01	-5.05908083e+00	-3.98932744e+01
1513671857.14	-2.96443629e+00	1.47054670e+02	-5.73004294e+01	-5.32706389e+01	-5.66883511e+01	-5.55867369e+01	-5.06395163e+00	-3.99148738e+01
1513957428.57	-2.96615959e+00	1.47050213e+02	-5.71571272e+01	-5.39607323e+01	-5.66790330e+01	-5.62004839e+01	-5.06559029e+00	-4.00499860e+01
1514243000	-2.96721668e+00	1.47020749e+02	-5.71768971e+01	-5.33467794e+01	-5.66894193e+01	-5.60356461e+01	-5.06354119e+00	-4.01783528e+01
1514528571.43	-2.95697178e+00	1.46997871e+02	-5.71119224e+01	-5.48610297e+01	-5.67598210e+01	-5.61355498e+01	-5.05866058e+00	-4.03058775e+01
1514814142.86	-2.96166501e+00	1.46984575e+02	-5.72845415e+01	-5.51805805e+01	-5.67363622e+01	-5.67114660e+01	-5.05667601e+00	-4.04762535e+01
1515099714.29	-2.96640217e+00	1.46960319e+02	-5.71986976e+01	-5.51543454e+01	-5.66516970e+01	-5.71900142e+01	-5.05282689e+00	-4.06250264e+01
1515385285.71	-2.96335923e+00	1.46924801e+02	-5.72311231e+01	-5.50891001e+01	-5.66649662e+01	-5.77530941e+01	-5.05370863e+00	-4.07513779e+01
1515670857.14	-2.95794216e+00	1.46979167e+02	-5.72168260e+01	-5.55281336e+01	-5.67398995e+01	-5.78056835e+01	-5.05352073e+00	-4.08050150e+01
1515956428.57	-2.95363597e+00	1.46940971e+02	-5.70828818e+01	-5.54869090e+01	-5.67289996e+01	-5.86213197e+01	-5.04653498e+00	-4.09363024e+01
1516242000	-2.96012324e+00	1.46947261e+02	-5.71086734e+01	-5.56295458e+01	-5.67165095e+01	-5.83410584e+01	-5.04207232e+00	-4.10977487e+01
1516527571.43	-2.96378648e+00	1.46931780e+02	-5.71156576e+01	-5.69228499e+01	-5.67190468e+01	-5.90824886e+01	-5.04348108e+00	-4.11705230e+01
1516813142.86	-2.96655561e+00	1.46909571e+02	-5.71638469e+01	-5.73458939e+01	-5.67443034e+01	-5.97211894e+01	-5.04662435e+00	-4.14030999e+01
1517098714.29	-2.96030041e+00	1.46936230e+02	-5.71170215e+01	-5.73755275e+01	-5.66608786e+01	-5.98682129e+01	-5.04343312e+00	-4.15743317e+01
1517384285.71	-2.96843723e+00	1.46894562e+02	-5.71374513e+01	-5.74971653e+01	-5.67738864e+01	-6.04575839e+01	-5.03410795e+00	-4.16703638e+01
1517669857.14	-2.97453003e+00	1.46860940e+02	-5.71535139e+01	-5.77386249e+01	-5.67956110e+01	-6.05695781e+01	-5.03150809e+00	-4.18320844e+01
1517955428.57	-2.96871909e+00	1.46809407e+02	-5.70116913e+01	-5.81409316e+01	-5.67048244e+01	-6.14233507e+01	-5.02916136e+00	-4.19862987e+01
1518241000	-2.96536431e+00	1.46800670e+02	-5.71505597e+01	-5.98328014e+01	-5.67453185e+01	-6.10485661e+01	-5.02533061e+00	-4.20613745e+01
1518526571.43	-2.96362847e+00	1.46787811e+02	-5.72043513e+01	-5.92648729e+01	-5.68176952e+01	-6.19831919e+01	-5.02891865e+00	-4.21872901e+01
1518812142.86	-2.96346590e+00	1.46793850e+02	-5.71232948e+01	-5.98757043e+01	-5.66704665e+01	-6.20502728e+01	-5.02607074e+00	-4.23351067e+01
1519097714.29	-2.96275448e+00	1.46776191e+02	-5.71507915e+01	-6.05899538e+01	-5.67517141e+01	-6.24426779e+01	-5.01858559e+00	-4.24798898e+01
1519383285.71	-2.95878971e+00	1.46728582e+02	-5.71537173e+01	-6.06382541e+01	-5.68381224e+01	-6.29767604e+01	-5.02584207e+00	-4.26573262e+01
1519668857.14	-2.96063025e+00	1.46705231e+02	-5.73071171e+01	-6.03229200e+01	-5.67442393e+01	-6.43356603e+01	-5.02255382e+00	-4.28099723e+01
1519954428.57	-2.96180687e+00	1.46675590e+02	-5.71553488e+01	-6.11977660e+01	-5.67454996e+01	-6.39535522e+01	-5.01951937e+00	-4.29480344e+01
1520240000	-2.96756950e+00	1.46622801e+02	-5.71877307e+01	-6.17982271e+01	-5.68695799e+01	-6.43400887e+01	-5.02267417e+00	-4.30951259e+01
1520525571.43	-2.96863652e+00	1.46606459e+02	-5.71329644e+01	-6.20999193e+01	-5.67873556e+01	-6.44807168e+01	-5.02293099e+00	-4.31777005e+01
1520811142.86	-2.96844193e+00	1.46602357e+02	-5.72058740e+01	-6.26023359e+01	-5.68110558e+01	-6.45601110e+01	-5.02785332e+00	-4.33314739e+01
1521096714.29	-2.96400321e+00	1.46574223e+02	-5.73221806e+01	-6.37353780e+01	-5.67791250e+01	-6.50751153e+01	-5.03103809e+00	-4.35131589e+01
1521382285.71	-2.96421282e+00	1.46576752e+02	-5.71854996e+01	-6.41039026e+01	-5.67471051e+01	-6.58983243e+01	-5.02588317e+00	-4.37132011e+01
1521667857.14	-2.96811992e+00	1.46465028e+02	-5.72034247e+01	-6.50973618e+01	-5.68336807e+01	-6.56693816e+01	-5.02298294e+00	-4.38746845e+01
1521953428.57	-2.96700668e+00	1.46507613e+02	-5.72350312e+01	-6.54607981e+01	-5.69450557e+01	-6.68766482e+01	-5.02871899e+00	-4.39960337e+01
1522239000	-2.96941350e+00	1.46532719e+02	-5.72617899e+01	-6.54964998e+01	-5.67934359e+01	-6.68812617e+01	-5.03035731e+00	-4.41221214e+01
1522524571.43	-2.97224360e+00	1.46484132e+02	-5.72483381e+01	-6.55034137e+01	-5.69561311e+01	-6.74235618e+01	-5.02930418e+00	-4.42585207e+01
1522810142.86	-2.97075568e+00	1.46424385e+02	-5.72922385e+01	-6.48990537e+01	-5.68069815e+01	-6.82103212e+01	-5.03760499e+00	-4.44327781e+01
1523095714.29	-2.97517683e+00	1.46454662e+02	-5.71248814e+01	-6.56639924e+01	-5.67373343e+01	-6.86788740e+01	-5.03825619e+00	-4.45815104e+01
1523381285.71	-2.97036897e+00	1.46475867e+02	-5.72701465e+01	-6.72128836e+01	-5.68285348e+01	-6.83714219e+01	-5.03843302e+00	-4.47530470e+01
1523666857.14	-2.96586479e+00	1.46450824e+02	-5.72770138e+01	-6.74482332e+01	-5.69022603e+01	-6.89663587e+01	-5.04268020e+00	-4.48392758e+01
1523952428.57	-2.96627637e+00	1.46403702e+02	-5.73264941e+01	-6.76382894e+01	-5.67761186e+01	-6.99797560e+01	-5.03994660e+00	-4.50174584e+01
1524238000	-2.96370207e+00	1.46342985e+02	-5.72412891e+01	-6.74347091e+01	-5.68591423e+01	-6.96540153e+01	-5.04703717e+00	-4.51521514e+01
1524523571.43	-2.97359119e+00	1.46336993e+02	-5.73350702e+01	-6.86262942e+01	-5.67708464e+01	-6.97791601e+01	-5.03928846e+00	-4.52507507e+01
1524809142.86	-2.97218769e+00	1.46318064e+02	-5.74088702e+01	-6.96914657e+01	-5.69212823e+01	-6.99855156e+01	-5.04718007e+00	-4.53825544e+01
1525094714.29	-2.97371914e+00	1.46310800e+02	-5.73272541e+01	-6.86090940e+01	-5.68605269e+01	-7.02996339e+01	-5.04994502e+00	-4.55614195e+01
1525380285.71	-2.97123601e+00	1.46323137e+02	-5.71533366e+01	-7.00523351e+01	-5.69160184e+01	-7.16785690e+01	-5.04966032e+00	-4.57257304e+01
1525665857.14	-2.96603333e+00	1.46260579e+02	-5.73913640e+01	-7.02587704e+01	-5.68048584e+01	-7.21548355e+01	-5.04537385e+00	-4.58934720e+01
1525951428.57	-2.97301835e+00	1.46204984e+02	-5.73875671e+01	-6.96864885e+01	-5.69341486e+01	-7.19894038e+01	-5.05026111e+00	-4.60588352e+01
1526237000	-2.96320240e+00	1.46173498e+02	-5.73766584e+01	-7.12050162e+01	-5.70525979e+01	-7.27951106e+01	-5.05314514e+00	-4.61905737e+01
1526522571.43	-2.97043455e+00	1.46160674e+02	-5.73155488e+01	-7.18127855e+01	-5.68193203e+01	-7.28037065e+01	-5.04819696e+00	-4.63187512e+01
1526808142.86	-2.96287801e+00	1.46146215e+02	-5.73258892e+01	-7.15320996e+01	-5.68527175e+01	-7.33152052e+01	-5.04755942e+00	-4.65089506e+01
1527093714.29	-2.96749087e+00	1.46158993e+02	-5.73967837e+01	-7.18263057e+01	-5.69326134e+01	-7.38233183e+01	-5.04692795e+00	-4.66209461e+01
1527379285.71	-2.96945683e+00	1.46193990e+02	-5.75582484e+01	-7.20569112e+01	-5.68007136e+01	-7.43872030e+01	-5.04911192e+00	-4.67561920e+01
1527664857.14	-2.96866763e+00	1.46169054e+02	-5.74138118e+01	-7.26863066e+01	-5.69316243e+01	-7.51160388e+01	-5.05432157e+00	-4.68730238e+01
1527950428.57	-2.96981782e+00	1.46164514e+02	-5.74736551e+01	-7.33409005e+01	-5.69887074e+01	-7.53132984e+01	-5.04496251e+00	-4.70125219e+01
1528236000	-2.96865942e+00	1.46149556e+02	-5.73720098e+01	-7.39620583e+01	-5.69064719e+01	-7.59545106e+01	-5.05274306e+00	-4.71509280e+01
1528521571.43	-2.97590246e+00	1.46158736e+02	-5.73607215e+01	-7.37577793e+01	-5.69598372e+01	-7.59168225e+01	-5.05223871e+00	-4.72789020e+01
1528807142.86	-2.97438017e+00	1.46163163e+02	-5.73701379e+01	-7.41656942e+01	-5.70193957e+01	-7.65796992e+01	-5.04858407e+00	-4.74312495e+01
1529092714.29	-2.96880472e+00	1.46151486e+02	-5.74801801e+01	-7.58629523e+01	-5.69962415e+01	-7.76570255e+01	-5.04065599e+00	-4.75625674e+01
1529378285.71	-2.96598005e+00	1.46142673e+02	-5.75358231e+01	-7.58345685e+01	-5.69598060e+01	-7.73891144e+01	-5.03942383e+00	-4.76863120e+01
1529663857.14	-2.96474108e+00	1.46121287e+02	-5.74847055e+01	-7.56199362e+01	-5.69615190e+01	-7.81257997e+01	-5.03870389e+00	-4.77741985e+01
1529949428.57	-2.96838869e+00	1.46119196e+02	-5.74975793e+01	-7.68268501e+01	-5.70249619e+01	-7.84412134e+01	-5.04574268e+00	-4.79474680e+01
1530235000	-2.95925494e+00	1.46028974e+02	-5.75437245e+01	-7.58378787e+01	-5.70727887e+01	-7.89310895e+01	-5.03519584e+00	-4.80949288e+01
1530520571.43	-2.95517454e+00	1.46035420e+02	-5.76054824e+01	-7.74017879e+01	-5.70658681e+01	-7.88211687e+01	-5.02820078e+00	-4.82438667e+01
1530806142.86	-2.95757639e+00	1.46044565e+02	-5.74960410e+01	-7.79052214e+01	-5.70652722e+01	-7.92358997e+01	-5.02757244e+00	-4.83515604e+01
1531091714.29	-2.95868911e+00	1.46062347e+02	-5.76043560e+01	-7.70502731e+01	-5.71988964e+01	-7.99199729e+01	-5.02692737e+00	-4.84899080e+01
1531377285.71	-2.95931386e+00	1.46074690e+02	-5.75290765e+01	-7.79432092e+01	-5.71899237e+01	-8.08779676e+01	-5.02394717e+00	-4.86525555e+01
1531662857.14	-2.95742904e+00	1.46047125e+02	-5.77346405e+01	-7.92642878e+01	-5.72317546e+01	-8.13005925e+01	-5.02034920e+00	-4.87683219e+01
1531948428.57	-2.95038612e+00	1.46057084e+02	-5.76692514e+01	-7.91963275e+01	-5.71871196e+01	-8.19038452e+01	-5.02161474e+00	-4.89809006e+01
1532234000	-2.95606996e+00	1.46011309e+02	-5.75991087e+01	-7.85682102e+01	-5.72069327e+01	-8.11485610e+01	-5.01163295e+00	-4.90938201e+01
1532519571.43	-2.96163451e+00	1.46020281e+02	-5.76601858e+01	-7.92849912e+01	-5.72544509e+01	-8.23079926e+01	-5.00580176e+00	-4.91787094e+01
1532805142.86	-2.96573966e+00	1.45989082e+02	-5.75299739e+01	-8.08270174e+01	-5.72937237e+01	-8.23505645e+01	-5.00131437e+00	-4.93367318e+01
1533090714.29	-2.96877358e+00	1.45979253e+02	-5.77410239e+01	-8.05469024e+01	-5.71861274e+01	-8.21749764e+01	-5.00857814e+00	-4.94586931e+01
1533376285.71	-2.96454260e+00	1.45966609e+02	-5.77143378e+01	-8.04756544e+01	-5.73519782e+01	-8.29022494e+01	-4.99986358e+00	-4.96204174e+01
1533661857.14	-2.97292768e+00	1.45985590e+02	-5.77909574e+01	-8.17031879e+01	-5.73750544e+01	-8.38550854e+01	-4.99721433e+00	-4.97226380e+01
1533947428.57	-2.97001842e+00	1.45982944e+02	-5.78367307e+01	-8.11105846e+01	-5.73412790e+01	-8.44510805e+01	-4.99250562e+00	-4.98873945e+01
1534233000	-2.96852631e+00	1.45998930e+02	-5.77374041e+01	-8.18467157e+01	-5.73330690e+01	-8.42061506e+01	-4.99355718e+00	-5.00197855e+01
1534518571.43	-2.96568540e+00	1.45988830e+02	-5.78136436e+01	-8.23671035e+01	-5.74464941e+01	-8.46559579e+01	-4.98501799e+00	-5.01310920e+01
1534804142.86	-2.96126253e+00	1.46021353e+02	-5.78458327e+01	-8.24663952e+01	-5.73800791e+01	-8.52326593e+01	-4.97867867e+00	-5.03207209e+01
1535089714.29	-2.96815274e+00	1.46005429e+02	-5.79203251e+01	-8.20224245e+01	-5.75324088e+01	-8.54975025e+01	-4.98747814e+00	-5.05206273e+01
1535375285.71	-2.96277961e+00	1.45978311e+02	-5.80371551e+01	-8.21059847e+01	-5.74648123e+01	-8.50637138e+01	-4.98784702e+00	-5.06886871e+01
1535660857.14	-2.96258583e+00	1.45990507e+02	-5.78502256e+01	-8.29165666e+01	-5.74156200e+01	-8.65093788e+01	-4.96859311e+00	-5.08221800e+01
1535946428.57	-2.96322789e+00	1.45952512e+02	-5.80459155e+01	-8.39486021e+01	-5.74715119e+01	-8.64932830e+01	-4.96497328e+00	-5.09513430e+01
1536232000	-2.96096230e+00	1.45913458e+02	-5.79594657e+01	-8.44738006e+01	-5.74661315e+01	-8.64013387e+01	-4.96596834e+00	-5.10712986e+01
1536517571.43	-2.96064482e+00	1.45927577e+02	-5.78733854e+01	-8.45451546e+01	-5.74751014e+01	-8.75428993e+01	-4.95510178e+00	-5.11611178e+01
1536803142.86	-2.95420140e+00	1.45896244e+02	-5.79479559e+01	-8.53373116e+01	-5.75061838e+01	-8.76459759e+01	-4.95736798e+00	-5.13183092e+01
1537088714.29	-2.96230192e+00	1.45888462e+02	-5.80066775e+01	-8.46757101e+01	-5.74371374e+01	-8.81837570e+01	-4.95852575e+00	-5.15411063e+01
1537374285.71	-2.95901086e+00	1.45863598e+02	-5.80864605e+01	-8.51431289e+01	-5.75259636e+01	-8.83734593e+01	-4.95484630e+00	-5.15962779e+01
1537659857.14	-2.95899313e+00	1.45863324e+02	-5.78835345e+01	-8.56564949e+01	-5.75707845e+01	-8.80409848e+01	-4.95186042e+00	-5.16942780e+01
1537945428.57	-2.95718670e+00	1.45862540e+02	-5.79872361e+01	-8.59579849e+01	-5.76270969e+01	-8.85538403e+01	-4.95681491e+00	-5.18865243e+01
1538231000	-2.96203587e+00	1.45846158e+02	-5.80639511e+01	-8.66069891e+01	-5.76863773e+01	-8.96580604e+01	-4.95911322e+00	-5.20389410e+01
1538516571.43	-2.96125969e+00	1.45809298e+02	-5.78912532e+01	-8.78648188e+01	-5.77082322e+01	-8.96130254e+01	-4.95801363e+00	-5.21809980e+01
1538802142.86	-2.95974163e+00	1.45877046e+02	-5.81662795e+01	-8.68946125e+01	-5.76382865e+01	-9.00277113e+01	-4.95475976e+00	-5.22352107e+01
1539087714.29	-2.95749740e+00	1.45868908e+02	-5.80652121e+01	-8.81026513e+01	-5.77018645e+01	-9.06227355e+01	-4.95482833e+00	-5.23367259e+01
1539373285.71	-2.95995426e+00	1.45879552e+02	-5.81379672e+01	-8.76132737e+01	-5.77635495e+01	-9.11369397e+01	-4.95981381e+00	-5.25504588e+01
1539658857.14	-2.96652163e+00	1.45829093e+02	-5.82639775e+01	-8.84625235e+01	-5.78499113e+01	-9.11433058e+01	-4.96324906e+00	-5.27373064e+01
1539944428.57	-2.96569689e+00	1.45862840e+02	-5.83062828e+01	-8.84667621e+01	-5.77496044e+01	-9.09024092e+01	-4.96181317e+00	-5.28500184e+01
1540230000	-2.96124755e+00	1.45846240e+02	-5.82265468e+01	-8.82609258e+01	-5.77634276e+01	-9.17948467e+01	-4.96659758e+00	-5.29780495e+01
1540515571.43	-2.95898292e+00	1.45840822e+02	-5.81374103e+01	-8.87517760e+01	-5.78790021e+01	-9.23921380e+01	-4.96118477e+00	-5.31181726e+01
1540801142.86	-2.95441706e+00	1.45854498e+02	-5.84103752e+01	-8.90598597e+01	-5.78395154e+01	-9.24484041e+01	-4.95739121e+00	-5.31746633e+01
1541086714.29	-2.96102969e+00	1.45830415e+02	-5.82758645e+01	-8.95764893e+01	-5.77722503e+01	-9.22922211e+01	-4.95930914e+00	-5.33564058e+01
1541372285.71	-2.96187893e+00	1.45829287e+02	-5.83189171e+01	-9.01426354e+01	-5.77993652e+01	-9.23255471e+01	-4.95898743e+00	-5.34603451e+01
1541657857.14	-2.95866345e+00	1.45854452e+02	-5.83795377e+01	-9.05918916e+01	-5.77688125e+01	-9.24597686e+01	-4.96560521e+00	-5.36987971e+01
1541943428.57	-2.95780513e+00	1.45850215e+02	-5.83912138e+01	-9.04369071e+01	-5.79796680e+01	-9.32292205e+01	-4.96518365e+00	-5.37837143e+01
1542229000	-2.95387567e+00	1.45829621e+02	-5.83263801e+01	-9.11113491e+01	-5.79154400e+01	-9.33741668e+01	-4.96364344e+00	-5.39170151e+01
1542514571.43	-2.95221030e+00	1.45825623e+02	-5.84015681e+01	-9.00923107e+01	-5.77980888e+01	-9.38339858e+01	-4.96365526e+00	-5.40418757e+01
1542800142.86	-2.95530080e+00	1.45802700e+02	-5.82372972e+01	-9.12184331e+01	-5.79483159e+01	-9.47491035e+01	-4.96821205e+00	-5.41982621e+01
1543085714.29	-2.95326637e+00	1.45814501e+02	-5.83420777e+01	-9.14691979e+01	-5.79851254e+01	-9.46984048e+01	-4.96577596e+00	-5.42805784e+01
1543371285.71	-2.95915205e+00	1.45829590e+02	-5.84859329e+01	-9.20260541e+01	-5.80809335e+01	-9.39664310e+01	-4.96690109e+00	-5.43703424e+01
1543656857.14	-2.96008642e+00	1.45834496e+02	-5.84976700e+01	-9.19440489e+01	-5.80302561e+01	-9.49615230e+01	-4.96669693e+00	-5.44488641e+01
1543942428.57	-2.95824230e+00	1.45832646e+02	-5.85255854e+01	-9.17700019e+01	-5.81295508e+01	-9.50971841e+01	-4.97374366e+00	-5.45558380e+01
1544228000	-2.96331256e+00	1.45838904e+02	-5.86439729e+01	-9.19724934e+01	-5.79037140e+01	-9.57908244e+01	-4.97299258e+00	-5.46735152e+01
1544513571.43	-2.96219254e+00	1.45852915e+02	-5.84974439e+01	-9.21362352e+01	-5.81200757e+01	-9.51672148e+01	-4.97026252e+00	-5.47172989e+01
1544799142.86	-2.96314226e+00	1.45852417e+02	-5.85454628e+01	-9.28452819e+01	-5.80896565e+01	-9.57279922e+01	-4.97160747e+00	-5.47991117e+01
1545084714.29	-2.96403340e+00	1.45833171e+02	-5.86997080e+01	-9.25756281e+01	-5.81348753e+01	-9.60455053e+01	-4.97553221e+00	-5.48517423e+01
1545370285.71	-2.95811019e+00	1.45848159e+02	-5.87015031e+01	-9.25385706e+01	-5.80270261e+01	-9.59409278e+01	-4.97752459e+00	-5.49644060e+01
1545655857.14	-2.96092930e+00	1.45827397e+02	-5.86673436e+01	-9.32978644e+01	-5.82958177e+01	-9.58034351e+01	-4.97781719e+00	-5.50635249e+01
1545941428.57	-2.95787517e+00	1.45817124e+02	-5.85447826e+01	-9.24935387e+01	-5.81507909e+01	-9.68879598e+01	-4.98472184e+00	-5.51748185e+01
1546227000	-2.96166803e+00	1.45836103e+02	-5.88298451e+01	-9.39470412e+01	-5.80693535e+01	-9.72030170e+01	-4.98142500e+00	-5.52398562e+01
1546512571.43	-2.96369866e+00	1.45819898e+02	-5.86815132e+01	-9.25944098e+01	-5.81791145e+01	-9.76014091e+01	-4.99359131e+00	-5.53364142e+01
1546798142.86	-2.96668830e+00	1.45849249e+02	-5.85972460e+01	-9.30381710e+01	-5.82659694e+01	-9.84141569e+01	-4.99681916e+00	-5.54466347e+01
1547083714.29	-2.96634916e+00	1.45797643e+02	-5.87206092e+01	-9.40247143e+01	-5.81168395e+01	-9.77237182e+01	-5.00009348e+00	-5.54933610e+01
1547369285.71	-2.96436565e+00	1.45772817e+02	-5.87141252e+01	-9.41381154e+01	-5.81150007e+01	-9.76617488e+01	-5.00983921e+00	-5.55736353e+01
1547654857.14	-2.96885951e+00	1.45823322e+02	-5.87120936e+01	-9.27634111e+01	-5.81468875e+01	-9.80948663e+01	-5.00938490e+00	-5.56931682e+01
1547940428.57	-2.96516473e+00	1.45847453e+02	-5.86248777e+01	-9.38954954e+01	-5.82525471e+01	-9.81369550e+01	-5.01190932e+00	-5.57563009e+01
1548226000	-2.96821532e+00	1.45838858e+02	-5.86781702e+01	-9.41340502e+01	-5.81158079e+01	-9.84351088e+01	-5.01151530e+00	-5.58822351e+01
1548511571.43	-2.97383705e+00	1.45824543e+02	-5.87241367e+01	-9.43499062e+01	-5.82210132e+01	-9.94437626e+01	-5.01538989e+00	-5.59627763e+01
1548797142.86	-2.97144081e+00	1.45840364e+02	-5.85832008e+01	-9.42240830e+01	-5.81637538e+01	-9.93730952e+01	-5.03065184e+00	-5.60454197e+01
1549082714.29	-2.97091002e+00	1.45834450e+02	-5.86190720e+01	-9.38686545e+01	-5.81638782e+01	-9.84225071e+01	-5.01490626e+00	-5.61474449e+01
1549368285.71	-2.97345725e+00	1.45842880e+02	-5.86045816e+01	-9.44069882e+01	-5.84069211e+01	-9.97232310e+01	-5.01951950e+00	-5.62419464e+01
1549653857.14	-2.97491586e+00	1.45823453e+02	-5.86302609e+01	-9.51953138e+01	-5.82309107e+01	-9.95823461e+01	-5.02554546e+00	-5.63881536e+01
1549939428.57	-2.97349587e+00	1.45812375e+02	-5.85594524e+01	-9.41853572e+01	-5.82336517e+01	-9.98398561e+01	-5.01578161e+00	-5.64974724e+01
1550225000	-2.98022481e+00	1.45813638e+02	-5.85207489e+01	-9.50369119e+01	-5.82139236e+01	-1.00261158e+02	-5.02322941e+00	-5.65651682e+01
1550510571.43	-2.98191085e+00	1.45818577e+02	-5.85887760e+01	-9.64010146e+01	-5.82383927e+01	-9.93403037e+01	-5.02887045e+00	-5.67226596e+01
1550796142.86	-2.98242598e+00	1.45831011e+02	-5.84926120e+01	-9.59543449e+01	-5.81587054e+01	-1.00318423e+02	-5.03236349e+00	-5.68237615e+01
1551081714.29	-2.98150731e+00	1.45815820e+02	-5.85903031e+01	-9.61331382e+01	-5.82007532e+01	-1.00592430e+02	-5.03427789e+00	-5.69465459e+01
1551367285.71	-2.98517589e+00	1.45790945e+02	-5.86217490e+01	-9.69223949e+01	-5.82102978e+01	-1.01390289e+02	-5.04359154e+00	-5.70596234e+01
1551652857.14	-2.98541505e+00	1.45793909e+02	-5.85210864e+01	-9.66790584e+01	-5.82106543e+01	-1.02248648e+02	-5.04306866e+00	-5.70944143e+01
1551938428.57	-2.98923066e+00	1.45790158e+02	-5.85379087e+01	-9.72343441e+01	-5.84017859e+01	-1.00846004e+02	-5.04166928e+00	-5.71591699e+01
1552224000	-2.98324097e+00	1.45808667e+02	-5.85244780e+01	-9.60744220e+01	-5.83408585e+01	-1.01396017e+02	-5.04596860e+00	-5.72969467e+01
1552509571.43	-2.98670450e+00	1.45796865e+02	-5.85872106e+01	-9.56796336e+01	-5.82383925e+01	-1.02259183e+02	-5.05592731e+00	-5.73822616e+01
1552795142.86	-2.98699111e+00	1.45769757e+02	-5.85751228e+01	-9.74066917e+01	-5.82219099e+01	-1.02906897e+02	-5.05656145e+00	-5.73863004e+01
1553080714.29	-2.98956352e+00	1.45758872e+02	-5.84724354e+01	-9.73153789e+01	-5.81999435e+01	-1.02865975e+02	-5.07824248e+00	-5.74255087e+01
1553366285.71	-2.99045097e+00	1.45754089e+02	-5.85359527e+01	-9.74452707e+01	-5.82095904e+01	-1.02482171e+02	-5.08039544e+00	-5.75196982e+01
1553651857.14	-2.98930993e+00	1.45716538e+02	-5.84524487e+01	-9.84865291e+01	-5.82151604e+01	-1.02647293e+02	-5.08214458e+00	-5.76003790e+01
1553937428.57	-2.99630143e+00	1.45721138e+02	-5.85275180e+01	-9.70725199e+01	-5.81601631e+01	-1.03527022e+02	-5.07807346e+00	-5.76884878e+01
1554223000	-2.99041161e+00	1.45729226e+02	-5.84391481e+01	-9.77844103e+01	-5.82247451e+01	-1.04041745e+02	-5.08737430e+00	-5.78169977e+01
1554508571.43	-2.99027185e+00	1.45735402e+02	-5.84231881e+01	-9.81150274e+01	-5.82472743e+01	-1.03566575e+02	-5.08305343e+00	-5.79275963e+01
1554794142.86	-2.99634654e+00	1.45732331e+02	-5.83593312e+01	-9.89535048e+01	-5.81804473e+01	-1.03839175e+02	-5.08560738e+00	-5.79667250e+01
1555079714.29	-2.99944126e+00	1.45688486e+02	-5.83043709e+01	-9.96561082e+01	-5.81358508e+01	-1.04237871e+02	-5.08556392e+00	-5.82000176e+01
1555365285.71	-2.99585918e+00	1.45700155e+02	-5.82891699e+01	-9.95829342e+01	-5.80795802e+01	-1.04683693e+02	-5.09563555e+00	-5.82559939e+01
1555650857.14	-2.98782735e+00	1.45741476e+02	-5.80867265e+01	-1.00339570e+02	-5.81106421e+01	-1.03993991e+02	-5.10247895e+00	-5.83094948e+01
1555936428.57	-2.99435623e+00	1.45723421e+02	-5.81992772e+01	-9.93324002e+01	-5.81316666e+01	-1.04426110e+02	-5.11285173e+00	-5.83875100e+01
1556222000	-2.99694981e+00	1.45665030e+02	-5.82746085e+01	-1.01553031e+02	-5.80888607e+01	-1.05897206e+02	-5.11519803e+00	-5.85174154e+01
1556507571.43	-2.99724055e+00	1.45677240e+02	-5.81831260e+01	-9.98456478e+01	-5.82125069e+01	-1.05740341e+02	-5.12693035e+00	-5.86054597e+01
1556793142.86	-3.00081075e+00	1.45663579e+02	-5.82190901e+01	-1.00653644e+02	-5.80998954e+01	-1.06661951e+02	-5.12770767e+00	-5.87134739e+01
1557078714.29	-3.00255559e+00	1.45659426e+02	-5.81306088e+01	-1.00997785e+02	-5.81291393e+01	-1.06423258e+02	-5.12744936e+00	-5.87767666e+01
1557364285.71	-3.00434982e+00	1.45664588e+02	-5.82691207e+01	-1.02415266e+02	-5.79400575e+01	-1.06666531e+02	-5.13340712e+00	-5.88516075e+01
1557649857.14	-3.00651740e+00	1.45657389e+02	-5.80836254e+01	-1.01949805e+02	-5.82411814e+01	-1.06377293e+02	-5.13302890e+00	-5.90354768e+01
1557935428.57	-3.00563321e+00	1.45607932e+02	-5.83315275e+01	-1.02747643e+02	-5.80361453e+01	-1.06900348e+02	-5.14057370e+00	-5.90849183e+01
1558221000	-3.00619470e+00	1.45587919e+02	-5.80062064e+01	-1.03177714e+02	-5.81205507e+01	-1.07441167e+02	-5.14609820e+00	-5.92131394e+01
1558506571.43	-3.00799378e+00	1.45588537e+02	-5.81825677e+01	-1.02488311e+02	-5.80777372e+01	-1.07709674e+02	-5.14635991e+00	-5.93087058e+01
1558792142.86	-3.00992287e+00	1.45590332e+02	-5.81624198e+01	-1.03415665e+02	-5.81387649e+01	-1.07437222e+02	-5.14759505e+00	-5.93703109e+01
1559077714.29	-3.00778257e+00	1.45575377e+02	-5.82128208e+01	-1.03807231e+02	-5.80663343e+01	-1.09305415e+02	-5.15295209e+00	-5.95081637e+01
1559363285.71	-3.01170790e+00	1.45594686e+02	-5.81877424e+01	-1.03959586e+02	-5.81005941e+01	-1.08138162e+02	-5.16306006e+00	-5.96217202e+01
1559648857.14	-3.01261129e+00	1.45586860e+02	-5.82344821e+01	-1.04878111e+02	-5.79850551e+01	-1.08616164e+02	-5.16498488e+00	-5.97504421e+01
1559934428.57	-3.01766380e+00	1.45592818e+02	-5.80658536e+01	-1.04329300e+02	-5.80434602e+01	-1.09096105e+02	-5.15964616e+00	-5.97957181e+01
1560220000	-3.01209946e+00	1.45552015e+02	-5.80622215e+01	-1.04288680e+02	-5.80758666e+01	-1.09837404e+02	-5.16440347e+00	-5.98922275e+01
1560505571.43	-3.01823736e+00	1.45562072e+02	-5.79059344e+01	-1.04689988e+02	-5.79302031e+01	-1.09757623e+02	-5.17173250e+00	-5.99702648e+01
1560791142.86	-3.02309587e+00	1.45566249e+02	-5.80033034e+01	-1.05619937e+02	-5.79138677e+01	-1.10052751e+02	-5.17579611e+00	-6.00065434e+01
1561076714.29	-3.02436668e+00	1.45519094e+02	-5.79536759e+01	-1.05207170e+02	-5.80076239e+01	-1.10336318e+02	-5.17528110e+00	-6.01279001e+01
1561362285.71	-3.02111815e+00	1.45504915e+02	-5.78332553e+01	-1.06423531e+02	-5.81273585e+01	-1.10201807e+02	-5.17287457e+00	-6.01510837e+01
1561647857.14	-3.02650534e+00	1.45479346e+02	-5.79018220e+01	-1.07424241e+02	-5.79680728e+01	-1.09909331e+02	-5.18558573e+00	-6.02157362e+01
1561933428.57	-3.02908211e+00	1.45474707e+02	-5.78723881e+01	-1.05724455e+02	-5.79113099e+01	-1.11437623e+02	-5.19025095e+00	-6.03140275e+01
1562219000	-3.02725303e+00	1.45430332e+02	-5.79910023e+01	-1.08741110e+02	-5.79675271e+01	-1.10925601e+02	-5.19862423e+00	-6.03709734e+01
1562504571.43	-3.03200407e+00	1.45396377e+02	-5.78831063e+01	-1.06855827e+02	-5.79313302e+01	-1.11759406e+02	-5.20977123e+00	-6.04660706e+01
1562790142.86	-3.02459535e+00	1.45372727e+02	-5.78299346e+01	-1.07936421e+02	-5.78153352e+01	-1.11898528e+02	-5.20784920e+00	-6.05725191e+01
1563075714.29	-3.03062209e+00	1.45418552e+02	-5.78751135e+01	-1.08669171e+02	-5.79416562e+01	-1.12692632e+02	-5.21580448e+00	-6.06802965e+01
1563361285.71	-3.03411168e+00	1.45373501e+02	-5.78566701e+01	-1.08842818e+02	-5.79441810e+01	-1.12654837e+02	-5.22189183e+00	-6.07786574e+01
1563646857.14	-3.03781299e+00	1.45391304e+02	-5.79888178e+01	-1.08701280e+02	-5.78761886e+01	-1.12718632e+02	-5.23262465e+00	-6.07836456e+01
1563932428.57	-3.04120449e+00	1.45359758e+02	-5.79303797e+01	-1.09013713e+02	-5.78775856e+01	-1.13560843e+02	-5.23679104e+00	-6.09710979e+01
1564218000	-3.04259651e+00	1.45326745e+02	-5.79327283e+01	-1.10596021e+02	-5.78015718e+01	-1.14410013e+02	-5.24103188e+00	-6.10597208e+01
1564503571.43	-3.03924614e+00	1.45327648e+02	-5.77962395e+01	-1.10346733e+02	-5.79188342e+01	-1.14059690e+02	-5.23847959e+00	-6.11595079e+01
1564789142.86	-3.04025827e+00	1.45284286e+02	-5.78211657e+01	-1.10301726e+02	-5.79137746e+01	-1.14897430e+02	-5.24990797e+00	-6.13164096e+01
1565074714.29	-3.04639228e+00	1.45263682e+02	-5.77949300e+01	-1.10560878e+02	-5.77662236e+01	-1.14123101e+02	-5.25905800e+00	-6.13920553e+01
1565360285.71	-3.04508708e+00	1.45221144e+02	-5.77798656e+01	-1.11967283e+02	-5.79101300e+01	-1.15059577e+02	-5.27073102e+00	-6.15072621e+01
1565645857.14	-3.04900986e+00	1.45187336e+02	-5.78204739e+01	-1.11458989e+02	-5.79319099e+01	-1.16418436e+02	-5.27478099e+00	-6.15775281e+01
1565931428.57	-3.05102387e+00	1.45189167e+02	-5.76748943e+01	-1.12072378e+02	-5.78459956e+01	-1.15967414e+02	-5.27285875e+00	-6.16698543e+01
1566217000	-3.04893565e+00	1.45227054e+02	-5.78705083e+01	-1.11465710e+02	-5.77877495e+01	-1.15164169e+02	-5.27969368e+00	-6.17582506e+01
1566502571.43	-3.04190514e+00	1.45169439e+02	-5.76449539e+01	-1.12720820e+02	-5.78401106e+01	-1.16047939e+02	-5.28943886e+00	-6.18198358e+01
1566788142.86	-3.04014249e+00	1.45172558e+02	-5.77241604e+01	-1.12632254e+02	-5.77862022e+01	-1.16373266e+02	-5.30281153e+00	-6.19427361e+01
1567073714.29	-3.04805888e+00	1.45164995e+02	-5.76446807e+01	-1.13766209e+02	-5.78278879e+01	-1.16282504e+02	-5.31213823e+00	-6.19431691e+01
1567359285.71	-3.05194880e+00	1.45164440e+02	-5.77142450e+01	-1.13630560e+02	-5.78576212e+01	-1.17145393e+02	-5.32335317e+00	-6.20237046e+01
1567644857.14	-3.04708073e+00	1.45170348e+02	-5.76523257e+01	-1.13870474e+02	-5.77802855e+01	-1.16769557e+02	-5.33244771e+00	-6.21064043e+01
1567930428.57	-3.05700882e+00	1.45177223e+02	-5.76668283e+01	-1.14081770e+02	-5.77065158e+01	-1.17029912e+02	-5.33017215e+00	-6.21862625e+01
1568216000	-3.05078136e+00	1.45146661e+02	-5.77250547e+01	-1.14459055e+02	-5.78131331e+01	-1.18036759e+02	-5.34429598e+00	-6.21696251e+01
1568501571.43	-3.05090183e+00	1.45108644e+02	-5.74447523e+01	-1.14149352e+02	-5.78001552e+01	-1.18581068e+02	-5.36357261e+00	-6.22771136e+01
1568787142.86	-3.04712355e+00	1.45116409e+02	-5.76800998e+01	-1.15967418e+02	-5.77077920e+01	-1.18826212e+02	-5.37052896e+00	-6.22474190e+01
1569072714.29	-3.05547192e+00	1.45116890e+02	-5.76891577e+01	-1.15877531e+02	-5.76693036e+01	-1.18789499e+02	-5.37627461e+00	-6.23401068e+01
1569358285.71	-3.05536923e+00	1.45073878e+02	-5.76646056e+01	-1.16303918e+02	-5.76978530e+01	-1.19545645e+02	-5.38935411e+00	-6.23468754e+01
1569643857.14	-3.05820334e+00	1.45084256e+02	-5.78473570e+01	-1.16836818e+02	-5.77705739e+01	-1.19531650e+02	-5.39958194e+00	-6.24258536e+01
1569929428.57	-3.06055832e+00	1.45019247e+02	-5.76783670e+01	-1.16296671e+02	-5.77259538e+01	-1.19348439e+02	-5.40378113e+00	-6.25068896e+01
1570215000	-3.06373951e+00	1.44997709e+02	-5.76788508e+01	-1.17184403e+02	-5.77618716e+01	-1.19834960e+02	-5.41712823e+00	-6.25365959e+01
1570500571.43	-3.05974362e+00	1.45005380e+02	-5.76610946e+01	-1.16862679e+02	-5.77419365e+01	-1.20978240e+02	-5.43692134e+00	-6.26473564e+01
1570786142.86	-3.06445548e+00	1.44958137e+02	-5.75273855e+01	-1.17259218e+02	-5.76336021e+01	-1.20456157e+02	-5.43992310e+00	-6.27181971e+01
1571071714.29	-3.06278570e+00	1.44917804e+02	-5.74976650e+01	-1.18921587e+02	-5.76032652e+01	-1.21064369e+02	-5.45070586e+00	-6.27959826e+01
1571357285.71	-3.06591422e+00	1.44911667e+02	-5.74675736e+01	-1.18686165e+02	-5.75953489e+01	-1.21240019e+02	-5.45529897e+00	-6.28955604e+01
1571642857.14	-3.07015601e+00	1.44914015e+02	-5.76429395e+01	-1.18563550e+02	-5.75378035e+01	-1.21131207e+02	-5.47410232e+00	-6.29535617e+01
1571928428.57	-3.07159838e+00	1.44892777e+02	-5.74337632e+01	-1.19559531e+02	-5.77736986e+01	-1.21081734e+02	-5.47619966e+00	-6.30929200e+01
1572214000	-3.07336113e+00	1.44812879e+02	-5.75422175e+01	-1.19702421e+02	-5.75429527e+01	-1.22351364e+02	-5.48849490e+00	-6.31296328e+01
1572499571.43	-3.06750906e+00	1.44781968e+02	-5.75322367e+01	-1.19697227e+02	-5.76191906e+01	-1.22426711e+02	-5.48674307e+00	-6.31608070e+01
1572785142.86	-3.07109826e+00	1.44833518e+02	-5.74664709e+01	-1.20940303e+02	-5.75055521e+01	-1.23990643e+02	-5.49870667e+00	-6.32502983e+01
1573070714.29	-3.07195966e+00	1.44821304e+02	-5.73180445e+01	-1.20323551e+02	-5.74876095e+01	-1.23528947e+02	-5.50416183e+00	-6.33766084e+01
1573356285.71	-3.07264581e+00	1.44861381e+02	-5.74162317e+01	-1.21014206e+02	-5.75522882e+01	-1.24142410e+02	-5.51486410e+00	-6.34227782e+01
1573641857.14	-3.07598734e+00	1.44783000e+02	-5.75206774e+01	-1.21372038e+02	-5.74940362e+01	-1.25302072e+02	-5.52199357e+00	-6.34981136e+01
1573927428.57	-3.07390376e+00	1.44746773e+02	-5.73830871e+01	-1.21591648e+02	-5.74586245e+01	-1.23987230e+02	-5.52814372e+00	-6.36251513e+01
1574213000	-3.08184340e+00	1.44688029e+02	-5.74468464e+01	-1.22061851e+02	-5.74645652e+01	-1.24755431e+02	-5.53310975e+00	-6.37328060e+01
1574498571.43	-3.08039038e+00	1.44645461e+02	-5.73537985e+01	-1.22887988e+02	-5.74266297e+01	-1.25347560e+02	-5.54291741e+00	-6.38135647e+01
1574784142.86	-3.07719146e+00	1.44694974e+02	-5.75211870e+01	-1.22952507e+02	-5.74828128e+01	-1.26209517e+02	-5.54717217e+00	-6.38831898e+01
1575069714.29	-3.07645338e+00	1.44636559e+02	-5.72880260e+01	-1.22301840e+02	-5.73816475e+01	-1.26945113e+02	-5.55226464e+00	-6.40022865e+01
1575355285.71	-3.08217170e+00	1.44663177e+02	-5.74358102e+01	-1.23961645e+02	-5.74671870e+01	-1.25232246e+02	-5.56657769e+00	-6.41112222e+01
1575640857.14	-3.08518621e+00	1.44667082e+02	-5.71953704e+01	-1.24399018e+02	-5.74794065e+01	-1.26744238e+02	-5.57329565e+00	-6.42026996e+01
1575926428.57	-3.08178364e+00	1.44623011e+02	-5.73782831e+01	-1.24244714e+02	-5.74260065e+01	-1.27423686e+02	-5.58620087e+00	-6.42717672e+01
1576212000	-3.08069318e+00	1.44575426e+02	-5.73008351e+01	-1.24313327e+02	-5.74401934e+01	-1.27273526e+02	-5.60136110e+00	-6.43070412e+01
1576497571.43	-3.08390767e+00	1.44543709e+02	-5.71838906e+01	-1.25510379e+02	-5.74756053e+01	-1.28081226e+02	-5.60844328e+00	-6.44594408e+01
1576783142.86	-3.08907973e+00	1.44549178e+02	-5.72814506e+01	-1.26140045e+02	-5.72957668e+01	-1.28167357e+02	-5.60846960e+00	-6.45620775e+01
1577068714.29	-3.08971547e+00	1.44579638e+02	-5.72639468e+01	-1.26422671e+02	-5.72991302e+01	-1.28251826e+02	-5.61519818e+00	-6.46167167e+01
1577354285.71	-3.09027133e+00	1.44536249e+02	-5.72748159e+01	-1.26223085e+02	-5.73970761e+01	-1.28557182e+02	-5.62181561e+00	-6.46988918e+01
1577639857.14	-3.08824395e+00	1.44495750e+02	-5.72791060e+01	-1.26304314e+02	-5.73092098e+01	-1.29473396e+02	-5.62522663e+00	-6.47855808e+01
1577925428.57	-3.09372658e+00	1.44482856e+02	-5.73478128e+01	-1.27171502e+02	-5.72657804e+01	-1.29325149e+02	-5.63785413e+00	-6.49035489e+01
1578211000	-3.09607939e+00	1.44422782e+02	-5.71859257e+01	-1.26935268e+02	-5.72159138e+01	-1.31086264e+02	-5.64984691e+00	-6.49568327e+01
1578496571.43	-3.09558050e+00	1.44373078e+02	-5.71767501e+01	-1.27461726e+02	-5.71672375e+01	-1.30990617e+02	-5.66663072e+00	-6.49655575e+01
1578782142.86	-3.09542266e+00	1.44345563e+02	-5.73116474e+01	-1.28162136e+02	-5.72038451e+01	-1.31368109e+02	-5.67396126e+00	-6.50759633e+01
1579067714.29	-3.10023128e+00	1.44330807e+02	-5.71849180e+01	-1.28691713e+02	-5.71466186e+01	-1.31797260e+02	-5.67492282e+00	-6.51811779e+01
1579353285.71	-3.09891646e+00	1.44312270e+02	-5.71203007e+01	-1.28751889e+02	-5.72350098e+01	-1.31915747e+02	-5.67800694e+00	-6.52485339e+01
1579638857.14	-3.10197069e+00	1.44315760e+02	-5.72470026e+01	-1.29757296e+02	-5.72354959e+01	-1.32417481e+02	-5.69584405e+00	-6.53409104e+01
1579924428.57	-3.10748890e+00	1.44325928e+02	-5.71053513e+01	-1.29791763e+02	-5.70826982e+01	-1.31967123e+02	-5.69660975e+00	-6.54718403e+01
1580210000	-3.09998722e+00	1.44279818e+02	-5.71478414e+01	-1.30398597e+02	-5.72512632e+01	-1.32749354e+02	-5.71514156e+00	-6.55606566e+01
1580495571.43	-3.09772146e+00	1.44223448e+02	-5.70905796e+01	-1.30867209e+02	-5.71415772e+01	-1.33628913e+02	-5.72004924e+00	-6.56670587e+01
1580781142.86	-3.09125862e+00	1.44179261e+02	-5.69991200e+01	-1.31450039e+02	-5.70895287e+01	-1.34022567e+02	-5.73122745e+00	-6.57605006e+01
1581066714.29	-3.09822124e+00	1.44159778e+02	-5.70531798e+01	-1.32200096e+02	-5.70704991e+01	-1.34096302e+02	-5.73542102e+00	-6.58291389e+01
1581352285.71	-3.10124999e+00	1.44169222e+02	-5.70280134e+01	-1.32627089e+02	-5.70865294e+01	-1.34251156e+02	-5.74050537e+00	-6.59716787e+01
1581637857.14	-3.10538497e+00	1.44119488e+02	-5.72131714e+01	-1.32224243e+02	-5.71803615e+01	-1.35536264e+02	-5.75155210e+00	-6.60661622e+01
1581923428.57	-3.11645611e+00	1.44079367e+02	-5.69738345e+01	-1.33125103e+02	-5.71138360e+01	-1.35712868e+02	-5.75919722e+00	-6.61603800e+01
1582209000	-3.11482158e+00	1.44044148e+02	-5.69825403e+01	-1.33423405e+02	-5.72109983e+01	-1.35078944e+02	-5.77171185e+00	-6.62725862e+01
1582494571.43	-3.11662981e+00	1.44023827e+02	-5.71214512e+01	-1.33951274e+02	-5.71214861e+01	-1.36335083e+02	-5.77220080e+00	-6.63423802e+01
1582780142.86	-3.11272012e+00	1.43992514e+02	-5.70622805e+01	-1.34084546e+02	-5.70742193e+01	-1.36599397e+02	-5.76699489e+00	-6.64574166e+01
1583065714.29	-3.11289758e+00	1.44004105e+02	-5.70216242e+01	-1.34022337e+02	-5.69571457e+01	-1.37319018e+02	-5.77698968e+00	-6.65656003e+01
1583351285.71	-3.11441545e+00	1.43997469e+02	-5.69318205e+01	-1.34959865e+02	-5.70819500e+01	-1.37768086e+02	-5.78022238e+00	-6.66174552e+01
1583636857.14	-3.11883268e+00	1.43930987e+02	-5.69104612e+01	-1.34675791e+02	-5.71133692e+01	-1.36634341e+02	-5.79600088e+00	-6.68241654e+01
1583922428.57	-3.12185848e+00	1.43930623e+02	-5.69435609e+01	-1.36040463e+02	-5.68836076e+01	-1.37619825e+02	-5.79855532e+00	-6.69755992e+01
1584208000	-3.11600885e+00	1.43894183e+02	-5.68356762e+01	-1.35732779e+02	-5.70261630e+01	-1.38548983e+02	-5.80883993e+00	-6.70037781e+01
1584493571.43	-3.11531367e+00	1.43827631e+02	-5.70253410e+01	-1.36284504e+02	-5.70070118e+01	-1.38485754e+02	-5.81500331e+00	-6.71384461e+01
1584779142.86	-3.11325155e+00	1.43825764e+02	-5.70373886e+01	-1.36757164e+02	-5.69437694e+01	-1.39796434e+02	-5.82889063e+00	-6.72232666e+01
1585064714.29	-3.12265446e+00	1.43823717e+02	-5.68282629e+01	-1.36785060e+02	-5.69783318e+01	-1.39436723e+02	-5.83267539e+00	-6.72299434e+01
1585350285.71	-3.11486297e+00	1.43800191e+02	-5.68505170e+01	-1.37063811e+02	-5.69520131e+01	-1.39593408e+02	-5.83789608e+00	-6.73590059e+01
1585635857.14	-3.12273158e+00	1.43735450e+02	-5.68702131e+01	-1.38291133e+02	-5.71514860e+01	-1.40313814e+02	-5.84096402e+00	-6.74706076e+01
1585921428.57	-3.12290040e+00	1.43666110e+02	-5.68745359e+01	-1.38948028e+02	-5.69167309e+01	-1.40920928e+02	-5.85119291e+00	-6.76265141e+01
1586207000	-3.12531234e+00	1.43636603e+02	-5.68988687e+01	-1.39736023e+02	-5.68738804e+01	-1.41389664e+02	-5.86598427e+00	-6.76557785e+01
1586492571.43	-3.12731105e+00	1.43607412e+02	-5.69216990e+01	-1.39273255e+02	-5.68956399e+01	-1.41075730e+02	-5.86985131e+00	-6.77182797e+01
1586778142.86	-3.12236503e+00	1.43578119e+02	-5.68623133e+01	-1.39913065e+02	-5.69195179e+01	-1.41972435e+02	-5.87695192e+00	-6.78078499e+01
1587063714.29	-3.12025620e+00	1.43546871e+02	-5.68533938e+01	-1.40792605e+02	-5.67751064e+01	-1.42472778e+02	-5.88388031e+00	-6.79064188e+01
1587349285.71	-3.11910321e+00	1.43530728e+02	-5.67460935e+01	-1.40762136e+02	-5.69356226e+01	-1.42450096e+02	-5.89019260e+00	-6.79714472e+01
1587634857.14	-3.12634121e+00	1.43514800e+02	-5.68424191e+01	-1.40628644e+02	-5.68229331e+01	-1.42792932e+02	-5.89914498e+00	-6.80768699e+01
1587920428.57	-3.12020798e+00	1.43460369e+02	-5.67268435e+01	-1.41977464e+02	-5.67736695e+01	-1.43249439e+02	-5.90812071e+00	-6.81444554e+01
1588206000	-3.12699337e+00	1.43466876e+02	-5.67142042e+01	-1.41787047e+02	-5.68365061e+01	-1.43272881e+02	-5.91669448e+00	-6.82597542e+01
1588491571.43	-3.12537124e+00	1.43462030e+02	-5.68469536e+01	-1.41916861e+02	-5.67349564e+01	-1.44364917e+02	-5.90989302e+00	-6.82690682e+01
1588777142.86	-3.12764202e+00	1.43448516e+02	-5.68156975e+01	-1.42966889e+02	-5.68093646e+01	-1.44642445e+02	-5.90215115e+00	-6.83243448e+01
1589062714.29	-3.12484970e+00	1.43448653e+02	-5.65809642e+01	-1.43202683e+02	-5.67685511e+01	-1.45509062e+02	-5.92097049e+00	-6.83270790e+01
1589348285.71	-3.12349743e+00	1.43409502e+02	-5.66366106e+01	-1.43163400e+02	-5.67224187e+01	-1.45532400e+02	-5.92179629e+00	-6.85114620e+01
1589633857.14	-3.12185130e+00	1.43393634e+02	-5.66448492e+01	-1.44134156e+02	-5.67747531e+01	-1.46516809e+02	-5.92851108e+00	-6.84607843e+01
1589919428.57	-3.12541745e+00	1.43357236e+02	-5.66092533e+01	-1.44324806e+02	-5.67489256e+01	-1.46361382e+02	-5.91586689e+00	-6.85647605e+01
1590205000	-3.12527806e+00	1.43350252e+02	-5.66270527e+01	-1.45013837e+02	-5.66532995e+01	-1.46338534e+02	-5.92780669e+00	-6.86470600e+01
1590490571.43	-3.11974149e+00	1.43352283e+02	-5.66507756e+01	-1.45511105e+02	-5.67496743e+01	-1.47507612e+02	-5.93153325e+00	-6.87177678e+01
1590776142.86	-3.12070984e+00	1.43301495e+02	-5.65616339e+01	-1.45299837e+02	-5.66580382e+01	-1.47971298e+02	-5.93234026e+00	-6.88017692e+01
1591061714.29	-3.11865343e+00	1.43285511e+02	-5.66785873e+01	-1.47371696e+02	-5.66839233e+01	-1.47734458e+02	-5.93981072e+00	-6.87990014e+01
1591347285.71	-3.11853987e+00	1.43283443e+02	-5.66100978e+01	-1.46372435e+02	-5.67082889e+01	-1.48858280e+02	-5.94071828e+00	-6.89501423e+01
1591632857.14	-3.11521173e+00	1.43238308e+02	-5.65081158e+01	-1.47179409e+02	-5.66418476e+01	-1.49141201e+02	-5.94363262e+00	-6.89915059e+01
1591918428.57	-3.11653277e+00	1.43227713e+02	-5.66308020e+01	-1.46903710e+02	-5.65782099e+01	-1.49685900e+02	-5.94432788e+00	-6.91184980e+01
1592204000	-3.12119499e+00	1.43231984e+02	-5.65680807e+01	-1.48331990e+02	-5.66188348e+01	-1.50398639e+02	-5.94980956e+00	-6.91965766e+01
1592489571.43	-3.11666339e+00	1.43229877e+02	-5.66177018e+01	-1.47805009e+02	-5.66235564e+01	-1.50025558e+02	-5.94400447e+00	-6.92440479e+01
1592775142.86	-3.11498114e+00	1.43247529e+02	-5.65909235e+01	-1.49256675e+02	-5.66229142e+01	-1.50889868e+02	-5.95447158e+00	-6.93072002e+01
1593060714.29	-3.11768421e+00	1.43236319e+02	-5.66062694e+01	-1.49780340e+02	-5.65583807e+01	-1.52455961e+02	-5.95309496e+00	-6.93922954e+01
1593346285.71	-3.11797385e+00	1.43189830e+02	-5.65776842e+01	-1.49618625e+02	-5.66433291e+01	-1.51813365e+02	-5.95387591e+00	-6.94724307e+01
1593631857.14	-3.11814696e+00	1.43145480e+02	-5.65229543e+01	-1.50567431e+02	-5.65026629e+01	-1.52533960e+02	-5.96086091e+00	-6.95540202e+01
1593917428.57	-3.11424509e+00	1.43131150e+02	-5.65537673e+01	-1.51210240e+02	-5.65271345e+01	-1.52866356e+02	-5.96335402e+00	-6.95645875e+01
1594203000	-3.11709330e+00	1.43107628e+02	-5.65648125e+01	-1.51690629e+02	-5.66635512e+01	-1.53008345e+02	-5.97255400e+00	-6.96783516e+01
1594488571.43	-3.12085239e+00	1.43081609e+02	-5.65896122e+01	-1.51911881e+02	-5.65704184e+01	-1.54024212e+02	-5.96818678e+00	-6.96843049e+01
1594774142.86	-3.11979481e+00	1.43029060e+02	-5.65000696e+01	-1.52849717e+02	-5.64815381e+01	-1.54677758e+02	-5.97959244e+00	-6.98202817e+01
1595059714.29	-3.12183005e+00	1.43004176e+02	-5.66120403e+01	-1.53637556e+02	-5.65166086e+01	-1.54831124e+02	-5.97578162e+00	-6.98538283e+01
1595345285.71	-3.12097968e+00	1.43012610e+02	-5.63886405e+01	-1.53239719e+02	-5.64659996e+01	-1.55627982e+02	-5.96347713e+00	-6.99286665e+01
1595630857.14	-3.11871032e+00	1.43022758e+02	-5.63781599e+01	-1.53575005e+02	-5.64705424e+01	-1.55720894e+02	-5.95942021e+00	-7.00351571e+01
1595916428.57	-3.11367500e+00	1.43024964e+02	-5.64637958e+01	-1.55084055e+02	-5.64522142e+01	-1.57105729e+02	-5.96901835e+00	-7.00390890e+01
1596202000	-3.11456425e+00	1.43000114e+02	-5.64776237e+01	-1.54625922e+02	-5.64739657e+01	-1.55845540e+02	-5.97010385e+00	-7.01022664e+01
1596487571.43	-3.11821176e+00	1.42980914e+02	-5.65646657e+01	-1.55222313e+02	-5.63927928e+01	-1.57261263e+02	-5.96892217e+00	-7.01211724e+01
1596773142.86	-3.11367290e+00	1.42988201e+02	-5.63878593e+01	-1.55899646e+02	-5.64841533e+01	-1.57991811e+02	-5.97133006e+00	-7.02524272e+01
1597058714.29	-3.11443745e+00	1.42977928e+02	-5.64356378e+01	-1.56236122e+02	-5.64388837e+01	-1.57788316e+02	-5.97287013e+00	-7.02764854e+01
1597344285.71	-3.11443171e+00	1.42922392e+02	-5.64326062e+01	-1.56664682e+02	-5.64750246e+01	-1.58262111e+02	-5.97000477e+00	-7.02947489e+01
1597629857.14	-3.11445489e+00	1.42948029e+02	-5.64552084e+01	-1.57835576e+02	-5.64854165e+01	-1.59106629e+02	-5.96985021e+00	-7.03553463e+01
1597915428.57	-3.11152031e+00	1.42943548e+02	-5.64727001e+01	-1.57729490e+02	-5.64334122e+01	-1.59102984e+02	-5.97159480e+00	-7.04381187e+01
1598201000	-3.11087907e+00	1.42938823e+02	-5.65699820e+01	-1.58751513e+02	-5.64144482e+01	-1.60158519e+02	-5.95838216e+00	-7.05062637e+01
1598486571.43	-3.10925652e+00	1.42917796e+02	-5.65919944e+01	-1.58437219e+02	-5.64463183e+01	-1.61049601e+02	-5.95870437e+00	-7.05442749e+01
1598772142.86	-3.10852676e+00	1.42954153e+02	-5.64874087e+01	-1.59295629e+02	-5.63136138e+01	-1.61357971e+02	-5.96381323e+00	-7.06464804e+01
1599057714.29	-3.10643067e+00	1.42898161e+02	-5.66081422e+01	-1.60209527e+02	-5.64355598e+01	-1.61501639e+02	-5.95985636e+00	-7.05931813e+01
1599343285.71	-3.10571890e+00	1.42881579e+02	-5.64277424e+01	-1.60017697e+02	-5.63336210e+01	-1.62715880e+02	-5.96284264e+00	-7.06961048e+01
1599628857.14	-3.10415417e+00	1.42866514e+02	-5.65764698e+01	-1.60433621e+02	-5.64852170e+01	-1.62100371e+02	-5.94683896e+00	-7.07479687e+01
1599914428.57	-3.10416717e+00	1.42840072e+02	-5.65319241e+01	-1.61215619e+02	-5.63447855e+01	-1.62798179e+02	-5.95338366e+00	-7.07788866e+01
1600200000	-3.10013657e+00	1.42867788e+02	-5.64235292e+01	-1.60985451e+02	-5.63527625e+01	-1.63510654e+02	-5.94827486e+00	-7.08728107e+01
1600485571.43	-3.10494870e+00	1.42854568e+02	-5.64158462e+01	-1.62065116e+02	-5.64403806e+01	-1.63291104e+02	-5.95494645e+00	-7.08813663e+01
1600771142.86	-3.11061341e+00	1.42865258e+02	-5.63774882e+01	-1.62608821e+02	-5.63953995e+01	-1.64737716e+02	-5.94115943e+00	-7.09120388e+01
1601056714.29	-3.09817016e+00	1.42843399e+02	-5.65198853e+01	-1.63633691e+02	-5.64678296e+01	-1.64991567e+02	-5.93552298e+00	-7.09269394e+01
1601342285.71	-3.10226962e+00	1.42854440e+02	-5.64682598e+01	-1.63622728e+02	-5.64443402e+01	-1.65254349e+02	-5.93317270e+00	-7.08824307e+01
1601627857.14	-3.09953977e+00	1.42829908e+02	-5.64242404e+01	-1.63629430e+02	-5.64179805e+01	-1.65557881e+02	-5.93675247e+00	-7.09089852e+01
1601913428.57	-3.10258699e+00	1.42836952e+02	-5.64218233e+01	-1.64465690e+02	-5.64376863e+01	-1.65821072e+02	-5.92964744e+00	-7.09174871e+01
1602199000	-3.09965824e+00	1.42823666e+02	-5.64720686e+01	-1.65260938e+02	-5.64800177e+01	-1.67225124e+02	-5.93333187e+00	-7.09965612e+01
1602484571.43	-3.08989682e+00	1.42807148e+02	-5.64509181e+01	-1.65965206e+02	-5.65065599e+01	-1.67610635e+02	-5.93088445e+00	-7.09553437e+01
1602770142.86	-3.09514153e+00	1.42766997e+02	-5.64371367e+01	-1.65460576e+02	-5.64156613e+01	-1.67234453e+02	-5.92459571e+00	-7.09749981e+01
1603055714.29	-3.09373843e+00	1.42780683e+02	-5.63782902e+01	-1.65832034e+02	-5.63793832e+01	-1.67753277e+02	-5.92190917e+00	-7.09988077e+01
1603341285.71	-3.09482593e+00	1.42812474e+02	-5.63928929e+01	-1.66585925e+02	-5.64298303e+01	-1.68108135e+02	-5.91998155e+00	-7.11206309e+01
1603626857.14	-3.09988083e+00	1.42792506e+02	-5.64285730e+01	-1.66895618e+02	-5.64006272e+01	-1.68946433e+02	-5.92823314e+00	-7.11313343e+01
1603912428.57	-3.09228546e+00	1.42793414e+02	-5.63914429e+01	-1.67145560e+02	-5.65477677e+01	-1.69584704e+02	-5.91840331e+00	-7.11962080e+01
1604198000	-3.09863769e+00	1.42802277e+02	-5.65146002e+01	-1.68306946e+02	-5.64785065e+01	-1.69849521e+02	-5.92539934e+00	-7.13368176e+01
1604483571.43	-3.09956555e+00	1.42806685e+02	-5.66101522e+01	-1.68120849e+02	-5.64125185e+01	-1.69661531e+02	-5.91361990e+00	-7.14149900e+01
1604769142.86	-3.09586228e+00	1.42793222e+02	-5.64517702e+01	-1.68878443e+02	-5.64366243e+01	-1.70775916e+02	-5.91334072e+00	-7.14467855e+01
1605054714.29	-3.08968766e+00	1.42758803e+02	-5.64236169e+01	-1.68926357e+02	-5.63528075e+01	-1.71329228e+02	-5.91108922e+00	-7.15339614e+01
1605340285.71	-3.08740532e+00	1.42769793e+02	-5.64641011e+01	-1.69246005e+02	-5.64726435e+01	-1.71759234e+02	-5.91081468e+00	-7.15732871e+01
1605625857.14	-3.09447694e+00	1.42761965e+02	-5.64764371e+01	-1.70197335e+02	-5.65375065e+01	-1.71379268e+02	-5.90493764e+00	-7.16695178e+01
1605911428.57	-3.09882147e+00	1.42737505e+02	-5.64630404e+01	-1.70376670e+02	-5.64009828e+01	-1.72403707e+02	-5.91697952e+00	-7.17454080e+01
1606197000	-3.09736053e+00	1.42752431e+02	-5.64305010e+01	-1.71225238e+02	-5.64417801e+01	-1.72993175e+02	-5.90588885e+00	-7.17439712e+01
1606482571.43	-3.09079851e+00	1.42754758e+02	-5.65112482e+01	-1.70879575e+02	-5.63835843e+01	-1.72636425e+02	-5.90696094e+00	-7.18586397e+01
1606768142.86	-3.09003338e+00	1.42786126e+02	-5.63818287e+01	-1.72373087e+02	-5.63772071e+01	-1.73744845e+02	-5.89190223e+00	-7.18587929e+01
1607053714.29	-3.08786523e+00	1.42780452e+02	-5.64666208e+01	-1.72248495e+02	-5.64100196e+01	-1.73506814e+02	-5.89836277e+00	-7.19741729e+01
1607339285.71	-3.08991164e+00	1.42791713e+02	-5.65156874e+01	-1.72661987e+02	-5.64943721e+01	-1.74483656e+02	-5.88542561e+00	-7.20161330e+01
1607624857.14	-3.08807248e+00	1.42788604e+02	-5.64214502e+01	-1.72688236e+02	-5.64351839e+01	-1.73964109e+02	-5.89358099e+00	-7.20683222e+01
1607910428.57	-3.09334002e+00	1.42816594e+02	-5.64272818e+01	-1.72729562e+02	-5.64064364e+01	-1.74842779e+02	-5.87668156e+00	-7.21508839e+01
1608196000	-3.09504162e+00	1.42823019e+02	-5.64239278e+01	-1.73905930e+02	-5.63765948e+01	-1.75633328e+02	-5.86945580e+00	-7.21578289e+01
1608481571.43	-3.09458967e+00	1.42821254e+02	-5.63471466e+01	-1.73890336e+02	-5.63589395e+01	-1.75762749e+02	-5.87091445e+00	-7.22608637e+01
1608767142.86	-3.09591228e+00	1.42827418e+02	-5.64412592e+01	-1.73874153e+02	-5.63424337e+01	-1.76002082e+02	-5.87179047e+00	-7.22550202e+01
1609052714.29	-3.09410606e+00	1.42846149e+02	-5.61831613e+01	-1.74780284e+02	-5.64504490e+01	-1.76632462e+02	-5.86873152e+00	-7.22792685e+01
1609338285.71	-3.09004284e+00	1.42845263e+02	-5.63852805e+01	-1.75494920e+02	-5.63073779e+01	-1.77280940e+02	-5.86771136e+00	-7.23813773e+01
1609623857.14	-3.09334201e+00	1.42866066e+02	-5.62940870e+01	-1.75992397e+02	-5.63832594e+01	-1.77212916e+02	-5.86587666e+00	-7.23964435e+01
1609909428.57	-3.09593071e+00	1.42828354e+02	-5.63938955e+01	-1.76195493e+02	-5.63063930e+01	-1.77873301e+02	-5.86335278e+00	-7.24574165e+01
1610195000	-3.09295494e+00	1.42855278e+02	-5.62786135e+01	-1.76852966e+02	-5.64087430e+01	-1.78252125e+02	-5.87053789e+00	-7.24580797e+01
1610480571.43	-3.09299906e+00	1.42841736e+02	-5.62166976e+01	-1.77133569e+02	-5.62962085e+01	-1.78932429e+02	-5.87961794e+00	-7.24676186e+01
1610766142.86	-3.09455978e+00	1.42826932e+02	-5.62081028e+01	-1.77935192e+02	-5.64122754e+01	-1.79293771e+02	-5.87846560e+00	-7.25154698e+01
1611051714.29	-3.09886975e+00	1.42855530e+02	-5.63226478e+01	-1.78527412e+02	-5.64014001e+01	-1.79352331e+02	-5.87408926e+00	-7.25706368e+01
1611337285.71	-3.09629538e+00	1.42886294e+02	-5.62363004e+01	-1.78166861e+02	-5.63851242e+01	1.79932671e+02	-5.86707077e+00	-7.25680631e+01
1611622857.14	-3.09635539e+00	1.42884393e+02	-5.62469609e+01	-1.78500547e+02	-5.63911136e+01	1.79121202e+02	-5.87402229e+00	-7.26102689e+01
1611908428.57	-3.09730288e+00	1.42875888e+02	-5.62602781e+01	-1.79312580e+02	-5.63092430e+01	1.78480075e+02	-5.87369194e+00	-7.26584787e+01
1612194000	-3.09371427e+00	1.42890097e+02	-5.61730534e+01	-1.79937122e+02	-5.63433398e+01	1.79054293e+02	-5.86854556e+00	-7.26838938e+01
1612479571.43	-3.09279755e+00	1.42899793e+02	-5.62172067e+01	-1.79701794e+02	-5.63498273e+01	1.77961210e+02	-5.86063109e+00	-7.27666377e+01
1612765142.86	-3.09777568e+00	1.42877689e+02	-5.62623110e+01	1.79627844e+02	-5.63162576e+01	1.77939073e+02	-5.86064753e+00	-7.28900122e+01
1613050714.29	-3.10223479e+00	1.42905343e+02	-5.61586477e+01	1.79233387e+02	-5.62709958e+01	1.77488926e+02	-5.85115937e+00	-7.29588174e+01
1613336285.71	-3.10148437e+00	1.42905843e+02	-5.61962576e+01	1.77714234e+02	-5.62978002e+01	1.77329316e+02	-5.84540093e+00	-7.29819005e+01
1613621857.14	-3.10130145e+00	1.42914148e+02	-5.62163454e+01	1.77134574e+02	-5.62270658e+01	1.76604412e+02	-5.83709697e+00	-7.30477865e+01
1613907428.57	-3.10307078e+00	1.42953946e+02	-5.60467225e+01	1.77134449e+02	-5.63072195e+01	1.76110975e+02	-5.83344062e+00	-7.30898536e+01
1614193000	-3.10797388e+00	1.43003608e+02	-5.62901297e+01	1.77002736e+02	-5.61924463e+01	1.75445468e+02	-5.82692402e+00	-7.31309561e+01
1614478571.43	-3.10334324e+00	1.42979079e+02	-5.61592026e+01	1.76025426e+02	-5.62287496e+01	1.75295865e+02	-5.82505321e+00	-7.32052687e+01
1614764142.86	-3.09923729e+00	1.42931216e+02	-5.61306809e+01	1.75167991e+02	-5.62283157e+01	1.74190674e+02	-5.82248287e+00	-7.32525429e+01
1615049714.29	-3.10400935e+00	1.42940721e+02	-5.60921730e+01	1.75493829e+02	-5.61697797e+01	1.74298088e+02	-5.82840807e+00	-7.32866813e+01
1615335285.71	-3.11164282e+00	1.42982366e+02	-5.60750997e+01	1.75680666e+02	-5.62518437e+01	1.73576764e+02	-5.81628815e+00	-7.33552203e+01
1615620857.14	-3.11068726e+00	1.42973226e+02	-5.61508238e+01	1.74518395e+02	-5.60578525e+01	1.73587480e+02	-5.81969498e+00	-7.33658848e+01
1615906428.57	-3.10921350e+00	1.42971062e+02	-5.61046231e+01	1.73522939e+02	-5.62844689e+01	1.72611726e+02	-5.81108165e+00	-7.34111187e+01
1616192000	-3.10924860e+00	1.42969269e+02	-5.61352615e+01	1.73860395e+02	-5.61003357e+01	1.71654727e+02	-5.80132233e+00	-7.34749732e+01
1616477571.43	-3.10837699e+00	1.42980646e+02	-5.62407945e+01	1.73163243e+02	-5.62328717e+01	1.71904370e+02	-5.78652778e+00	-7.35183769e+01
1616763142.86	-3.10018193e+00	1.42952555e+02	-5.60981361e+01	1.71906061e+02	-5.61428969e+01	1.70746796e+02	-5.77683233e+00	-7.35750766e+01
1617048714.29	-3.10556087e+00	1.42987307e+02	-5.60140152e+01	1.72140297e+02	-5.61041342e+01	1.70534290e+02	-5.78111132e+00	-7.36502724e+01
1617334285.71	-3.10403676e+00	1.42982350e+02	-5.61175915e+01	1.71287922e+02	-5.60545688e+01	1.70090065e+02	-5.77330323e+00	-7.36177115e+01
1617619857.14	-3.10858698e+00	1.42966697e+02	-5.60758807e+01	1.70919053e+02	-5.61700535e+01	1.69355634e+02	-5.77212942e+00	-7.36258915e+01
1617905428.57	-3.10555851e+00	1.43010241e+02	-5.60889706e+01	1.70174070e+02	-5.60869557e+01	1.68405176e+02	-5.76313470e+00	-7.37039444e+01
1618191000	-3.11390961e+00	1.43003189e+02	-5.62212198e+01	1.70587474e+02	-5.61445475e+01	1.69007303e+02	-5.75002737e+00	-7.37906750e+01
1618476571.43	-3.11540836e+00	1.42996872e+02	-5.59775558e+01	1.68965257e+02	-5.61595325e+01	1.68069297e+02	-5.73981075e+00	-7.38142720e+01
1618762142.86	-3.11751410e+00	1.43041112e+02	-5.61032668e+01	1.68930097e+02	-5.61907254e+01	1.67755492e+02	-5.74222862e+00	-7.38103592e+01
1619047714.29	-3.11431968e+00	1.43039624e+02	-5.60883928e+01	1.67915737e+02	-5.60876326e+01	1.67283418e+02	-5.73785029e+00	-7.39015874e+01
1619333285.71	-3.10966687e+00	1.43008598e+02	-5.59910868e+01	1.67407209e+02	-5.61270353e+01	1.65930071e+02	-5.73827901e+00	-7.39775183e+01
1619618857.14	-3.11678787e+00	1.43033818e+02	-5.60129290e+01	1.67434788e+02	-5.60736830e+01	1.65929280e+02	-5.74119536e+00	-7.39753359e+01
1619904428.57	-3.12551928e+00	1.43032081e+02	-5.60397104e+01	1.67089609e+02	-5.61162104e+01	1.65577593e+02	-5.73864138e+00	-7.40590910e+01
1620190000	-3.12115907e+00	1.43009282e+02	-5.60407168e+01	1.65342155e+02	-5.60764500e+01	1.64135816e+02	-5.72135405e+00	-7.40839346e+01
1620475571.43	-3.11927015e+00	1.43037777e+02	-5.60340142e+01	1.65035528e+02	-5.60755907e+01	1.64483109e+02	-5.71746966e+00	-7.41326227e+01
1620761142.86	-3.12779953e+00	1.43005163e+02	-5.61752870e+01	1.65440079e+02	-5.61952589e+01	1.64219343e+02	-5.71665607e+00	-7.41502110e+01
1621046714.29	-3.12455808e+00	1.43035876e+02	-5.59697538e+01	1.64759876e+02	-5.60855626e+01	1.62734794e+02	-5.71973499e+00	-7.42458058e+01
1621332285.71	-3.12162781e+00	1.43027910e+02	-5.60269970e+01	1.63120194e+02	-5.60323508e+01	1.62507448e+02	-5.71432015e+00	-7.42729524e+01
1621617857.14	-3.12110009e+00	1.43004278e+02	-5.59361368e+01	1.63129028e+02	-5.60198954e+01	1.63029592e+02	-5.71028982e+00	-7.43685021e+01
1621903428.57	-3.12370094e+00	1.43001357e+02	-5.59955067e+01	1.61951622e+02	-5.60292196e+01	1.61900246e+02	-5.70551331e+00	-7.44706995e+01
1622189000	-3.12431769e+00	1.43040294e+02	-5.61274112e+01	1.62610366e+02	-5.60885255e+01	1.61874564e+02	-5.70198006e+00	-7.45174011e+01
1622474571.43	-3.13025372e+00	1.43063581e+02	-5.59899534e+01	1.62183484e+02	-5.60310456e+01	1.61328695e+02	-5.70001621e+00	-7.45621806e+01
1622760142.86	-3.13346115e+00	1.43054366e+02	-5.60101983e+01	1.60669568e+02	-5.61033366e+01	1.60231434e+02	-5.68957526e+00	-7.46538573e+01
1623045714.29	-3.12680029e+00	1.43069503e+02	-5.59404124e+01	1.59631252e+02	-5.60861560e+01	1.59913246e+02	-5.68435100e+00	-7.47023287e+01
1623331285.71	-3.13620122e+00	1.43067337e+02	-5.59841326e+01	1.60390850e+02	-5.60501134e+01	1.59287780e+02	-5.67300012e+00	-7.47772418e+01
1623616857.14	-3.13530312e+00	1.43025061e+02	-5.59801099e+01	1.59697656e+02	-5.60640651e+01	1.58543950e+02	-5.66954727e+00	-7.48812320e+01
1623902428.57	-3.14169356e+00	1.43059163e+02	-5.59450599e+01	1.58995732e+02	-5.59638045e+01	1.57834923e+02	-5.66627648e+00	-7.49242807e+01
1624188000	-3.14219378e+00	1.43057914e+02	-5.60125675e+01	1.57984341e+02	-5.60428657e+01	1.57757146e+02	-5.66050763e+00	-7.49389632e+01
1624473571.43	-3.14597449e+00	1.43041850e+02	-5.59660418e+01	1.57762808e+02	-5.60374318e+01	1.57166522e+02	-5.65806152e+00	-7.49488598e+01
1624759142.86	-3.14641044e+00	1.43024659e+02	-5.60812570e+01	1.57574378e+02	-5.60434048e+01	1.56632571e+02	-5.64981630e+00	-7.49903552e+01
1625044714.29	-3.14250330e+00	1.43021374e+02	-5.59787254e+01	1.56530659e+02	-5.60887116e+01	1.55520092e+02	-5.64488789e+00	-7.49723902e+01
1625330285.71	-3.14589123e+00	1.43018304e+02	-5.60115143e+01	1.55993922e+02	-5.60915018e+01	1.55298953e+02	-5.64469891e+00	-7.50727534e+01
1625615857.14	-3.14713141e+00	1.43010751e+02	-5.60399780e+01	1.55766895e+02	-5.60598547e+01	1.54569610e+02	-5.65452306e+00	-7.50732546e+01
1625901428.57	-3.15279976e+00	1.43027961e+02	-5.59981790e+01	1.54941843e+02	-5.61020203e+01	1.54518642e+02	-5.65162330e+00	-7.50360746e+01
1626187000	-3.15255676e+00	1.43006426e+02	-5.59141401e+01	1.54712444e+02	-5.61100228e+01	1.53304201e+02	-5.64299629e+00	-7.51543727e+01
1626472571.43	-3.15443508e+00	1.43017478e+02	-5.59785619e+01	1.53459236e+02	-5.59635118e+01	1.53214138e+02	-5.63999296e+00	-7.51760359e+01
1626758142.86	-3.15328368e+00	1.43016838e+02	-5.61084036e+01	1.52338095e+02	-5.60844052e+01	1.52636568e+02	-5.64360808e+00	-7.52246023e+01
1627043714.29	-3.15106639e+00	1.42998770e+02	-5.59655481e+01	1.52406415e+02	-5.61433528e+01	1.51769842e+02	-5.64462486e+00	-7.52892886e+01
1627329285.71	-3.15056321e+00	1.43042648e+02	-5.60279519e+01	1.51755868e+02	-5.61737586e+01	1.51702705e+02	-5.64280999e+00	-7.53124278e+01
1627614857.14	-3.15962007e+00	1.43053450e+02	-5.60430809e+01	1.50681973e+02	-5.60784069e+01	1.51176268e+02	-5.64769168e+00	-7.53769725e+01
1627900428.57	-3.15579030e+00	1.43055632e+02	-5.61191787e+01	1.50666479e+02	-5.60748187e+01	1.50276068e+02	-5.64877784e+00	-7.53963264e+01
1628186000	-3.15371302e+00	1.43026048e+02	-5.61277333e+01	1.50341819e+02	-5.61337070e+01	1.49422551e+02	-5.64448755e+00	-7.55061107e+01
1628471571.43	-3.15679145e+00	1.43040582e+02	-5.61129240e+01	1.49392194e+02	-5.60608394e+01	1.49980336e+02	-5.64732424e+00	-7.55557628e+01
1628757142.86	-3.16845778e+00	1.43036513e+02	-5.60692947e+01	1.48841606e+02	-5.60886499e+01	1.48905743e+02	-5.64656995e+00	-7.56434705e+01
1629042714.29	-3.17443491e+00	1.43058806e+02	-5.61744678e+01	1.48620317e+02	-5.61420336e+01	1.48809712e+02	-5.63007144e+00	-7.57151111e+01
1629328285.71	-3.17233213e+00	1.43057206e+02	-5.60867073e+01	1.47609011e+02	-5.61655828e+01	1.47864986e+02	-5.63647299e+00	-7.57924158e+01
1629613857.14	-3.16933490e+00	1.43032619e+02	-5.60878091e+01	1.46904863e+02	-5.61955527e+01	1.46525359e+02	-5.63365916e+00	-7.58616126e+01
1629899428.57	-3.17071832e+00	1.43010347e+02	-5.61982843e+01	1.46662114e+02	-5.62133678e+01	1.47215661e+02	-5.63649076e+00	-7.59423007e+01
1630185000	-3.18333444e+00	1.43033577e+02	-5.62275371e+01	1.46938013e+02	-5.61671213e+01	1.45758446e+02	-5.63956827e+00	-7.60577809e+01
1630470571.43	-3.18273489e+00	1.43004353e+02	-5.60694218e+01	1.46573803e+02	-5.61699359e+01	1.45796041e+02	-5.63859260e+00	-7.61095567e+01
1630756142.86	-3.18138168e+00	1.43042108e+02	-5.63302223e+01	1.45608736e+02	-5.62443632e+01	1.45729730e+02	-5.63592340e+00	-7.62381871e+01
1631041714.29	-3.18079421e+00	1.42991795e+02	-5.62875657e+01	1.44342046e+02	-5.62758401e+01	1.44317097e+02	-5.63782525e+00	-7.62708295e+01
1631327285.71	-3.18197285e+00	1.42985233e+02	-5.63386565e+01	1.44709216e+02	-5.61989719e+01	1.44110020e+02	-5.63512790e+00	-7.63433651e+01
1631612857.14	-3.18080174e+00	1.42993620e+02	-5.61080002e+01	1.43852071e+02	-5.63005265e+01	1.44100045e+02	-5.62707122e+00	-7.64097905e+01
1631898428.57	-3.18548838e+00	1.43008320e+02	-5.61976273e+01	1.43317695e+02	-5.62503385e+01	1.43181853e+02	-5.62924427e+00	-7.64956657e+01
1632184000	-3.19148581e+00	1.43040321e+02	-5.62532080e+01	1.42977718e+02	-5.62524124e+01	1.42083840e+02	-5.61230557e+00	-7.65898972e+01
1632469571.43	-3.19139460e+00	1.43050253e+02	-5.64823650e+01	1.42547505e+02	-5.64027019e+01	1.41317657e+02	-5.60875852e+00	-7.66338015e+01
1632755142.86	-3.19418666e+00	1.43048445e+02	-5.62018353e+01	1.41242001e+02	-5.62430409e+01	1.40833723e+02	-5.60971913e+00	-7.67002460e+01
1633040714.29	-3.20028885e+00	1.42985501e+02	-5.62322318e+01	1.40254414e+02	-5.63219171e+01	1.40939895e+02	-5.61672289e+00	-7.67585593e+01
1633326285.71	-3.19392321e+00	1.42990329e+02	-5.63803708e+01	1.40452334e+02	-5.63899406e+01	1.39868352e+02	-5.61780226e+00	-7.68661476e+01
1633611857.14	-3.19889221e+00	1.42953318e+02	-5.63873537e+01	1.39914164e+02	-5.63475046e+01	1.40059844e+02	-5.62518716e+00	-7.70141729e+01
1633897428.57	-3.20235823e+00	1.42938427e+02	-5.64429800e+01	1.39979854e+02	-5.62964049e+01	1.39180857e+02	-5.61524529e+00	-7.70647844e+01
1634183000	-3.20327283e+00	1.42939278e+02	-5.64519421e+01	1.38383075e+02	-5.63711243e+01	1.38383931e+02	-5.61409885e+00	-7.71672787e+01
1634468571.43	-3.21044311e+00	1.42898308e+02	-5.65027516e+01	1.39090498e+02	-5.63585065e+01	1.37883746e+02	-5.61747009e+00	-7.72607487e+01
1634754142.86	-3.20907574e+00	1.42939463e+02	-5.64635074e+01	1.37865734e+02	-5.62830327e+01	1.38073007e+02	-5.61876153e+00	-7.73537486e+01
1635039714.29	-3.21311279e+00	1.42873398e+02	-5.65617640e+01	1.37803466e+02	-5.64579275e+01	1.37185534e+02	-5.61182922e+00	-7.74423065e+01
1635325285.71	-3.21849756e+00	1.42870815e+02	-5.64639272e+01	1.36941314e+02	-5.64548326e+01	1.36658136e+02	-5.60528991e+00	-7.75157505e+01
1635610857.14	-3.21669655e+00	1.42845949e+02	-5.65593398e+01	1.36182296e+02	-5.62987331e+01	1.35543517e+02	-5.60326099e+00	-7.76187895e+01
1635896428.57	-3.21500947e+00	1.42881534e+02	-5.65616317e+01	1.35870025e+02	-5.63596979e+01	1.35882654e+02	-5.60190806e+00	-7.77546751e+01
1636182000	-3.22219716e+00	1.42872845e+02	-5.65837236e+01	1.35757007e+02	-5.64619444e+01	1.34512700e+02	-5.60759382e+00	-7.78249507e+01
1636467571.43	-3.22572786e+00	1.42824643e+02	-5.65724514e+01	1.34247303e+02	-5.65193843e+01	1.34345989e+02	-5.60561750e+00	-7.79217919e+01
1636753142.86	-3.22807521e+00	1.42799205e+02	-5.65621823e+01	1.34156734e+02	-5.65517493e+01	1.32926042e+02	-5.60189279e+00	-7.80209056e+01
1637038714.29	-3.23777178e+00	1.42816954e+02	-5.66500444e+01	1.34890876e+02	-5.64183297e+01	1.34471199e+02	-5.60370221e+00	-7.80384729e+01
1637324285.71	-3.23206636e+00	1.42751239e+02	-5.66990836e+01	1.33466292e+02	-5.64881184e+01	1.32878927e+02	-5.60366611e+00	-7.82713418e+01
1637609857.14	-3.24095369e+00	1.42773192e+02	-5.67441421e+01	1.32275440e+02	-5.66359674e+01	1.32575000e+02	-5.59852421e+00	-7.82746431e+01
1637895428.57	-3.23963888e+00	1.42788429e+02	-5.66261906e+01	1.31183277e+02	-5.66215237e+01	1.32411254e+02	-5.61008069e+00	-7.83516998e+01
1638181000	-3.25065095e+00	1.42726196e+02	-5.68051861e+01	1.30890825e+02	-5.66554904e+01	1.30540733e+02	-5.61415886e+00	-7.84464292e+01
1638466571.43	-3.24933300e+00	1.42726099e+02	-5.67783093e+01	1.31144918e+02	-5.65958406e+01	1.31387001e+02	-5.61250003e+00	-7.85640107e+01
1638752142.86	-3.25421802e+00	1.42673534e+02	-5.67158271e+01	1.30397800e+02	-5.67490670e+01	1.29651336e+02	-5.61844843e+00	-7.86740397e+01
1639037714.29	-3.24918860e+00	1.42724779e+02	-5.69354878e+01	1.29966621e+02	-5.67586256e+01	1.29127989e+02	-5.60532978e+00	-7.87881107e+01
1639323285.71	-3.24490599e+00	1.42714515e+02	-5.67940316e+01	1.30275098e+02	-5.67566883e+01	1.29124479e+02	-5.60607374e+00	-7.88928126e+01
1639608857.14	-3.25189168e+00	1.42696067e+02	-5.69874006e+01	1.28889288e+02	-5.67621426e+01	1.28541909e+02	-5.61506251e+00	-7.89786106e+01
1639894428.57	-3.25743960e+00	1.42676249e+02	-5.69416567e+01	1.29462380e+02	-5.68058924e+01	1.28759482e+02	-5.62070087e+00	-7.91039091e+01
1640180000	-3.25674713e+00	1.42588795e+02	-5.69800988e+01	1.28832625e+02	-5.68518703e+01	1.27653776e+02	-5.61285269e+00	-7.91657315e+01
1640465571.43	-3.26502328e+00	1.42598060e+02	-5.69486247e+01	1.28275643e+02	-5.69038815e+01	1.27210705e+02	-5.61493807e+00	-7.92667888e+01
1640751142.86	-3.27261862e+00	1.42589461e+02	-5.70360828e+01	1.27947219e+02	-5.67953581e+01	1.26780402e+02	-5.61616235e+00	-7.93313211e+01
1641036714.29	-3.27109822e+00	1.42513059e+02	-5.70942022e+01	1.27302822e+02	-5.70827716e+01	1.26552544e+02	-5.61250832e+00	-7.94178450e+01
1641322285.71	-3.27295849e+00	1.42447548e+02	-5.70961697e+01	1.27373600e+02	-5.70028587e+01	1.26747281e+02	-5.62001605e+00	-7.95025714e+01
1641607857.14	-3.27325918e+00	1.42441120e+02	-5.71406364e+01	1.25538620e+02	-5.69789820e+01	1.25392727e+02	-5.61805807e+00	-7.95885172e+01
1641893428.57	-3.27696237e+00	1.42462060e+02	-5.72512557e+01	1.26438203e+02	-5.70202600e+01	1.25674235e+02	-5.62194282e+00	-7.96857575e+01
1642179000	-3.28047987e+00	1.42420959e+02	-5.70294640e+01	1.24984952e+02	-5.70306693e+01	1.25541348e+02	-5.62656965e+00	-7.98126353e+01
1642464571.43	-3.28393230e+00	1.42414330e+02	-5.71693718e+01	1.25463847e+02	-5.71171345e+01	1.24750147e+02	-5.62565377e+00	-7.98832152e+01
1642750142.86	-3.28422493e+00	1.42403035e+02	-5.72375253e+01	1.24706743e+02	-5.69508058e+01	1.24811888e+02	-5.62193127e+00	-7.99791541e+01
1643035714.29	-3.28789123e+00	1.42361972e+02	-5.71209715e+01	1.24278870e+02	-5.71865571e+01	1.24414747e+02	-5.60360651e+00	-8.00179577e+01
1643321285.71	-3.28724596e+00	1.42339417e+02	-5.72370830e+01	1.24047168e+02	-5.70783103e+01	1.24139178e+02	-5.61281686e+00	-8.01531006e+01
1643606857.14	-3.29293190e+00	1.42281991e+02	-5.72664718e+01	1.23942443e+02	-5.72047068e+01	1.23341200e+02	-5.60719923e+00	-8.02486302e+01
1643892428.57	-3.29595818e+00	1.42248159e+02	-5.72128822e+01	1.23285569e+02	-5.71346104e+01	1.22946941e+02	-5.61007772e+00	-8.03138767e+01
1644178000	-3.29746270e+00	1.42239983e+02	-5.72808439e+01	1.23940060e+02	-5.72130717e+01	1.22007824e+02	-5.60394776e+00	-8.04317614e+01
1644463571.43	-3.29937542e+00	1.42222548e+02	-5.72682217e+01	1.21295112e+02	-5.70866085e+01	1.22700274e+02	-5.60030571e+00	-8.05334627e+01
1644749142.86	-3.30407347e+00	1.42183332e+02	-5.73668477e+01	1.22378920e+02	-5.71388140e+01	1.22754177e+02	-5.59890560e+00	-8.06425098e+01
1645034714.29	-3.30711585e+00	1.42142359e+02	-5.74519392e+01	1.22256942e+02	-5.72159869e+01	1.21728223e+02	-5.59539972e+00	-8.07650816e+01
1645320285.71	-3.30179559e+00	1.42127210e+02	-5.72962108e+01	1.22739686e+02	-5.72019836e+01	1.20564383e+02	-5.58795387e+00	-8.08469595e+01
1645605857.14	-3.29698790e+00	1.42080783e+02	-5.72044506e+01	1.21649790e+02	-5.72585913e+01	1.21034154e+02	-5.58954201e+00	-8.08687533e+01
1645891428.57	-3.30477684e+00	1.42080340e+02	-5.73113813e+01	1.20598374e+02	-5.71789902e+01	1.21093526e+02	-5.58048804e+00	-8.10181392e+01
1646177000	-3.30342010e+00	1.42034106e+02	-5.72484354e+01	1.19740191e+02	-5.71973786e+01	1.19316393e+02	-5.57631506e+00	-8.11186927e+01
1646462571.43	-3.30718501e+00	1.42012448e+02	-5.72986888e+01	1.20664427e+02	-5.72043247e+01	1.19445448e+02	-5.57882147e+00	-8.11753356e+01
1646748142.86	-3.31745020e+00	1.41944287e+02	-5.71995301e+01	1.19738447e+02	-5.71747149e+01	1.19275929e+02	-5.57139962e+00	-8.13090405e+01
1647033714.29	-3.31788942e+00	1.41959173e+02	-5.73961731e+01	1.18381746e+02	-5.72121810e+01	1.18903056e+02	-5.57678637e+00	-8.13914283e+01
1647319285.71	-3.31845585e+00	1.41965221e+02	-5.72264327e+01	1.18567732e+02	-5.71421430e+01	1.18445451e+02	-5.56837979e+00	-8.14842383e+01
1647604857.14	-3.32237341e+00	1.41912853e+02	-5.72530409e+01	1.18565779e+02	-5.71792319e+01	1.17986844e+02	-5.56148413e+00	-8.15670763e+01
1647890428.57	-3.31797803e+00	1.41857158e+02	-5.72480614e+01	1.17932204e+02	-5.72307811e+01	1.17701084e+02	-5.56695497e+00	-8.16936202e+01
1648176000	-3.31652408e+00	1.41812234e+02	-5.71808796e+01	1.17935865e+02	-5.71303505e+01	1.17128253e+02	-5.56516175e+00	-8.18548884e+01
1648461571.43	-3.32012653e+00	1.41755734e+02	-5.72727297e+01	1.17047646e+02	-5.72202306e+01	1.16291982e+02	-5.57249590e+00	-8.19138623e+01
1648747142.86	-3.32118369e+00	1.41716185e+02	-5.73306577e+01	1.16565089e+02	-5.71258802e+01	1.15995673e+02	-5.56747564e+00	-8.19755878e+01
1649032714.29	-3.32314498e+00	1.41644004e+02	-5.72036929e+01	1.16135649e+02	-5.72383342e+01	1.15957914e+02	-5.57384670e+00	-8.21098094e+01
1649318285.71	-3.32093643e+00	1.41681441e+02	-5.73388248e+01	1.14899999e+02	-5.73442076e+01	1.15219352e+02	-5.56343377e+00	-8.22508529e+01
1649603857.14	-3.32604434e+00	1.41643744e+02	-5.74407382e+01	1.14665709e+02	-5.71332953e+01	1.14886161e+02	-5.56309478e+00	-8.23416126e+01
1649889428.57	-3.32587817e+00	1.41603821e+02	-5.73087333e+01	1.14227461e+02	-5.71758092e+01	1.13918158e+02	-5.56524586e+00	-8.23808800e+01
1650175000	-3.32799937e+00	1.41520381e+02	-5.72204148e+01	1.13631749e+02	-5.71956525e+01	1.12749128e+02	-5.56295622e+00	-8.24935501e+01
1650460571.43	-3.33045270e+00	1.41485196e+02	-5.73526625e+01	1.14352172e+02	-5.71671462e+01	1.12412376e+02	-5.56011709e+00	-8.25944940e+01
1650746142.86	-3.32154192e+00	1.41486482e+02	-5.72793959e+01	1.12977938e+02	-5.72598967e+01	1.13927308e+02	-5.55544194e+00	-8.26830297e+01
1651031714.29	-3.32113220e+00	1.41486688e+02	-5.73229057e+01	1.11907165e+02	-5.71294609e+01	1.12535452e+02	-5.55653991e+00	-8.27973917e+01
1651317285.71	-3.32791625e+00	1.41437960e+02	-5.73222095e+01	1.11681260e+02	-5.71116465e+01	1.10530091e+02	-5.56211377e+00	-8.29125961e+01
1651602857.14	-3.32832240e+00	1.41377869e+02	-5.72958223e+01	1.10714296e+02	-5.72033531e+01	1.10812946e+02	-5.54702792e+00	-8.30700462e+01
1651888428.57	-3.32315518e+00	1.41363253e+02	-5.72763235e+01	1.10152614e+02	-5.71302182e+01	1.10189098e+02	-5.55602173e+00	-8.31311778e+01
1652174000	-3.32529765e+00	1.41340705e+02	-5.73345197e+01	1.10358094e+02	-5.73005398e+01	1.09986310e+02	-5.54065155e+00	-8.32251173e+01
1652459571.43	-3.32166700e+00	1.41323666e+02	-5.73701568e+01	1.09402064e+02	-5.72085050e+01	1.09056586e+02	-5.55297372e+00	-8.33094082e+01
1652745142.86	-3.32089059e+00	1.41340858e+02	-5.73249731e+01	1.09396850e+02	-5.72959867e+01	1.08509781e+02	-5.54209731e+00	-8.34935289e+01
1653030714.29	-3.32934815e+00	1.41279102e+02	-5.74223882e+01	1.08408452e+02	-5.72999807e+01	1.08226990e+02	-5.55067714e+00	-8.35206527e+01
1653316285.71	-3.32317432e+00	1.41285499e+02	-5.75256650e+01	1.07984038e+02	-5.72141603e+01	1.07658370e+02	-5.55601416e+00	-8.35895927e+01
1653601857.14	-3.32576428e+00	1.41196751e+02	-5.74657490e+01	1.06483413e+02	-5.72638875e+01	1.06396373e+02	-5.54724955e+00	-8.37084903e+01
1653887428.57	-3.33124045e+00	1.41171153e+02	-5.74704950e+01	1.07067835e+02	-5.73432702e+01	1.06254148e+02	-5.54028138e+00	-8.38052955e+01
1654173000	-3.32804921e+00	1.41163716e+02	-5.74796626e+01	1.06150678e+02	-5.73944917e+01	1.05855988e+02	-5.53924479e+00	-8.38783672e+01
1654458571.43	-3.32761513e+00	1.41170981e+02	-5.75069494e+01	1.04661095e+02	-5.72232299e+01	1.05213975e+02	-5.53001535e+00	-8.39648333e+01
1654744142.86	-3.33160746e+00	1.41161776e+02	-5.74806432e+01	1.04812080e+02	-5.71880329e+01	1.05220949e+02	-5.52258716e+00	-8.40842945e+01
1655029714.29	-3.33382221e+00	1.41102250e+02	-5.73998352e+01	1.04301533e+02	-5.74089740e+01	1.04249462e+02	-5.52862676e+00	-8.41706610e+01
1655315285.71	-3.33731794e+00	1.41060686e+02	-5.74320455e+01	1.04270455e+02	-5.73143799e+01	1.03266984e+02	-5.51141665e+00	-8.42504360e+01
1655600857.14	-3.33724846e+00	1.41030837e+02	-5.74652105e+01	1.02817403e+02	-5.74076228e+01	1.03168162e+02	-5.51915056e+00	-8.43252077e+01
1655886428.57	-3.32958821e+00	1.40971245e+02	-5.75420990e+01	1.03161081e+02	-5.74595862e+01	1.02308223e+02	-5.50838968e+00	-8.44392071e+01
1656172000	-3.32964384e+00	1.40922710e+02	-5.75540885e+01	1.03276267e+02	-5.75810106e+01	1.01758934e+02	-5.51023883e+00	-8.44907458e+01
1656457571.43	-3.32764616e+00	1.40929421e+02	-5.75133100e+01	1.02082814e+02	-5.74679866e+01	1.01327681e+02	-5.50704760e+00	-8.45898056e+01
1656743142.86	-3.33447017e+00	1.40941915e+02	-5.76215454e+01	1.00358958e+02	-5.75849509e+01	1.01198415e+02	-5.50577414e+00	-8.46830852e+01
1657028714.29	-3.32817600e+00	1.40914752e+02	-5.77018610e+01	1.00189746e+02	-5.75207685e+01	1.00435285e+02	-5.50402868e+00	-8.47032604e+01
1657314285.71	-3.32851778e+00	1.40914735e+02	-5.76384007e+01	1.00726507e+02	-5.75788745e+01	1.00548213e+02	-5.49872541e+00	-8.47360647e+01
1657599857.14	-3.33192773e+00	1.40851485e+02	-5.76765439e+01	9.88930546e+01	-5.75423548e+01	9.95476348e+01	-5.49591277e+00	-8.48548756e+01
1657885428.57	-3.33246700e+00	1.40865635e+02	-5.76877235e+01	9.91310462e+01	-5.76152361e+01	9.90814317e+01	-5.50423358e+00	-8.49763716e+01
1658171000	-3.32478542e+00	1.40803922e+02	-5.77514359e+01	9.79943646e+01	-5.76819130e+01	9.75814988e+01	-5.47641973e+00	-8.49584723e+01
1658456571.43	-3.32589031e+00	1.40789668e+02	-5.77760812e+01	9.74487140e+01	-5.76541403e+01	9.74037206e+01	-5.48380151e+00	-8.50001485e+01
1658742142.86	-3.33155968e+00	1.40767934e+02	-5.78296598e+01	9.68331449e+01	-5.75768706e+01	9.74523757e+01	-5.47325582e+00	-8.50610565e+01
1659027714.29	-3.33143682e+00	1.40789886e+02	-5.77644785e+01	9.61647263e+01	-5.76461874e+01	9.67004657e+01	-5.46560503e+00	-8.50944192e+01
1659313285.71	-3.33246932e+00	1.40741753e+02	-5.78055847e+01	9.57917794e+01	-5.76839800e+01	9.61701646e+01	-5.47509167e+00	-8.51311970e+01
1659598857.14	-3.33262369e+00	1.40681658e+02	-5.77195386e+01	9.54619245e+01	-5.76962414e+01	9.43885630e+01	-5.46993764e+00	-8.52536139e+01
1659884428.57	-3.33297510e+00	1.40613872e+02	-5.78608553e+01	9.45288683e+01	-5.76701549e+01	9.36421083e+01	-5.46055132e+00	-8.53146324e+01
1660170000	-3.32904965e+00	1.40603187e+02	-5.79186773e+01	9.42578784e+01	-5.77895363e+01	9.36754871e+01	-5.45375846e+00	-8.54619913e+01
1660455571.43	-3.32540921e+00	1.40627699e+02	-5.78495190e+01	9.32149742e+01	-5.78315780e+01	9.30293161e+01	-5.44270457e+00	-8.54906557e+01
1660741142.86	-3.32907619e+00	1.40573139e+02	-5.79721038e+01	9.32152554e+01	-5.78344715e+01	9.34243378e+01	-5.44036201e+00	-8.56406386e+01
1661026714.29	-3.32477697e+00	1.40528145e+02	-5.79787060e+01	9.18769685e+01	-5.77445706e+01	9.27211276e+01	-5.44178901e+00	-8.57422631e+01
1661312285.71	-3.32080894e+00	1.40560828e+02	-5.80997573e+01	9.17205076e+01	-5.79348526e+01	9.14356117e+01	-5.44437924e+00	-8.58193784e+01
1661597857.14	-3.33028424e+00	1.40557606e+02	-5.80732239e+01	9.08634288e+01	-5.80712109e+01	9.08550219e+01	-5.43447677e+00	-8.59177670e+01
1661883428.57	-3.32779145e+00	1.40597419e+02	-5.80784483e+01	8.96659419e+01	-5.79192406e+01	9.03385972e+01	-5.43837777e+00	-8.60116674e+01
1662169000	-3.32787321e+00	1.40538124e+02	-5.81614909e+01	9.01864150e+01	-5.79635072e+01	9.00394545e+01	-5.43203235e+00	-8.61723648e+01
1662454571.43	-3.32172403e+00	1.40512361e+02	-5.82560747e+01	8.90946717e+01	-5.81564583e+01	8.99163697e+01	-5.42687108e+00	-8.62551310e+01
1662740142.86	-3.32297931e+00	1.40482561e+02	-5.81802585e+01	8.90245557e+01	-5.80875150e+01	8.87979418e+01	-5.41699087e+00	-8.64041804e+01
1663025714.29	-3.32040351e+00	1.40491173e+02	-5.82398465e+01	8.83033546e+01	-5.81862613e+01	8.86277167e+01	-5.42574902e+00	-8.65009522e+01
1663311285.71	-3.32345465e+00	1.40437172e+02	-5.83025389e+01	8.74425892e+01	-5.81811366e+01	8.75447826e+01	-5.41418363e+00	-8.66710921e+01
1663596857.14	-3.33226098e+00	1.40358380e+02	-5.82801140e+01	8.62951169e+01	-5.83391213e+01	8.72269785e+01	-5.41350584e+00	-8.68151752e+01
1663882428.57	-3.32193049e+00	1.40384511e+02	-5.84760471e+01	8.58574352e+01	-5.83392107e+01	8.67966051e+01	-5.39509488e+00	-8.69429124e+01
1664168000	-3.31285183e+00	1.40340750e+02	-5.83974910e+01	8.52544071e+01	-5.83633320e+01	8.56339771e+01	-5.39507996e+00	-8.69954843e+01
1664453571.43	-3.30460363e+00	1.40346459e+02	-5.85758843e+01	8.53504594e+01	-5.84852818e+01	8.66577837e+01	-5.39023550e+00	-8.70937358e+01
1664739142.86	-3.31097959e+00	1.40297517e+02	-5.85249822e+01	8.52846354e+01	-5.84954315e+01	8.51520227e+01	-5.38209597e+00	-8.71641575e+01
1665024714.29	-3.31914560e+00	1.40269659e+02	-5.87387834e+01	8.42613399e+01	-5.85631394e+01	8.55422528e+01	-5.37672921e+00	-8.73023860e+01
1665310285.71	-3.31688487e+00	1.40292154e+02	-5.87678342e+01	8.39561105e+01	-5.86007600e+01	8.37661958e+01	-5.37411694e+00	-8.73353222e+01
1665595857.14	-3.31685130e+00	1.40336480e+02	-5.87848406e+01	8.32896237e+01	-5.86015995e+01	8.36027257e+01	-5.36520748e+00	-8.74376075e+01
1665881428.57	-3.31510249e+00	1.40296964e+02	-5.89417750e+01	8.22285542e+01	-5.86599857e+01	8.35533741e+01	-5.35721576e+00	-8.75201676e+01
1666167000	-3.32046033e+00	1.40275090e+02	-5.88734723e+01	8.26735728e+01	-5.87362683e+01	8.30701042e+01	-5.35841957e+00	-8.75800020e+01
1666452571.43	-3.32103272e+00	1.40206127e+02	-5.89457211e+01	8.25877459e+01	-5.87518577e+01	8.27970377e+01	-5.36131013e+00	-8.76823901e+01
1666738142.86	-3.31969476e+00	1.40253300e+02	-5.90222986e+01	8.14316712e+01	-5.89067541e+01	8.17610303e+01	-5.34683137e+00	-8.78275628e+01
1667023714.29	-3.32383983e+00	1.40244981e+02	-5.90881194e+01	8.04123033e+01	-5.89010746e+01	8.08547946e+01	-5.34754029e+00	-8.79551441e+01
1667309285.71	-3.31762554e+00	1.40239991e+02	-5.91910058e+01	8.08602035e+01	-5.89541507e+01	8.09100949e+01	-5.35011263e+00	-8.80421590e+01
1667594857.14	-3.31478139e+00	1.40248618e+02	-5.91193724e+01	8.04842783e+01	-5.90530027e+01	8.07093950e+01	-5.34050948e+00	-8.81483986e+01
1667880428.57	-3.31257082e+00	1.40214722e+02	-5.91623886e+01	7.98904191e+01	-5.90241008e+01	8.09430997e+01	-5.33990235e+00	-8.82948631e+01
1668166000	-3.31804316e+00	1.40219032e+02	-5.93420876e+01	8.00936875e+01	-5.91615375e+01	8.04623578e+01	-5.33493809e+00	-8.83865113e+01
1668451571.43	-3.31285653e+00	1.40213732e+02	-5.93322320e+01	7.88624193e+01	-5.91996812e+01	7.98266171e+01	-5.33066610e+00	-8.85495509e+01
1668737142.86	-3.30754650e+00	1.40206509e+02	-5.94598796e+01	7.89281024e+01	-5.92061224e+01	7.94556640e+01	-5.33591351e+00	-8.86892767e+01
1669022714.29	-3.31309052e+00	1.40174551e+02	-5.96026740e+01	7.87963768e+01	-5.90869320e+01	7.88932897e+01	-5.33536591e+00	-8.88163077e+01
1669308285.71	-3.31225046e+00	1.40131073e+02	-5.94523163e+01	7.85976034e+01	-5.93517646e+01	7.89769137e+01	-5.32644657e+00	-8.89271203e+01
1669593857.14	-3.30613377e+00	1.40170551e+02	-5.94268700e+01	7.88206725e+01	-5.92815163e+01	7.85209239e+01	-5.32490609e+00	-8.90354450e+01
1669879428.57	-3.30599334e+00	1.40215048e+02	-5.95856842e+01	7.78958086e+01	-5.93164653e+01	7.80464751e+01	-5.32863557e+00	-8.91836103e+01
1670165000	-3.30852745e+00	1.40246620e+02	-5.96220365e+01	7.77990104e+01	-5.93771898e+01	7.77322224e+01	-5.32244387e+00	-8.93240213e+01
1670450571.43	-3.30619052e+00	1.40212702e+02	-5.98443867e+01	7.74532871e+01	-5.94145082e+01	7.79670706e+01	-5.32425105e+00	-8.94058866e+01
1670736142.86	-3.30473228e+00	1.40201827e+02	-5.97682341e+01	7.68989230e+01	-5.95845826e+01	7.70380113e+01	-5.32115592e+00	-8.94555293e+01
1671021714.29	-3.30268160e+00	1.40163662e+02	-5.97530264e+01	7.66607624e+01	-5.94914228e+01	7.77120331e+01	-5.31797116e+00	-8.95847787e+01
1671307285.71	-3.29992987e+00	1.40224584e+02	-5.99536233e+01	7.54428577e+01	-5.96942002e+01	7.66501601e+01	-5.30969333e+00	-8.97786703e+01
1671592857.14	-3.30029750e+00	1.40169543e+02	-5.98142188e+01	7.64445463e+01	-5.94885537e+01	7.62659076e+01	-5.29862601e+00	-8.99062278e+01
1671878428.57	-3.29745138e+00	1.40134727e+02	-5.99720293e+01	7.64663177e+01	-5.96911414e+01	7.58465975e+01	-5.29306569e+00	-9.00148080e+01
1672164000	-3.30069765e+00	1.40119706e+02	-5.99516881e+01	7.53215364e+01	-5.96999454e+01	7.63457125e+01	-5.30336364e+00	-9.01748366e+01
1672449571.43	-3.29730728e+00	1.40165059e+02	-5.99199456e+01	7.57249879e+01	-5.97695308e+01	7.56853955e+01	-5.30149920e+00	-9.02834272e+01
1672735142.86	-3.29814943e+00	1.40182157e+02	-6.00109509e+01	7.45544919e+01	-5.98553335e+01	7.50145053e+01	-5.30433179e+00	-9.04214264e+01
1673020714.29	-3.29683103e+00	1.40153959e+02	-5.99846913e+01	7.36654344e+01	-5.98254289e+01	7.49023030e+01	-5.30296245e+00	-9.04695235e+01
1673306285.71	-3.29536404e+00	1.40137551e+02	-6.01086227e+01	7.50164394e+01	-5.98792537e+01	7.31089335e+01	-5.28738214e+00	-9.05469379e+01
1673591857.14	-3.30002965e+00	1.40170848e+02	-6.00330017e+01	7.39221587e+01	-5.99314923e+01	7.43752658e+01	-5.27538429e+00	-9.07127471e+01
1673877428.57	-3.29618437e+00	1.40167539e+02	-6.00196721e+01	7.34811395e+01	-5.99444643e+01	7.35259099e+01	-5.28129093e+00	-9.07875198e+01
1674163000	-3.29591567e+00	1.40185055e+02	-6.02591298e+01	7.34811620e+01	-5.99466994e+01	7.40638650e+01	-5.27153304e+00	-9.09166597e+01
1674448571.43	-3.29865106e+00	1.40204978e+02	-6.01233352e+01	7.27877210e+01	-5.99650511e+01	7.35001594e+01	-5.26911556e+00	-9.09350692e+01
1674734142.86	-3.30082363e+00	1.40209969e+02	-6.02291849e+01	7.30432538e+01	-5.99136410e+01	7.35450143e+01	-5.26883501e+00	-9.10461360e+01
1675019714.29	-3.30430292e+00	1.40217458e+02	-6.01116646e+01	7.30676049e+01	-6.00466541e+01	7.27132211e+01	-5.27044344e+00	-9.11537963e+01
1675305285.71	-3.29997610e+00	1.40152188e+02	-6.03585154e+01	7.13774669e+01	-5.99953417e+01	7.17680772e+01	-5.27233841e+00	-9.12322913e+01
1675590857.14	-3.29913342e+00	1.40202914e+02	-6.03550389e+01	7.20318243e+01	-5.99052644e+01	7.13688696e+01	-5.26181639e+00	-9.14043691e+01
1675876428.57	-3.29153341e+00	1.40169089e+02	-6.03631210e+01	7.04903368e+01	-6.01966137e+01	7.12994483e+01	-5.25619624e+00	-9.14936075e+01
1676162000	-3.29451929e+00	1.40141371e+02	-6.05045198e+01	7.09492091e+01	-6.00968785e+01	7.15009376e+01	-5.25662781e+00	-9.15992295e+01
1676447571.43	-3.29335310e+00	1.40167179e+02	-6.04992906e+01	7.05824294e+01	-6.02090044e+01	7.10176935e+01	-5.25648447e+00	-9.17442145e+01
1676733142.86	-3.28847291e+00	1.40227177e+02	-6.05836025e+01	6.97884533e+01	-6.00520096e+01	7.00003960e+01	-5.25735883e+00	-9.18917072e+01
1677018714.29	-3.30042614e+00	1.40221368e+02	-6.06386958e+01	6.99756114e+01	-6.01110943e+01	6.97295336e+01	-5.25388312e+00	-9.20631276e+01
1677304285.71	-3.30035134e+00	1.40253790e+02	-6.05016292e+01	6.93150520e+01	-6.00693561e+01	6.91512725e+01	-5.25212264e+00	-9.21357564e+01
1677589857.14	-3.29860950e+00	1.40293784e+02	-6.05550217e+01	6.97917565e+01	-6.05338002e+01	6.94065362e+01	-5.24075378e+00	-9.22532753e+01
1677875428.57	-3.29214395e+00	1.40263978e+02	-6.07834137e+01	6.85899934e+01	-6.03492381e+01	6.80770095e+01	-5.25409049e+00	-9.24035237e+01
1678161000	-3.29123974e+00	1.40233690e+02	-6.06966455e+01	6.88118389e+01	-6.04327068e+01	6.76141483e+01	-5.24420319e+00	-9.25232683e+01
1678446571.43	-3.29322312e+00	1.40164906e+02	-6.06860086e+01	6.76891870e+01	-6.02454477e+01	6.79110102e+01	-5.24305109e+00	-9.26859077e+01
1678732142.86	-3.29415731e+00	1.40171913e+02	-6.06409166e+01	6.74896069e+01	-6.04249593e+01	6.71707971e+01	-5.24489597e+00	-9.27933359e+01
1679017714.29	-3.29305913e+00	1.40203570e+02	-6.07281874e+01	6.59284987e+01	-6.04261416e+01	6.69117738e+01	-5.24489005e+00	-9.29019100e+01
1679303285.71	-3.29314085e+00	1.40235672e+02	-6.09516378e+01	6.54782097e+01	-6.05282900e+01	6.70166685e+01	-5.24360799e+00	-9.30777835e+01
1679588857.14	-3.29796084e+00	1.40218264e+02	-6.09867826e+01	6.62366425e+01	-6.04042223e+01	6.59042382e+01	-5.24550012e+00	-9.31792210e+01
1679874428.57	-3.29884686e+00	1.40250433e+02	-6.08277543e+01	6.71326719e+01	-6.07436159e+01	6.64089753e+01	-5.24485051e+00	-9.32932077e+01
1680160000	-3.29608891e+00	1.40259883e+02	-6.10496824e+01	6.60849153e+01	-6.06289100e+01	6.53375045e+01	-5.24541608e+00	-9.33946518e+01
1680445571.43	-3.29832491e+00	1.40274409e+02	-6.08708589e+01	6.52460713e+01	-6.07135095e+01	6.57145988e+01	-5.24096962e+00	-9.33862160e+01
1680731142.86	-3.29727659e+00	1.40270970e+02	-6.11718303e+01	6.48783748e+01	-6.08613074e+01	6.47375175e+01	-5.24361346e+00	-9.35211496e+01
1681016714.29	-3.30060572e+00	1.40245565e+02	-6.10453145e+01	6.62452879e+01	-6.07378859e+01	6.36008397e+01	-5.24752886e+00	-9.36268210e+01
1681302285.71	-3.30168399e+00	1.40317800e+02	-6.11316481e+01	6.37097583e+01	-6.07706606e+01	6.42969462e+01	-5.24372368e+00	-9.38072075e+01
1681587857.14	-3.30128743e+00	1.40290795e+02	-6.13144513e+01	6.39504752e+01	-6.08109705e+01	6.35974111e+01	-5.24842176e+00	-9.38301456e+01
1681873428.57	-3.29800339e+00	1.40285910e+02	-6.12630616e+01	6.53895593e+01	-6.09256483e+01	6.44952419e+01	-5.24216801e+00	-9.39798826e+01
1682159000	-3.29973225e+00	1.40281611e+02	-6.11498720e+01	6.28133319e+01	-6.10381946e+01	6.24113847e+01	-5.25299995e+00	-9.40616801e+01
1682444571.43	-3.29995529e+00	1.40298695e+02	-6.14886290e+01	6.23628248e+01	-6.10044755e+01	6.25302662e+01	-5.25871573e+00	-9.41596063e+01
1682730142.86	-3.29964238e+00	1.40308023e+02	-6.13701079e+01	6.19942133e+01	-6.11600277e+01	6.12443524e+01	-5.25794452e+00	-9.42296696e+01
1683015714.29	-3.30438367e+00	1.40333981e+02	-6.13463183e+01	6.21876357e+01	-6.10450703e+01	6.21164302e+01	-5.26329416e+00	-9.43323043e+01
1683301285.71	-3.30492355e+00	1.40303685e+02	-6.14381833e+01	6.28515618e+01	-6.11081607e+01	6.15010789e+01	-5.26838900e+00	-9.44901552e+01
1683586857.14	-3.31327338e+00	1.40317356e+02	-6.15000106e+01	6.29969552e+01	-6.14532959e+01	6.21095032e+01	-5.27133707e+00	-9.45682873e+01
1683872428.57	-3.30514720e+00	1.40344533e+02	-6.13933514e+01	6.20932722e+01	-6.13743071e+01	6.17999435e+01	-5.27578329e+00	-9.46572547e+01
1684158000	-3.30614884e+00	1.40389968e+02	-6.15614722e+01	6.02792789e+01	-6.14341796e+01	6.15024554e+01	-5.28250834e+00	-9.47653832e+01
1684443571.43	-3.30435985e+00	1.40412201e+02	-6.17257019e+01	6.01707615e+01	-6.13077913e+01	6.13758741e+01	-5.27813565e+00	-9.49282047e+01
1684729142.86	-3.30572516e+00	1.40405699e+02	-6.18174245e+01	6.04670516e+01	-6.15290022e+01	6.11956466e+01	-5.28009991e+00	-9.50684190e+01
1685014714.29	-3.29934066e+00	1.40445909e+02	-6.16990028e+01	6.00989475e+01	-6.16126289e+01	5.99232643e+01	-5.28124864e+00	-9.51905393e+01
1685300285.71	-3.30627370e+00	1.40439279e+02	-6.16948132e+01	5.96982447e+01	-6.16094914e+01	6.05709261e+01	-5.29161723e+00	-9.53169606e+01
1685585857.14	-3.30537576e+00	1.40466569e+02	-6.18924413e+01	6.24391284e+01	-6.16530292e+01	6.06096736e+01	-5.29035080e+00	-9.54953434e+01
1685871428.57	-3.30738667e+00	1.40476644e+02	-6.21097335e+01	5.93925194e+01	-6.15672227e+01	5.97519003e+01	-5.29726127e+00	-9.56108594e+01
1686157000	-3.30888740e+00	1.40457272e+02	-6.22289288e+01	6.08542542e+01	-6.16299021e+01	5.81782691e+01	-5.29930089e+00	-9.57920282e+01
1686442571.43	-3.30965284e+00	1.40469952e+02	-6.18562301e+01	5.79932908e+01	-6.16551438e+01	5.98680255e+01	-5.30343510e+00	-9.58960428e+01
1686728142.86	-3.30942313e+00	1.40509093e+02	-6.21661005e+01	5.96229408e+01	-6.18879545e+01	5.87434026e+01	-5.31169702e+00	-9.60556733e+01
1687013714.29	-3.30462769e+00	1.40509486e+02	-6.22160728e+01	5.85173913e+01	-6.18833027e+01	5.98114545e+01	-5.31262141e+00	-9.61268827e+01
1687299285.71	-3.31333282e+00	1.40510246e+02	-6.20642381e+01	5.91836003e+01	-6.18152214e+01	6.05553236e+01	-5.33077840e+00	-9.62893371e+01
1687584857.14	-3.31849994e+00	1.40513516e+02	-6.24306647e+01	5.87427612e+01	-6.19940943e+01	5.95896925e+01	-5.33570552e+00	-9.64035722e+01
1687870428.57	-3.32216231e+00	1.40487713e+02	-6.23060569e+01	5.80418855e+01	-6.21666126e+01	5.87310067e+01	-5.33605486e+00	-9.65497918e+01
1688156000	-3.32023072e+00	1.40515233e+02	-6.23691784e+01	5.92735111e+01	-6.20622134e+01	5.96591679e+01	-5.34475092e+00	-9.67489969e+01
1688441571.43	-3.31360819e+00	1.40456222e+02	-6.23459841e+01	5.85821127e+01	-6.21436109e+01	5.64344700e+01	-5.34462909e+00	-9.69434742e+01
1688727142.86	-3.31605444e+00	1.40510305e+02	-6.25274421e+01	5.91197529e+01	-6.22740349e+01	5.71646816e+01	-5.35050399e+00	-9.71123587e+01
1689012714.29	-3.31457043e+00	1.40495366e+02	-6.25109965e+01	5.78291621e+01	-6.21034246e+01	5.77918185e+01	-5.36101335e+00	-9.71608141e+01
1689298285.71	-3.32557749e+00	1.40605653e+02	-6.24315722e+01	5.76374870e+01	-6.21190579e+01	5.68728840e+01	-5.37019653e+00	-9.73135992e+01
1689583857.14	-3.32291303e+00	1.40574761e+02	-6.24490197e+01	5.74437055e+01	-6.21668430e+01	5.79073287e+01	-5.38145776e+00	-9.74717760e+01
1689869428.57	-3.32212156e+00	1.40574017e+02	-6.26928010e+01	5.67459023e+01	-6.23470433e+01	5.73656665e+01	-5.38766112e+00	-9.75750083e+01
1690155000	-3.32884690e+00	1.40552564e+02	-6.24810948e+01	5.71031687e+01	-6.20344539e+01	5.62996427e+01	-5.39354612e+00	-9.77545225e+01
1690440571.43	-3.32206098e+00	1.40558435e+02	-6.26813986e+01	5.66387878e+01	-6.23241076e+01	5.53627060e+01	-5.40246596e+00	-9.79096536e+01
1690726142.86	-3.32062355e+00	1.40593947e+02	-6.25482529e+01	5.73147765e+01	-6.23082632e+01	5.59838340e+01	-5.40966579e+00	-9.79733394e+01
1691011714.29	-3.33128408e+00	1.40655510e+02	-6.27215333e+01	5.78671418e+01	-6.24018533e+01	5.54930556e+01	-5.42326959e+00	-9.81259926e+01
1691297285.71	-3.33822234e+00	1.40648193e+02	-6.29981108e+01	5.83879226e+01	-6.25220739e+01	5.64626284e+01	-5.41556348e+00	-9.82717220e+01
1691582857.14	-3.33317745e+00	1.40696373e+02	-6.26240760e+01	5.59316369e+01	-6.23922013e+01	5.61866193e+01	-5.42857568e+00	-9.84499424e+01
1691868428.57	-3.33174992e+00	1.40624368e+02	-6.26257642e+01	5.69490847e+01	-6.25059010e+01	5.52551144e+01	-5.44239797e+00	-9.85603476e+01
1692154000	-3.32819835e+00	1.40642655e+02	-6.28269176e+01	5.57281663e+01	-6.26409648e+01	5.60474742e+01	-5.44858891e+00	-9.87108919e+01
1692439571.43	-3.32856066e+00	1.40668912e+02	-6.27547693e+01	5.58076461e+01	-6.26082710e+01	5.50202556e+01	-5.46033695e+00	-9.87942685e+01
1692725142.86	-3.33166403e+00	1.40724222e+02	-6.29502651e+01	5.63150573e+01	-6.28821784e+01	5.49678637e+01	-5.47014983e+00	-9.89456134e+01
1693010714.29	-3.33540339e+00	1.40715790e+02	-6.31612758e+01	5.60715095e+01	-6.26773044e+01	5.55504391e+01	-5.48422114e+00	-9.91338050e+01
1693296285.71	-3.33804702e+00	1.40712801e+02	-6.32250103e+01	5.61075086e+01	-6.26415119e+01	5.59060898e+01	-5.48539431e+00	-9.92868830e+01
1693581857.14	-3.34505468e+00	1.40704706e+02	-6.31579423e+01	5.79757458e+01	-6.29795800e+01	5.61408775e+01	-5.50481383e+00	-9.94024748e+01
1693867428.57	-3.34475731e+00	1.40728861e+02	-6.32082304e+01	5.57198202e+01	-6.29234808e+01	5.50869454e+01	-5.51348542e+00	-9.95327979e+01
1694153000	-3.34426319e+00	1.40717911e+02	-6.32334486e+01	5.70463642e+01	-6.28760876e+01	5.64632001e+01	-5.52793913e+00	-9.96563822e+01
1694438571.43	-3.35463286e+00	1.40685755e+02	-6.33759126e+01	5.60836751e+01	-6.31200854e+01	5.44670676e+01	-5.53916265e+00	-9.98154486e+01
1694724142.86	-3.35648690e+00	1.40722748e+02	-6.33073513e+01	5.66019408e+01	-6.28562338e+01	5.47636941e+01	-5.54849924e+00	-9.99329699e+01
1695009714.29	-3.35631290e+00	1.40739808e+02	-6.33711044e+01	5.61806340e+01	-6.29171398e+01	5.44582518e+01	-5.56235107e+00	-1.00098173e+02
1695295285.71	-3.34770221e+00	1.40798692e+02	-6.36580436e+01	5.84070929e+01	-6.31079709e+01	5.55600386e+01	-5.57775433e+00	-1.00225184e+02
1695580857.14	-3.35035763e+00	1.40749878e+02	-6.33154476e+01	5.52676294e+01	-6.31397596e+01	5.64231643e+01	-5.58980207e+00	-1.00351536e+02
1695866428.57	-3.35625356e+00	1.40785836e+02	-6.32081670e+01	5.55077113e+01	-6.28633716e+01	5.47722826e+01	-5.59484606e+00	-1.00503797e+02
1696152000	-3.35642377e+00	1.40813073e+02	-6.34931295e+01	5.74826679e+01	-6.33151110e+01	5.52262135e+01	-5.60634348e+00	-1.00597510e+02
1696437571.43	-3.36469794e+00	1.40786802e+02	-6.32724002e+01	5.67287777e+01	-6.31242614e+01	5.53464434e+01	-5.61888449e+00	-1.00782042e+02
1696723142.86	-3.37112567e+00	1.40772691e+02	-6.31861686e+01	5.74513403e+01	-6.30452474e+01	5.65294068e+01	-5.63416102e+00	-1.00869558e+02
1697008714.29	-3.36519935e+00	1.40811609e+02	-6.32470531e+01	5.63681694e+01	-6.31443463e+01	5.58346123e+01	-5.64677243e+00	-1.00973325e+02
1697294285.71	-3.36991461e+00	1.40742955e+02	-6.34297343e+01	5.83944518e+01	-6.32855329e+01	5.31554541e+01	-5.65237666e+00	-1.01084236e+02
1697579857.14	-3.37341920e+00	1.40775073e+02	-6.31758491e+01	5.82903442e+01	-6.30208314e+01	5.59226675e+01	-5.66225048e+00	-1.01268935e+02
1697865428.57	-3.37316451e+00	1.40771258e+02	-6.36071333e+01	5.91767172e+01	-6.29662446e+01	5.59287319e+01	-5.67967207e+00	-1.01419945e+02
1698151000	-3.37535745e+00	1.40727184e+02	-6.34100015e+01	5.76512656e+01	-6.35546245e+01	5.66981434e+01	-5.68918626e+00	-1.01516512e+02
1698436571.43	-3.38064032e+00	1.40757449e+02	-6.32802110e+01	5.71129733e+01	-6.31900787e+01	5.71749250e+01	-5.69789794e+00	-1.01594985e+02
1698722142.86	-3.37974574e+00	1.40775884e+02	-6.33214631e+01	5.53886968e+01	-6.33653370e+01	5.66066010e+01	-5.71582568e+00	-1.01779145e+02
1699007714.29	-3.38789532e+00	1.40754657e+02	-6.32995937e+01	5.54959880e+01	-6.32623754e+01	5.71811820e+01	-5.72640125e+00	-1.01870478e+02
1699293285.71	-3.39178812e+00	1.40786784e+02	-6.30929965e+01	5.74846126e+01	-6.31378042e+01	5.64139213e+01	-5.73723165e+00	-1.01972019e+02
1699578857.14	-3.39555681e+00	1.40734330e+02	-6.34227490e+01	5.53968755e+01	-6.30659729e+01	5.48213312e+01	-5.74868994e+00	-1.02053246e+02
1699864428.57	-3.39872034e+00	1.40734424e+02	-6.35599738e+01	5.59614644e+01	-6.30788025e+01	5.47310153e+01	-5.75523964e+00	-1.02144138e+02
1700150000	-3.39444357e+00	1.40753406e+02	-6.34197013e+01	5.73638713e+01	-6.31619714e+01	5.55957543e+01	-5.76373734e+00	-1.02305518e+02
1700435571.43	-3.40253363e+00	1.40772165e+02	-6.34856643e+01	5.86131236e+01	-6.31363249e+01	5.50180074e+01	-5.78668216e+00	-1.02422304e+02
1700721142.86	-3.40265798e+00	1.40809951e+02	-6.37243793e+01	5.46986500e+01	-6.31218582e+01	5.49807557e+01	-5.79038168e+00	-1.02571752e+02
1701006714.29	-3.40400310e+00	1.40850059e+02	-6.31626002e+01	5.69597402e+01	-6.30225000e+01	5.57154443e+01	-5.79232391e+00	-1.02675234e+02
1701292285.71	-3.40526085e+00	1.40763852e+02	-6.33536987e+01	5.67539837e+01	-6.33505597e+01	5.56695505e+01	-5.81109481e+00	-1.02848205e+02
1701577857.14	-3.40962035e+00	1.40704387e+02	-6.33019419e+01	5.69665498e+01	-6.31600339e+01	5.55081753e+01	-5.82803698e+00	-1.02861294e+02
1701863428.57	-3.40776557e+00	1.40722353e+02	-6.33368135e+01	5.61322438e+01	-6.33461737e+01	5.49522304e+01	-5.85510218e+00	-1.02988440e+02
1702149000	-3.41406629e+00	1.40743295e+02	-6.35225952e+01	5.56289987e+01	-6.32543726e+01	5.35922989e+01	-5.85679235e+00	-1.03039811e+02
1702434571.43	-3.42012988e+00	1.40773627e+02	-6.34670883e+01	5.57599290e+01	-6.34119281e+01	5.18105625e+01	-5.86696804e+00	-1.03165882e+02
1702720142.86	-3.42129483e+00	1.40686354e+02	-6.36403491e+01	5.42084358e+01	-6.32629084e+01	5.43283991e+01	-5.88221811e+00	-1.03309329e+02
1703005714.29	-3.41786617e+00	1.40639336e+02	-6.31624552e+01	5.55047731e+01	-6.33973921e+01	5.37312652e+01	-5.89444929e+00	-1.03403762e+02
1703291285.71	-3.42042461e+00	1.40682184e+02	-6.34635551e+01	5.38427728e+01	-6.31883786e+01	5.36679862e+01	-5.90332545e+00	-1.03471686e+02
1703576857.14	-3.42615131e+00	1.40715815e+02	-6.35476984e+01	5.40382161e+01	-6.32987153e+01	5.49120700e+01	-5.89771989e+00	-1.03579477e+02
1703862428.57	-3.42648573e+00	1.40686723e+02	-6.35145362e+01	5.28485621e+01	-6.33047295e+01	5.29037340e+01	-5.91483114e+00	-1.03678404e+02
1704148000	-3.42838579e+00	1.40640957e+02	-6.35753772e+01	5.41905529e+01	-6.32775154e+01	5.29533092e+01	-5.92800856e+00	-1.03746833e+02
1704433571.43	-3.43106289e+00	1.40620393e+02	-6.34555031e+01	5.50589710e+01	-6.34269130e+01	5.45505625e+01	-5.94169033e+00	-1.03912084e+02
1704719142.86	-3.44350591e+00	1.40612400e+02	-6.36691007e+01	5.31419902e+01	-6.31830590e+01	5.27412586e+01	-5.95573842e+00	-1.03936500e+02
1705004714.29	-3.44860112e+00	1.40581287e+02	-6.36379339e+01	5.62295191e+01	-6.32489674e+01	5.24571241e+01	-5.96408272e+00	-1.04037586e+02
1705290285.71	-3.45127909e+00	1.40613699e+02	-6.37144333e+01	5.39065052e+01	-6.34693100e+01	5.40751471e+01	-5.97183799e+00	-1.04194896e+02
1705575857.14	-3.44741565e+00	1.40562509e+02	-6.36648974e+01	5.07952671e+01	-6.33066795e+01	5.39133338e+01	-5.98614382e+00	-1.04242529e+02
1705861428.57	-3.45461475e+00	1.40563776e+02	-6.33956384e+01	5.47957454e+01	-6.29857749e+01	5.21619695e+01	-5.98649080e+00	-1.04391700e+02
1706147000	-3.45335901e+00	1.40541037e+02	-6.36525512e+01	5.37025862e+01	-6.32153766e+01	5.23177236e+01	-5.99635643e+00	-1.04468450e+02
1706432571.43	-3.45505485e+00	1.40592603e+02	-6.33850644e+01	5.40752402e+01	-6.32076347e+01	5.20872928e+01	-6.00309160e+00	-1.04629973e+02
1706718142.86	-3.45938314e+00	1.40544449e+02	-6.35111505e+01	5.22141920e+01	-6.33029868e+01	5.05987668e+01	-6.01385244e+00	-1.04626518e+02
1707003714.29	-3.45460841e+00	1.40527199e+02	-6.34083891e+01	5.40798935e+01	-6.30988444e+01	5.22986386e+01	-6.00647100e+00	-1.04680136e+02
1707289285.71	-3.46215134e+00	1.40532437e+02	-6.35995140e+01	5.28638118e+01	-6.33912192e+01	5.10813423e+01	-6.02507400e+00	-1.04819332e+02
1707574857.14	-3.46244502e+00	1.40511685e+02	-6.33473354e+01	5.34711813e+01	-6.30749570e+01	5.29760219e+01	-6.03452201e+00	-1.04966604e+02
1707860428.57	-3.46504743e+00	1.40464116e+02	-6.36394184e+01	5.16949178e+01	-6.34391469e+01	5.11792136e+01	-6.03880504e+00	-1.05091302e+02
1708146000	-3.46533576e+00	1.40408331e+02	-6.34051105e+01	5.29345835e+01	-6.33002055e+01	5.28536240e+01	-6.04923767e+00	-1.05238875e+02
1708431571.43	-3.46211512e+00	1.40387665e+02	-6.34229951e+01	5.11959960e+01	-6.31807126e+01	5.28933983e+01	-6.04939084e+00	-1.05296072e+02
1708717142.86	-3.46912956e+00	1.40359397e+02	-6.36609253e+01	5.32521138e+01	-6.30584687e+01	5.27689172e+01	-6.06720626e+00	-1.05400830e+02
1709002714.29	-3.46910561e+00	1.40340993e+02	-6.34202540e+01	5.21842484e+01	-6.31902688e+01	5.36780858e+01	-6.06885911e+00	-1.05551035e+02
1709288285.71	-3.47602170e+00	1.40301718e+02	-6.34883335e+01	5.45434000e+01	-6.30874202e+01	5.37141224e+01	-6.07513242e+00	-1.05598590e+02
1709573857.14	-3.47428660e+00	1.40319604e+02	-6.34424285e+01	5.40698308e+01	-6.30935494e+01	5.01117991e+01	-6.08308916e+00	-1.05705591e+02
1709859428.57	-3.47574546e+00	1.40310817e+02	-6.33051454e+01	5.15040876e+01	-6.28004906e+01	5.07213273e+01	-6.08488788e+00	-1.05829586e+02
1710145000	-3.47892899e+00	1.40305233e+02	-6.33613965e+01	5.31703495e+01	-6.30105945e+01	5.26692981e+01	-6.10441635e+00	-1.05964776e+02
1710430571.43	-3.47833204e+00	1.40270755e+02	-6.32841183e+01	5.29974134e+01	-6.27974287e+01	5.12676654e+01	-6.10798249e+00	-1.06062630e+02
1710716142.86	-3.48502910e+00	1.40254689e+02	-6.32568230e+01	5.23346914e+01	-6.29516024e+01	5.26603822e+01	-6.11418527e+00	-1.06176136e+02
1711001714.29	-3.48275233e+00	1.40223452e+02	-6.30213091e+01	5.38291607e+01	-6.25873639e+01	5.09229193e+01	-6.10480147e+00	-1.06155399e+02
1711287285.71	-3.48517452e+00	1.40201447e+02	-6.32968658e+01	5.20673520e+01	-6.27871192e+01	5.02387216e+01	-6.11995018e+00	-1.06255548e+02
1711572857.14	-3.48976230e+00	1.40222209e+02	-6.28343437e+01	5.27283150e+01	-6.28506299e+01	5.15867503e+01	-6.12137973e+00	-1.06356519e+02
1711858428.57	-3.49335057e+00	1.40249437e+02	-6.31237783e+01	5.08533184e+01	-6.27511168e+01	5.13460726e+01	-6.12219899e+00	-1.06446050e+02
1712144000	-3.49790541e+00	1.40184262e+02	-6.32124216e+01	4.93418136e+01	-6.26641975e+01	5.09141034e+01	-6.13788001e+00	-1.06521254e+02
1712429571.43	-3.49469404e+00	1.40120820e+02	-6.29776889e+01	5.16661926e+01	-6.25826440e+01	5.07920598e+01	-6.14444251e+00	-1.06536866e+02
1712715142.86	-3.49562428e+00	1.40062499e+02	-6.31012292e+01	4.92215158e+01	-6.24915442e+01	5.04959982e+01	-6.14569658e+00	-1.06715762e+02
1713000714.29	-3.49865919e+00	1.40031073e+02	-6.31260516e+01	5.08031070e+01	-6.23438358e+01	4.94543312e+01	-6.16266082e+00	-1.06761104e+02
1713286285.71	-3.50112830e+00	1.40063805e+02	-6.31602913e+01	5.11080023e+01	-6.26841142e+01	4.90935327e+01	-6.17005150e+00	-1.06859921e+02
1713571857.14	-3.49955420e+00	1.40018638e+02	-6.27706172e+01	4.79039441e+01	-6.26454654e+01	4.92399492e+01	-6.17144281e+00	-1.06916571e+02
1713857428.57	-3.50323061e+00	1.40045808e+02	-6.26352391e+01	5.09025987e+01	-6.26069451e+01	4.90282964e+01	-6.17005697e+00	-1.07033979e+02
1714143000	-3.50120172e+00	1.39991891e+02	-6.28720741e+01	4.85293729e+01	-6.24464417e+01	4.85990897e+01	-6.18096181e+00	-1.07044512e+02
1714428571.43	-3.49813336e+00	1.39961843e+02	-6.29292521e+01	4.92438489e+01	-6.25715938e+01	4.85777590e+01	-6.19346067e+00	-1.07161302e+02
1714714142.86	-3.50602671e+00	1.39941324e+02	-6.26422858e+01	4.95819224e+01	-6.23406211e+01	4.80339549e+01	-6.20160048e+00	-1.07202201e+02
1714999714.29	-3.51421722e+00	1.39945122e+02	-6.27904924e+01	4.98940660e+01	-6.22842572e+01	4.72486232e+01	-6.21315879e+00	-1.07344870e+02
1715285285.71	-3.51096372e+00	1.39958977e+02	-6.28386642e+01	4.78981106e+01	-6.21563713e+01	4.66245081e+01	-6.23466296e+00	-1.07489528e+02
1715570857.14	-3.51339998e+00	1.39909073e+02	-6.28751010e+01	4.80483222e+01	-6.22895190e+01	4.68857303e+01	-6.23787117e+00	-1.07596665e+02
1715856428.57	-3.51785302e+00	1.39888646e+02	-6.29002895e+01	4.70057835e+01	-6.23464401e+01	4.65047095e+01	-6.24448931e+00	-1.07668672e+02
1716142000	-3.51688279e+00	1.39926492e+02	-6.27127252e+01	4.61785935e+01	-6.22076808e+01	4.64754040e+01	-6.25607329e+00	-1.07838532e+02
1716427571.43	-3.52212760e+00	1.39916379e+02	-6.27944750e+01	4.59092019e+01	-6.22784420e+01	4.45402991e+01	-6.25551910e+00	-1.07895938e+02
1716713142.86	-3.52040074e+00	1.39847049e+02	-6.26744229e+01	4.51482520e+01	-6.22032853e+01	4.55617133e+01	-6.27101935e+00	-1.08093464e+02
1716998714.29	-3.52630507e+00	1.39816356e+02	-6.27994659e+01	4.53165226e+01	-6.20593001e+01	4.39689130e+01	-6.27619584e+00	-1.08215620e+02
1717284285.71	-3.53219735e+00	1.39764548e+02	-6.27142829e+01	4.37685142e+01	-6.20724448e+01	4.37323284e+01	-6.28097335e+00	-1.08359493e+02
1717569857.14	-3.53586945e+00	1.39708133e+02	-6.24964596e+01	4.30286597e+01	-6.20179914e+01	4.33259923e+01	-6.30878593e+00	-1.08413156e+02
1717855428.57	-3.52860172e+00	1.39713640e+02	-6.27470031e+01	4.36790795e+01	-6.21521511e+01	4.32841513e+01	-6.31522369e+00	-1.08537403e+02
1718141000	-3.53116203e+00	1.39700511e+02	-6.27484511e+01	4.34590361e+01	-6.20159774e+01	4.14315648e+01	-6.31696860e+00	-1.08637195e+02
1718426571.43	-3.52359100e+00	1.39687036e+02	-6.29292447e+01	4.15557465e+01	-6.20039726e+01	4.17052399e+01	-6.32677469e+00	-1.08781557e+02
1718712142.86	-3.53118623e+00	1.39711923e+02	-6.25772968e+01	4.10109118e+01	-6.20444371e+01	4.12412053e+01	-6.33726119e+00	-1.08885371e+02
1718997714.29	-3.53273889e+00	1.39689112e+02	-6.27589782e+01	4.15289079e+01	-6.21862128e+01	3.99093466e+01	-6.34084219e+00	-1.08956595e+02
1719283285.71	-3.53147694e+00	1.39680456e+02	-6.26577614e+01	4.10093164e+01	-6.22281735e+01	3.81431334e+01	-6.34947040e+00	-1.09056840e+02
1719568857.14	-3.52841246e+00	1.39652013e+02	-6.26734742e+01	3.98648430e+01	-6.23003880e+01	3.99668244e+01	-6.36590163e+00	-1.09124647e+02
1719854428.57	-3.52510432e+00	1.39664854e+02	-6.27022681e+01	3.97674522e+01	-6.21105166e+01	3.84186320e+01	-6.36708183e+00	-1.09198274e+02
1720140000	-3.52683349e+00	1.39618753e+02	-6.26996855e+01	3.98779659e+01	-6.22108454e+01	3.84494914e+01	-6.36913451e+00	-1.09304557e+02
1720425571.43	-3.52560366e+00	1.39566386e+02	-6.27327988e+01	3.84602192e+01	-6.20005928e+01	3.75784910e+01	-6.37393856e+00	-1.09421755e+02
1720711142.86	-3.52957576e+00	1.39540562e+02	-6.27243011e+01	3.71121553e+01	-6.21187240e+01	3.62577259e+01	-6.38595106e+00	-1.09466642e+02
1720996714.29	-3.53633654e+00	1.39505369e+02	-6.27169624e+01	3.66207458e+01	-6.23278168e+01	3.62232735e+01	-6.39686788e+00	-1.09612515e+02
1721282285.71	-3.53409962e+00	1.39474791e+02	-6.27805556e+01	3.83942375e+01	-6.21698816e+01	3.62144451e+01	-6.39676352e+00	-1.09671746e+02
1721567857.14	-3.53682433e+00	1.39398311e+02	-6.27500040e+01	3.79027508e+01	-6.20877293e+01	3.67430746e+01	-6.40730513e+00	-1.09804929e+02
1721853428.57	-3.53133724e+00	1.39432525e+02	-6.29066902e+01	3.66454275e+01	-6.20808807e+01	3.57148825e+01	-6.41662065e+00	-1.09921668e+02
1722139000	-3.53799290e+00	1.39427092e+02	-6.25620947e+01	3.70197023e+01	-6.21446895e+01	3.55780402e+01	-6.43302208e+00	-1.10063230e+02
1722424571.43	-3.54017615e+00	1.39339584e+02	-6.28378449e+01	3.61001868e+01	-6.23258935e+01	3.47356722e+01	-6.44975056e+00	-1.10100055e+02
1722710142.86	-3.53206078e+00	1.39371135e+02	-6.29743357e+01	3.67734595e+01	-6.20408904e+01	3.40710745e+01	-6.45630106e+00	-1.10210982e+02
1722995714.29	-3.53254030e+00	1.39326412e+02	-6.27674433e+01	3.33873874e+01	-6.23633158e+01	3.49522677e+01	-6.47197227e+00	-1.10249883e+02
1723281285.71	-3.53063664e+00	1.39304448e+02	-6.29593612e+01	3.54051235e+01	-6.22378656e+01	3.21513985e+01	-6.47797028e+00	-1.10406808e+02
1723566857.14	-3.53175849e+00	1.39321907e+02	-6.28871491e+01	3.58338343e+01	-6.21502978e+01	3.18711117e+01	-6.48015018e+00	-1.10483740e+02
1723852428.57	-3.53804525e+00	1.39295753e+02	-6.28395822e+01	3.30594870e+01	-6.23073349e+01	3.27534081e+01	-6.48467297e+00	-1.10627195e+02
1724138000	-3.53549120e+00	1.39299122e+02	-6.27007257e+01	3.35481887e+01	-6.22024477e+01	3.27496809e+01	-6.49561993e+00	-1.10658411e+02
1724423571.43	-3.53644140e+00	1.39287203e+02	-6.27833722e+01	3.44115520e+01	-6.23092669e+01	3.01809314e+01	-6.50551375e+00	-1.10809953e+02
1724709142.86	-3.53618179e+00	1.39179187e+02	-6.29600809e+01	3.35486530e+01	-6.23282574e+01	3.17230679e+01	-6.51243411e+00	-1.10906409e+02
1724994714.29	-3.53798284e+00	1.39213528e+02	-6.31529071e+01	3.21696849e+01	-6.23466424e+01	3.18756841e+01	-6.50695859e+00	-1.11027294e+02
1725280285.71	-3.53844867e+00	1.39228991e+02	-6.29003761e+01	3.25369698e+01	-6.23709744e+01	3.15434889e+01	-6.51441044e+00	-1.11037527e+02
1725565857.14	-3.53406140e+00	1.39225905e+02	-6.29277870e+01	3.22773299e+01	-6.23642124e+01	2.97080376e+01	-6.51853691e+00	-1.11161235e+02
1725851428.57	-3.53561103e+00	1.39161304e+02	-6.31161354e+01	3.24446143e+01	-6.23554669e+01	2.94738574e+01	-6.52691751e+00	-1.11287228e+02
1726137000	-3.53425671e+00	1.39114854e+02	-6.28942359e+01	3.05756458e+01	-6.23868480e+01	3.03715418e+01	-6.54177248e+00	-1.11421948e+02
1726422571.43	-3.53361613e+00	1.39067853e+02	-6.32081577e+01	3.18286362e+01	-6.24292147e+01	2.86362459e+01	-6.54981622e+00	-1.11520576e+02
1726708142.86	-3.53754226e+00	1.39061431e+02	-6.30080098e+01	3.07925406e+01	-6.24458426e+01	2.80976034e+01	-6.55320856e+00	-1.11702379e+02
1726993714.29	-3.53930428e+00	1.39050312e+02	-6.31525084e+01	3.01620345e+01	-6.24291486e+01	2.68373873e+01	-6.56329251e+00	-1.11753429e+02
1727279285.71	-3.53929771e+00	1.39028896e+02	-6.31222044e+01	3.02996047e+01	-6.25461504e+01	2.69863381e+01	-6.57702999e+00	-1.11896836e+02
1727564857.14	-3.53927281e+00	1.39019304e+02	-6.32219916e+01	2.93659528e+01	-6.24447260e+01	2.73613792e+01	-6.58636353e+00	-1.11972816e+02
1727850428.57	-3.53639806e+00	1.38993990e+02	-6.33541093e+01	2.83810301e+01	-6.25722313e+01	2.73128359e+01	-6.60195427e+00	-1.11987156e+02
1728136000	-3.53873830e+00	1.38996131e+02	-6.31982473e+01	2.95180266e+01	-6.25133843e+01	2.67730130e+01	-6.59211002e+00	-1.12131220e+02
1728421571.43	-3.53261335e+00	1.38985713e+02	-6.30878246e+01	2.91120451e+01	-6.23574105e+01	2.65987037e+01	-6.59816090e+00	-1.12185769e+02
1728707142.86	-3.53877995e+00	1.38982463e+02	-6.31529814e+01	2.98737190e+01	-6.25838077e+01	2.62613537e+01	-6.60392125e+00	-1.12275541e+02
1728992714.29	-3.53910544e+00	1.38972679e+02	-6.30267456e+01	2.90308012e+01	-6.24812363e+01	2.56116384e+01	-6.60373354e+00	-1.12357940e+02
1729278285.71	-3.54119621e+00	1.38962686e+02	-6.32723271e+01	2.83448099e+01	-6.27641484e+01	2.48767828e+01	-6.61414680e+00	-1.12378022e+02
1729563857.14	-3.53810420e+00	1.38937627e+02	-6.32729028e+01	2.92841812e+01	-6.26694190e+01	2.49046838e+01	-6.62209838e+00	-1.12484171e+02
1729849428.57	-3.53409522e+00	1.38938372e+02	-6.33807429e+01	2.79554365e+01	-6.26744226e+01	2.58601111e+01	-6.64480783e+00	-1.12588921e+02
1730135000	-3.53831430e+00	1.38915987e+02	-6.33460651e+01	2.59324456e+01	-6.27419419e+01	2.43628046e+01	-6.64688266e+00	-1.12549922e+02
1730420571.43	-3.54096552e+00	1.38887250e+02	-6.34921678e+01	2.68255766e+01	-6.27139041e+01	2.37219750e+01	-6.65951277e+00	-1.12679007e+02
1730706142.86	-3.54111823e+00	1.38869506e+02	-6.33113641e+01	2.65789941e+01	-6.28090930e+01	2.21431214e+01	-6.66892118e+00	-1.12729099e+02
1730991714.29	-3.53878100e+00	1.38888157e+02	-6.34687935e+01	2.78230340e+01	-6.28319164e+01	2.35986318e+01	-6.66925630e+00	-1.12860603e+02
1731277285.71	-3.53213180e+00	1.38842820e+02	-6.37832850e+01	2.75188386e+01	-6.31480799e+01	2.27338978e+01	-6.68936190e+00	-1.12835201e+02
1731562857.14	-3.53085961e+00	1.38821469e+02	-6.36946796e+01	2.59140621e+01	-6.28171747e+01	2.22284064e+01	-6.68648709e+00	-1.12924444e+02
1731848428.57	-3.53338324e+00	1.38828042e+02	-6.38205268e+01	2.63040758e+01	-6.28984397e+01	2.21089085e+01	-6.69672141e+00	-1.12986620e+02
1732134000	-3.53690275e+00	1.38837386e+02	-6.37405445e+01	2.59449261e+01	-6.29365736e+01	2.19528164e+01	-6.71249761e+00	-1.13045475e+02
1732419571.43	-3.52871695e+00	1.38804797e+02	-6.36170332e+01	2.71099453e+01	-6.31410782e+01	2.26231947e+01	-6.71852775e+00	-1.13168223e+02
1732705142.86	-3.53358129e+00	1.38831542e+02	-6.35997904e+01	2.43989186e+01	-6.31061558e+01	2.17099206e+01	-6.73546878e+00	-1.13251242e+02
1732990714.29	-3.53323690e+00	1.38843947e+02	-6.35855731e+01	2.54021181e+01	-6.30927446e+01	2.16131717e+01	-6.72763879e+00	-1.13264918e+02
1733276285.71	-3.54339918e+00	1.38793811e+02	-6.39733250e+01	2.34101547e+01	-6.31503860e+01	2.17017855e+01	-6.74461633e+00	-1.13377008e+02
1733561857.14	-3.53918310e+00	1.38770650e+02	-6.39153774e+01	2.49178568e+01	-6.31346787e+01	2.17641853e+01	-6.76128957e+00	-1.13391811e+02
1733847428.57	-3.54012107e+00	1.38789330e+02	-6.36544442e+01	2.54901836e+01	-6.30584065e+01	2.11401425e+01	-6.76664856e+00	-1.13508098e+02
1734133000	-3.53752938e+00	1.38747932e+02	-6.35257738e+01	2.70984555e+01	-6.33107122e+01	2.09491406e+01	-6.77425646e+00	-1.13618278e+02
1734418571.43	-3.53362282e+00	1.38790826e+02	-6.36683400e+01	2.54082454e+01	-6.33755690e+01	2.08892610e+01	-6.78998470e+00	-1.13649819e+02
1734704142.86	-3.52820006e+00	1.38768667e+02	-6.37588367e+01	2.45444519e+01	-6.32862735e+01	1.98810004e+01	-6.78943353e+00	-1.13790019e+02
1734989714.29	-3.52908098e+00	1.38784822e+02	-6.38367714e+01	2.52171743e+01	-6.34336628e+01	1.96345241e+01	-6.79439863e+00	-1.13843674e+02
1735275285.71	-3.53567905e+00	1.38722481e+02	-6.37383211e+01	2.65126824e+01	-6.33980442e+01	2.09573791e+01	-6.79986800e+00	-1.13875764e+02
1735560857.14	-3.53770089e+00	1.38694800e+02	-6.37472494e+01	2.71777659e+01	-6.33302836e+01	1.97167394e+01	-6.80971380e+00	-1.13986472e+02
1735846428.57	-3.53513122e+00	1.38668992e+02	-6.37601652e+01	2.44219137e+01	-6.34032210e+01	1.90700018e+01	-6.81713265e+00	-1.14006902e+02
1736132000	-3.52926181e+00	1.38698632e+02	-6.37667206e+01	2.40189549e+01	-6.35938265e+01	2.07140301e+01	-6.81865647e+00	-1.14156662e+02
1736417571.43	-3.52633440e+00	1.38714535e+02	-6.37723177e+01	2.43401271e+01	-6.33211514e+01	1.95388009e+01	-6.82380894e+00	-1.14203068e+02
1736703142.86	-3.53599701e+00	1.38696023e+02	-6.38943970e+01	2.47516049e+01	-6.34334876e+01	2.11019436e+01	-6.83933870e+00	-1.14282441e+02
1736988714.29	-3.53544712e+00	1.38650520e+02	-6.39719313e+01	2.40980012e+01	-6.33293410e+01	2.01686115e+01	-6.84523937e+00	-1.14294935e+02
1737274285.71	-3.53559169e+00	1.38675479e+02	-6.40197919e+01	2.49680628e+01	-6.34683533e+01	2.01289584e+01	-6.85480020e+00	-1.14324515e+02
1737559857.14	-3.53100641e+00	1.38678991e+02	-6.37948036e+01	2.53249254e+01	-6.34489945e+01	1.92690301e+01	-6.87573254e+00	-1.14392406e+02
1737845428.57	-3.53057390e+00	1.38655414e+02	-6.41584587e+01	2.38135206e+01	-6.34269116e+01	1.82777563e+01	-6.89438378e+00	-1.14334260e+02
1738131000	-3.53005819e+00	1.38675649e+02	-6.39223092e+01	2.40279970e+01	-6.34102846e+01	1.99589709e+01	-6.90176968e+00	-1.14412925e+02
1738416571.43	-3.53752038e+00	1.38651454e+02	-6.39402483e+01	2.32570735e+01	-6.36454610e+01	1.92043157e+01	-6.90698466e+00	-1.14344547e+02
1738702142.86	-3.53340737e+00	1.38628592e+02	-6.38897655e+01	2.44622571e+01	-6.37418417e+01	1.84000822e+01	-6.91609574e+00	-1.14462266e+02
1738987714.29	-3.53515422e+00	1.38614124e+02	-6.39628483e+01	2.36950661e+01	-6.34554660e+01	1.94678366e+01	-6.92680558e+00	-1.14447122e+02
1739273285.71	-3.53437957e+00	1.38615928e+02	-6.37451096e+01	2.47595925e+01	-6.31485178e+01	1.98884011e+01	-6.94657107e+00	-1.14422994e+02
1739558857.14	-3.53044306e+00	1.38613268e+02	-6.37181077e+01	2.26203186e+01	-6.36604763e+01	1.99761010e+01	-6.96374979e+00	-1.14426285e+02
1739844428.57	-3.53307392e+00	1.38609661e+02	-6.37272290e+01	2.36691425e+01	-6.33056125e+01	1.70935674e+01	-6.96988437e+00	-1.14456647e+02
1740130000	-3.53737028e+00	1.38604447e+02	-6.37119813e+01	2.21309129e+01	-6.33448450e+01	1.77397824e+01	-6.98039888e+00	-1.14527742e+02
1740415571.43	-3.53564236e+00	1.38580228e+02	-6.37677923e+01	2.11734640e+01	-6.34922879e+01	1.80085468e+01	-6.99614590e+00	-1.14526670e+02
1740701142.86	-3.53507793e+00	1.38604619e+02	-6.36509023e+01	2.32025353e+01	-6.34568598e+01	2.00005057e+01	-6.99697430e+00	-1.14522716e+02
1740986714.29	-3.53441634e+00	1.38608769e+02	-6.37460283e+01	2.29540932e+01	-6.34540534e+01	1.70065018e+01	-7.01597384e+00	-1.14596698e+02
1741272285.71	-3.53419872e+00	1.38633788e+02	-6.36158529e+01	2.34285235e+01	-6.36056620e+01	1.86780274e+01	-7.02361746e+00	-1.14598397e+02
1741557857.14	-3.53624555e+00	1.38640312e+02	-6.39211964e+01	2.17743980e+01	-6.34775822e+01	1.74039983e+01	-7.03774805e+00	-1.14599336e+02
1741843428.57	-3.53484747e+00	1.38616468e+02	-6.37588778e+01	2.14336796e+01	-6.32065917e+01	1.66547714e+01	-7.04043830e+00	-1.14535807e+02
1742129000	-3.52765375e+00	1.38608512e+02	-6.37788657e+01	2.17263973e+01	-6.36033444e+01	1.78482003e+01	-7.05422326e+00	-1.14601864e+02
1742414571.43	-3.53275776e+00	1.38591033e+02	-6.35975818e+01	2.13961992e+01	-6.33337603e+01	1.74051325e+01	-7.06420462e+00	-1.14638864e+02
1742700142.86	-3.53364346e+00	1.38634365e+02	-6.37565609e+01	2.19728883e+01	-6.34541809e+01	1.68488671e+01	-7.07701592e+00	-1.14669456e+02
1742985714.29	-3.53219173e+00	1.38605929e+02	-6.34313458e+01	2.01465445e+01	-6.30993830e+01	1.77595830e+01	-7.08835791e+00	-1.14728893e+02
1743271285.71	-3.53001784e+00	1.38593419e+02	-6.37795429e+01	2.15109168e+01	-6.31687204e+01	1.51495230e+01	-7.09780291e+00	-1.14683868e+02
1743556857.14	-3.52879145e+00	1.38586289e+02	-6.37070184e+01	2.13782525e+01	-6.32337766e+01	1.52398206e+01	-7.11902945e+00	-1.14746892e+02
1743842428.57	-3.53157679e+00	1.38567346e+02	-6.37111212e+01	1.94123927e+01	-6.34629054e+01	1.51469883e+01	-7.12213755e+00	-1.14761284e+02
1744128000	-3.53676252e+00	1.38570658e+02	-6.37693752e+01	2.06981180e+01	-6.35191647e+01	1.56534993e+01	-7.13265651e+00	-1.14802243e+02
1744413571.43	-3.52871312e+00	1.38604187e+02	-6.33251097e+01	1.86497946e+01	-6.33272211e+01	1.59105271e+01	-7.14197868e+00	-1.14801139e+02
1744699142.86	-3.53193074e+00	1.38593906e+02	-6.36164333e+01	1.97004662e+01	-6.33096539e+01	1.46123966e+01	-7.15232233e+00	-1.14749611e+02
1744984714.29	-3.53783550e+00	1.38642924e+02	-6.36419901e+01	1.99393632e+01	-6.34421733e+01	1.60104209e+01	-7.16658467e+00	-1.14827377e+02
1745270285.71	-3.53050345e+00	1.38659677e+02	-6.37276050e+01	1.90081205e+01	-6.32064235e+01	1.45431155e+01	-7.17591682e+00	-1.14842288e+02
1745555857.14	-3.53902155e+00	1.38637857e+02	-6.38102208e+01	1.93674020e+01	-6.32893086e+01	1.41818722e+01	-7.18648614e+00	-1.14929358e+02
1745841428.57	-3.54017948e+00	1.38606447e+02	-6.37803659e+01	1.86888098e+01	-6.33438562e+01	1.49805655e+01	-7.19844670e+00	-1.14840264e+02
1746127000	-3.54067453e+00	1.38641753e+02	-6.36164940e+01	1.98149693e+01	-6.32262179e+01	1.54263734e+01	-7.20394034e+00	-1.14872928e+02
1746412571.43	-3.53805427e+00	1.38628456e+02	-6.34446875e+01	1.91997511e+01	-6.32955668e+01	1.39797483e+01	-7.21111840e+00	-1.14875332e+02
1746698142.86	-3.54009180e+00	1.38602844e+02	-6.37503087e+01	1.88085069e+01	-6.31708244e+01	1.33533729e+01	-7.22220215e+00	-1.14984942e+02
1746983714.29	-3.53463415e+00	1.38622929e+02	-6.34656180e+01	1.61977962e+01	-6.32212136e+01	1.45859219e+01	-7.21863169e+00	-1.15009995e+02
1747269285.71	-3.53604644e+00	1.38665480e+02	-6.36105553e+01	1.74868286e+01	-6.32368915e+01	1.33557675e+01	-7.22558266e+00	-1.14917549e+02
1747554857.14	-3.52911616e+00	1.38615245e+02	-6.33548886e+01	1.66578456e+01	-6.33748941e+01	1.26637510e+01	-7.24424206e+00	-1.14989207e+02
1747840428.57	-3.53238615e+00	1.38613400e+02	-6.32930102e+01	1.65331765e+01	-6.33232726e+01	1.19657487e+01	-7.24591748e+00	-1.14948606e+02
1748126000	-3.53510381e+00	1.38630232e+02	-6.33615300e+01	1.62866688e+01	-6.32223463e+01	1.25088171e+01	-7.25697282e+00	-1.14948154e+02
1748411571.43	-3.52634183e+00	1.38666597e+02	-6.37222294e+01	1.74940408e+01	-6.32639988e+01	1.26460164e+01	-7.25110769e+00	-1.14952130e+02
1748697142.86	-3.53240189e+00	1.38702794e+02	-6.34335919e+01	1.64379423e+01	-6.33932879e+01	1.15407918e+01	-7.26089366e+00	-1.15036931e+02
1748982714.29	-3.53693029e+00	1.38651450e+02	-6.33526965e+01	1.60035742e+01	-6.31548900e+01	1.15377990e+01	-7.27498256e+00	-1.15021124e+02
1749268285.71	-3.55089998e+00	1.38697841e+02	-6.32939618e+01	1.69152002e+01	-6.32630776e+01	1.25813435e+01	-7.27289845e+00	-1.15057579e+02
1749553857.14	-3.53720540e+00	1.38656877e+02	-6.32493306e+01	1.54484156e+01	-6.31912471e+01	1.09505711e+01	-7.29241963e+00	-1.15003882e+02
1749839428.57	-3.53949124e+00	1.38689378e+02	-6.33186840e+01	1.45401218e+01	-6.30742624e+01	1.06741145e+01	-7.29197502e+00	-1.15018266e+02
1750125000	-3.54003113e+00	1.38710983e+02	-6.32453146e+01	1.38916324e+01	-6.33177631e+01	1.09676400e+01	-7.29589018e+00	-1.15014374e+02
1750410571.43	-3.53945014e+00	1.38752690e+02	-6.32871923e+01	1.52909467e+01	-6.33500986e+01	9.60892448e+00	-7.30697361e+00	-1.15050759e+02
1750696142.86	-3.54611789e+00	1.38735750e+02	-6.32970740e+01	1.16116557e+01	-6.31110187e+01	1.12416182e+01	-7.31356363e+00	-1.15069457e+02
1750981714.29	-3.54435095e+00	1.38749987e+02	-6.33854429e+01	1.54677173e+01	-6.29480021e+01	9.49577777e+00	-7.30453099e+00	-1.15072577e+02
1751267285.71	-3.54016284e+00	1.38728980e+02	-6.32063920e+01	1.20912072e+01	-6.32673111e+01	7.73636848e+00	-7.31925783e+00	-1.15081780e+02
1751552857.14	-3.53765297e+00	1.38737547e+02	-6.32942839e+01	1.34483626e+01	-6.32441878e+01	7.69704968e+00	-7.32830158e+00	-1.15093411e+02
1751838428.57	-3.54305351e+00	1.38805142e+02	-6.30814510e+01	1.38836465e+01	-6.31429896e+01	9.29626122e+00	-7.33420412e+00	-1.15041514e+02
1752124000	-3.53797302e+00	1.38778419e+02	-6.32989420e+01	1.21369756e+01	-6.30463756e+01	8.99268208e+00	-7.32589098e+00	-1.15118249e+02
1752409571.43	-3.54391287e+00	1.38746112e+02	-6.32690531e+01	1.23854938e+01	-6.30937837e+01	8.99114611e+00	-7.34155537e+00	-1.15149001e+02
1752695142.86	-3.54246267e+00	1.38802556e+02	-6.33577344e+01	1.06449190e+01	-6.31981656e+01	7.45105580e+00	-7.33557124e+00	-1.15158265e+02
1752980714.29	-3.54847641e+00	1.38872390e+02	-6.34813579e+01	1.06284901e+01	-6.31289960e+01	7.76071843e+00	-7.33882913e+00	-1.15237547e+02
1753266285.71	-3.55042721e+00	1.38875809e+02	-6.33295909e+01	1.17582768e+01	-6.32947562e+01	7.10897905e+00	-7.34953880e+00	-1.15166978e+02
1753551857.14	-3.55432916e+00	1.38900448e+02	-6.33485934e+01	9.82025941e+00	-6.30306071e+01	6.61431542e+00	-7.36712099e+00	-1.15189599e+02
1753837428.57	-3.55649581e+00	1.38888541e+02	-6.32079388e+01	1.05237940e+01	-6.29242384e+01	6.44629510e+00	-7.37932921e+00	-1.15262876e+02
1754123000	-3.55516554e+00	1.38869119e+02	-6.33107512e+01	1.26452412e+01	-6.33594902e+01	5.70522548e+00	-7.38289440e+00	-1.15198682e+02
1754408571.43	-3.56260765e+00	1.38871134e+02	-6.36888089e+01	9.27067913e+00	-6.30775796e+01	6.45233728e+00	-7.37774537e+00	-1.15227916e+02
1754694142.86	-3.56096724e+00	1.38901706e+02	-6.35097713e+01	9.96910194e+00	-6.30745260e+01	7.35792752e+00	-7.40535901e+00	-1.15302364e+02
1754979714.29	-3.55860234e+00	1.38920222e+02	-6.34289250e+01	1.18753962e+01	-6.30469620e+01	6.07394445e+00	-7.38281602e+00	-1.15331455e+02
1755265285.71	-3.55877675e+00	1.38874757e+02	-6.31983441e+01	9.95267755e+00	-6.31032130e+01	4.96113733e+00	-7.40990975e+00	-1.15307661e+02
1755550857.14	-3.55757480e+00	1.38884887e+02	-6.33943765e+01	9.55431353e+00	-6.30218769e+01	5.65684114e+00	-7.40672711e+00	-1.15398098e+02
1755836428.57	-3.55326851e+00	1.38918345e+02	-6.30233053e+01	9.48958514e+00	-6.29821469e+01	5.26643753e+00	-7.42393833e+00	-1.15279671e+02
1756122000	-3.56599525e+00	1.38935159e+02	-6.33104642e+01	9.97795214e+00	-6.30340319e+01	4.57569282e+00	-7.42679802e+00	-1.15308357e+02
1756407571.43	-3.56265623e+00	1.38945218e+02	-6.34370321e+01	9.77674558e+00	-6.29099768e+01	6.03615955e+00	-7.44095616e+00	-1.15281908e+02
1756693142.86	-3.56992977e+00	1.38946630e+02	-6.33734071e+01	8.89600452e+00	-6.29560617e+01	4.41804561e+00	-7.44694607e+00	-1.15356768e+02
1756978714.29	-3.56915311e+00	1.38952258e+02	-6.32883728e+01	6.26683949e+00	-6.31511430e+01	4.85390663e+00	-7.45101474e+00	-1.15302088e+02
1757264285.71	-3.56339509e+00	1.38958105e+02	-6.33175966e+01	9.79900495e+00	-6.29389480e+01	4.47615560e+00	-7.46578924e+00	-1.15311315e+02
1757549857.14	-3.56403173e+00	1.38919585e+02	-6.33310314e+01	6.04893936e+00	-6.29120300e+01	3.90372375e+00	-7.47457109e+00	-1.15356170e+02
1757835428.57	-3.56955548e+00	1.38936918e+02	-6.33786088e+01	7.57777758e+00	-6.31166673e+01	4.22553726e+00	-7.46803648e+00	-1.15331296e+02
1758121000	-3.56782175e+00	1.38954075e+02	-6.34923931e+01	5.73447890e+00	-6.30407667e+01	3.24849242e+00	-7.48666359e+00	-1.15324934e+02
1758406571.43	-3.56921276e+00	1.38978942e+02	-6.31500779e+01	6.39245080e+00	-6.29658833e+01	3.39586024e+00	-7.47988037e+00	-1.15287586e+02
1758692142.86	-3.57181370e+00	1.38897141e+02	-6.31474881e+01	1.07584692e+01	-6.29679107e+01	2.79468072e+00	-7.48306955e+00	-1.15315869e+02
1758977714.29	-3.58170183e+00	1.38956888e+02	-6.32740215e+01	5.16389424e+00	-6.28948012e+01	2.40997201e+00	-7.48688659e+00	-1.15384111e+02
1759263285.71	-3.58191523e+00	1.39005458e+02	-6.34872752e+01	8.05082447e+00	-6.30579730e+01	2.16816414e+00	-7.50670839e+00	-1.15344483e+02
1759548857.14	-3.58141488e+00	1.39057042e+02	-6.32718026e+01	5.36931574e+00	-6.27373091e+01	1.22037550e+00	-7.51997269e+00	-1.15365250e+02
1759834428.57	-3.58390438e+00	1.38987937e+02	-6.32730904e+01	5.28131516e+00	-6.28301937e+01	1.74179934e-01	-7.52151095e+00	-1.15407528e+02
1760120000	-3.58196460e+00	1.38956450e+02	-6.33112235e+01	6.47685367e+00	-6.30030135e+01	8.16360165e-01	-7.51185197e+00	-1.15357780e+02
1760405571.43	-3.58531808e+00	1.39018105e+02	-6.31983464e+01	5.39180366e+00	-6.29912483e+01	-3.94195501e-01	-7.53013741e+00	-1.15435163e+02
1760691142.86	-3.58905896e+00	1.39097802e+02	-6.32838262e+01	5.23233051e+00	-6.29432650e+01	1.67843296e+00	-7.53217793e+00	-1.15453227e+02
1760976714.29	-3.59137714e+00	1.39036264e+02	-6.33672073e+01	4.08411243e+00	-6.29598606e+01	-6.98677673e-01	-7.54272029e+00	-1.15402574e+02
1761262285.71	-3.59509686e+00	1.38997717e+02	-6.35939639e+01	3.92979208e+00	-6.28740861e+01	-1.19356486e-01	-7.54891869e+00	-1.15441745e+02
1761547857.14	-3.59091058e+00	1.39024152e+02	-6.33336460e+01	4.92811935e+00	-6.29723163e+01	-9.60348048e-01	-7.54774704e+00	-1.15492952e+02
1761833428.57	-3.59176202e+00	1.39022189e+02	-6.32957248e+01	5.75528859e-01	-6.28627542e+01	-2.10225472e+00	-7.54514315e+00	-1.15518336e+02
1762119000	-3.59700103e+00	1.38996594e+02	-6.35078664e+01	2.91372871e+00	-6.29905934e+01	4.80702352e-02	-7.55125373e+00	-1.15443235e+02
1762404571.43	-3.59917177e+00	1.39009151e+02	-6.34806458e+01	2.56273756e+00	-6.31428366e+01	-3.19189880e+00	-7.57290276e+00	-1.15445064e+02
1762690142.86	-3.60975113e+00	1.38961370e+02	-6.32512874e+01	4.10924083e-01	-6.29361552e+01	-2.23110658e+00	-7.55620194e+00	-1.15475033e+02
1762975714.29	-3.60874377e+00	1.38951599e+02	-6.31600964e+01	1.53438656e+00	-6.26079712e+01	-1.70546305e+00	-7.57459756e+00	-1.15427103e+02
1763261285.71	-3.60907170e+00	1.38934542e+02	-6.31324495e+01	3.64165539e-01	-6.30870786e+01	-2.35655866e+00	-7.58602248e+00	-1.15469102e+02
1763546857.14	-3.61089091e+00	1.38945690e+02	-6.33278671e+01	3.01972181e+00	-6.32151710e+01	-3.80882044e+00	-7.59276869e+00	-1.15346932e+02
1763832428.57	-3.61869157e+00	1.39045640e+02	-6.31536733e+01	9.76406697e-01	-6.28356022e+01	-2.28784359e+00	-7.58158389e+00	-1.15329625e+02
1764118000	-3.62040143e+00	1.39004074e+02	-6.33643878e+01	2.21467158e+00	-6.29812629e+01	-3.86261076e+00	-7.59935533e+00	-1.15398941e+02
1764403571.43	-3.62347319e+00	1.38950112e+02	-6.32861355e+01	-3.69170738e-01	-6.29562123e+01	-4.91394777e+00	-7.61011056e+00	-1.15299347e+02
1764689142.86	-3.62730535e+00	1.38927854e+02	-6.31002515e+01	-9.23597331e-01	-6.29961272e+01	-5.59208070e+00	-7.61639296e+00	-1.15283418e+02
1764974714.29	-3.62874215e+00	1.38913400e+02	-6.33929462e+01	-1.02475740e+00	-6.26875009e+01	-4.66380916e+00	-7.60957110e+00	-1.15282205e+02
1765260285.71	-3.63105286e+00	1.38933451e+02	-6.37585197e+01	-6.17401817e-01	-6.29999539e+01	-5.18187956e+00	-7.62304719e+00	-1.15318774e+02
1765545857.14	-3.64000624e+00	1.38996179e+02	-6.35799893e+01	6.91444071e-01	-6.28815362e+01	-4.66602575e+00	-7.61564292e+00	-1.15306415e+02
1765831428.57	-3.64514275e+00	1.38975652e+02	-6.35462475e+01	-3.32731185e-01	-6.30210074e+01	-6.64134744e+00	-7.61872396e+00	-1.15274478e+02
1766117000	-3.64409595e+00	1.38939098e+02	-6.33831279e+01	-1.10658383e+00	-6.32827275e+01	-5.24737867e+00	-7.61769811e+00	-1.15280439e+02
1766402571.43	-3.63910048e+00	1.38962310e+02	-6.33510634e+01	-2.20851303e+00	-6.33393961e+01	-5.61225364e+00	-7.63134609e+00	-1.15222024e+02
1766688142.86	-3.64020236e+00	1.38982743e+02	-6.36884172e+01	-1.64914850e+00	-6.30615706e+01	-5.70667937e+00	-7.63696556e+00	-1.15137666e+02
1766973714.29	-3.64327716e+00	1.38942788e+02	-6.34908447e+01	-2.93553635e+00	-6.29813773e+01	-7.67149030e+00	-7.62967331e+00	-1.15163251e+02
1767259285.71	-3.63383161e+00	1.38977109e+02	-6.34138162e+01	-2.09998550e+00	-6.32568139e+01	-7.73228039e+00	-7.62398059e+00	-1.15157642e+02
1767544857.14	-3.63677586e+00	1.38946956e+02	-6.32481780e+01	-5.76263782e-01	-6.31066398e+01	-7.53141916e+00	-7.63811668e+00	-1.15036076e+02
1767830428.57	-3.63688334e+00	1.38917952e+02	-6.36032922e+01	-9.18957054e-01	-6.33331175e+01	-8.04544505e+00	-7.64242640e+00	-1.15055726e+02
1768116000	-3.64593189e+00	1.38904322e+02	-6.34748469e+01	-2.28192239e+00	-6.31499159e+01	-7.85692136e+00	-7.63035083e+00	-1.15041628e+02
1768401571.43	-3.65142362e+00	1.38883118e+02	-6.33997792e+01	-2.39034963e+00	-6.32749821e+01	-7.07941854e+00	-7.63301990e+00	-1.14935949e+02
1768687142.86	-3.64939445e+00	1.38851478e+02	-6.34739797e+01	-3.82416330e+00	-6.31556750e+01	-8.03757911e+00	-7.64301618e+00	-1.14994081e+02
1768972714.29	-3.64695653e+00	1.38848717e+02	-6.35430953e+01	-2.85762976e+00	-6.32931752e+01	-7.77030354e+00	-7.64672325e+00	-1.15013420e+02
1769258285.71	-3.65542639e+00	1.38793102e+02	-6.34330073e+01	-4.35497363e+00	-6.31253907e+01	-7.98356574e+00	-7.64979195e+00	-1.14866979e+02
1769543857.14	-3.65598979e+00	1.38856567e+02	-6.35054897e+01	-4.29207918e+00	-6.32730776e+01	-7.84559805e+00	-7.65245497e+00	-1.14859068e+02
1769829428.57	-3.66448231e+00	1.38846957e+02	-6.35138032e+01	-4.46991915e+00	-6.31368446e+01	-8.69083128e+00	-7.65623975e+00	-1.14883395e+02
1770115000	-3.66309302e+00	1.38812454e+02	-6.35545745e+01	-2.01281227e+00	-6.32872582e+01	-8.10463746e+00	-7.64921434e+00	-1.14825844e+02
1770400571.43	-3.67044837e+00	1.38771071e+02	-6.35112329e+01	-2.75835964e+00	-6.30506190e+01	-8.56315187e+00	-7.65821695e+00	-1.14818170e+02
1770686142.86	-3.66819787e+00	1.38767751e+02	-6.36880102e+01	-4.45683372e+00	-6.32774229e+01	-9.83594928e+00	-7.65258840e+00	-1.14802588e+02
1770971714.29	-3.66846156e+00	1.38762612e+02	-6.34935203e+01	-2.79272583e+00	-6.32508773e+01	-1.01339766e+01	-7.66389077e+00	-1.14669773e+02
1771257285.71	-3.66542962e+00	1.38746212e+02	-6.36414842e+01	-4.08418208e+00	-6.34327898e+01	-7.96871104e+00	-7.66569986e+00	-1.14695330e+02
1771542857.14	-3.66642822e+00	1.38728127e+02	-6.34116359e+01	-1.31503676e+00	-6.33418185e+01	-9.42210029e+00	-7.67288663e+00	-1.14739922e+02
1771828428.57	-3.66828788e+00	1.38711024e+02	-6.35889059e+01	-4.59825931e+00	-6.32182154e+01	-1.02596420e+01	-7.65988030e+00	-1.14723873e+02
1772114000	-3.66849110e+00	1.38720664e+02	-6.35079644e+01	-5.24134458e+00	-6.31338864e+01	-1.07323696e+01	-7.64578511e+00	-1.14793711e+02
1772399571.43	-3.67786378e+00	1.38751882e+02	-6.35283347e+01	-3.09071862e+00	-6.34201081e+01	-9.88127454e+00	-7.66602478e+00	-1.14766660e+02
1772685142.86	-3.68195972e+00	1.38773213e+02	-6.38264946e+01	-6.06905019e+00	-6.35053648e+01	-8.26324425e+00	-7.67791777e+00	-1.14824961e+02
1772970714.29	-3.68310506e+00	1.38710731e+02	-6.36353899e+01	-5.11982873e+00	-6.33212468e+01	-8.51306048e+00	-7.68916177e+00	-1.14766725e+02
1773256285.71	-3.68662760e+00	1.38722732e+02	-6.34006459e+01	-4.27785193e+00	-6.34097428e+01	-1.03065083e+01	-7.69020358e+00	-1.14858969e+02
1773541857.14	-3.68301342e+00	1.38701058e+02	-6.34835158e+01	-3.05255602e+00	-6.32435446e+01	-1.04905778e+01	-7.68999816e+00	-1.14897015e+02
1773827428.57	-3.68044201e+00	1.38671402e+02	-6.35445094e+01	-5.40384382e+00	-6.31137276e+01	-9.32971755e+00	-7.69048175e+00	-1.14934469e+02
1774113000	-3.68050350e+00	1.38587912e+02	-6.35943341e+01	-5.77322545e+00	-6.32472300e+01	-1.09729405e+01	-7.68676671e+00	-1.14923449e+02
1774398571.43	-3.68650037e+00	1.38632073e+02	-6.38134963e+01	-4.09250356e+00	-6.31645785e+01	-9.22515647e+00	-7.70002182e+00	-1.15011527e+02
1774684142.86	-3.68005640e+00	1.38623042e+02	-6.35711629e+01	-4.19265104e+00	-6.32594790e+01	-1.07769478e+01	-7.70814423e+00	-1.15126074e+02
1774969714.29	-3.67011067e+00	1.38611947e+02	-6.33872206e+01	-5.98308441e+00	-6.33062091e+01	-1.03963084e+01	-7.69563026e+00	-1.15149792e+02
1775255285.71	-3.68620428e+00	1.38626539e+02	-6.35479672e+01	-4.70842838e+00	-6.31668316e+01	-1.18479440e+01	-7.70470248e+00	-1.15168230e+02
1775540857.14	-3.68623581e+00	1.38606803e+02	-6.36679821e+01	-3.94711758e+00	-6.31863911e+01	-1.25160292e+01	-7.70982970e+00	-1.15215334e+02
1775826428.57	-3.68663981e+00	1.38572985e+02	-6.35444281e+01	-5.38874351e+00	-6.31646189e+01	-1.10096749e+01	-7.70721172e+00	-1.15286773e+02
1776112000	-3.68886536e+00	1.38594804e+02	-6.37113001e+01	-4.75562962e+00	-6.33446018e+01	-1.06909203e+01	-7.71617700e+00	-1.15314116e+02
1776397571.43	-3.69071762e+00	1.38590434e+02	-6.34671794e+01	-5.30012339e+00	-6.30499179e+01	-1.12413017e+01	-7.70539402e+00	-1.15362475e+02
1776683142.86	-3.69379016e+00	1.38558110e+02	-6.32269715e+01	-5.68124679e+00	-6.30286523e+01	-1.13135606e+01	-7.71919622e+00	-1.15449542e+02
1776968714.29	-3.70409500e+00	1.38549555e+02	-6.31947115e+01	-5.30155242e+00	-6.33011962e+01	-1.26177155e+01	-7.71658716e+00	-1.15492190e+02
1777254285.71	-3.70202855e+00	1.38585856e+02	-6.34036244e+01	-4.90464092e+00	-6.32708232e+01	-1.20113807e+01	-7.72735262e+00	-1.15461310e+02
1777539857.14	-3.69929931e+00	1.38576669e+02	-6.33823351e+01	-6.37087878e+00	-6.31941500e+01	-1.09471610e+01	-7.72888402e+00	-1.15472821e+02
1777825428.57	-3.70025678e+00	1.38552395e+02	-6.33621017e+01	-5.25275845e+00	-6.28234212e+01	-1.19314623e+01	-7.72361669e+00	-1.15535403e+02
1778111000	-3.70751998e+00	1.38570959e+02	-6.32266074e+01	-4.61863871e+00	-6.31348318e+01	-1.31946361e+01	-7.71735546e+00	-1.15576869e+02
1778396571.43	-3.70412375e+00	1.38525865e+02	-6.30220606e+01	-7.31774768e+00	-6.27182191e+01	-1.12732795e+01	-7.72241234e+00	-1.15601981e+02
1778682142.86	-3.70887373e+00	1.38480540e+02	-6.31814750e+01	-7.34346510e+00	-6.30071085e+01	-1.19630684e+01	-7.73900195e+00	-1.15687306e+02
1778967714.29	-3.71486338e+00	1.38444182e+02	-6.31002599e+01	-5.43416297e+00	-6.30648906e+01	-1.15888278e+01	-7.75194029e+00	-1.15721358e+02
1779253285.71	-3.71553109e+00	1.38424723e+02	-6.31859852e+01	-6.71687984e+00	-6.28661823e+01	-1.27908782e+01	-7.74228523e+00	-1.15820793e+02
1779538857.14	-3.71592346e+00	1.38385555e+02	-6.28217183e+01	-6.23880852e+00	-6.29889027e+01	-1.28181736e+01	-7.75713122e+00	-1.15798759e+02
1779824428.57	-3.71602860e+00	1.38411020e+02	-6.30316522e+01	-6.13798241e+00	-6.29084109e+01	-1.45746442e+01	-7.74759211e+00	-1.15730880e+02
1780110000	-3.71102842e+00	1.38387063e+02	-6.31134435e+01	-6.14964708e+00	-6.28351616e+01	-1.42562438e+01	-7.74724194e+00	-1.15909158e+02
1780395571.43	-3.71677897e+00	1.38430008e+02	-6.31864215e+01	-8.08744064e+00	-6.29053628e+01	-1.34842938e+01	-7.75982002e+00	-1.16012344e+02
1780681142.86	-3.71801729e+00	1.38406886e+02	-6.27716693e+01	-8.62482342e+00	-6.27259084e+01	-1.37206649e+01	-7.77335587e+00	-1.16020206e+02
1780966714.29	-3.71367397e+00	1.38453695e+02	-6.26798029e+01	-7.93635959e+00	-6.28711668e+01	-1.45328298e+01	-7.77952020e+00	-1.16054796e+02
1781252285.71	-3.71657428e+00	1.38404372e+02	-6.26848794e+01	-8.53440743e+00	-6.26858269e+01	-1.50030019e+01	-7.80258884e+00	-1.16104330e+02
1781537857.14	-3.71887581e+00	1.38410164e+02	-6.26193701e+01	-8.54458514e+00	-6.26891947e+01	-1.55970660e+01	-7.81044331e+00	-1.16111566e+02
1781823428.57	-3.72387086e+00	1.38373562e+02	-6.25419141e+01	-8.74695306e+00	-6.25819963e+01	-1.45037260e+01	-7.80784884e+00	-1.16178673e+02
1782109000	-3.72811066e+00	1.38350334e+02	-6.25644664e+01	-8.59234163e+00	-6.27644629e+01	-1.55014811e+01	-7.80249203e+00	-1.16205301e+02
1782394571.43	-3.72729874e+00	1.38342202e+02	-6.27543654e+01	-9.93012292e+00	-6.26951252e+01	-1.69212311e+01	-7.80936119e+00	-1.16257485e+02
1782680142.86	-3.72304266e+00	1.38332965e+02	-6.25336413e+01	-1.07371322e+01	-6.25722766e+01	-1.51279249e+01	-7.81990437e+00	-1.16298473e+02
1782965714.29	-3.72463905e+00	1.38259495e+02	-6.24176468e+01	-9.92738865e+00	-6.26970770e+01	-1.62365502e+01	-7.83426625e+00	-1.16395228e+02
1783251285.71	-3.72527852e+00	1.38210377e+02	-6.23603767e+01	-1.01450631e+01	-6.26216917e+01	-1.52743017e+01	-7.82967349e+00	-1.16408322e+02
1783536857.14	-3.72276632e+00	1.38197558e+02	-6.24644889e+01	-1.07180198e+01	-6.24007678e+01	-1.59495356e+01	-7.83230647e+00	-1.16539872e+02
1783822428.57	-3.71206024e+00	1.38249661e+02	-6.23872371e+01	-9.72268654e+00	-6.25332308e+01	-1.63673162e+01	-7.84160624e+00	-1.16656741e+02
1784108000	-3.71340827e+00	1.38242231e+02	-6.21613224e+01	-1.11143072e+01	-6.23441492e+01	-1.69744375e+01	-7.84219208e+00	-1.16691120e+02
1784393571.43	-3.71918494e+00	1.38213625e+02	-6.22557851e+01	-1.11743618e+01	-6.23375631e+01	-1.70049633e+01	-7.84369935e+00	-1.16798594e+02
1784679142.86	-3.72038565e+00	1.38149241e+02	-6.22466324e+01	-1.08980382e+01	-6.23929288e+01	-1.75469070e+01	-7.85274524e+00	-1.16825617e+02
1784964714.29	-3.71840011e+00	1.38149696e+02	-6.23472943e+01	-1.22998058e+01	-6.21900808e+01	-1.77991387e+01	-7.85682504e+00	-1.16904824e+02
1785250285.71	-3.72946053e+00	1.38163856e+02	-6.23762876e+01	-1.22175565e+01	-6.23027427e+01	-1.89286463e+01	-7.86174651e+00	-1.16965257e+02
1785535857.14	-3.72063850e+00	1.38150191e+02	-6.22606868e+01	-1.14182983e+01	-6.22340746e+01	-1.84229236e+01	-7.86939344e+00	-1.17016820e+02
1785821428.57	-3.72449846e+00	1.38192998e+02	-6.22641048e+01	-1.15452865e+01	-6.21791690e+01	-1.84301020e+01	-7.88200038e+00	-1.17001603e+02
1786107000	-3.72758019e+00	1.38198699e+02	-6.21039881e+01	-1.41732634e+01	-6.21527394e+01	-1.90867414e+01	-7.88159609e+00	-1.17089500e+02
1786392571.43	-3.73269808e+00	1.38179731e+02	-6.21510711e+01	-1.33083233e+01	-6.22658099e+01	-2.01705393e+01	-7.89403271e+00	-1.17192948e+02
1786678142.86	-3.73794977e+00	1.38122112e+02	-6.20497482e+01	-1.45173829e+01	-6.23094093e+01	-2.06557574e+01	-7.89406437e+00	-1.17194587e+02
1786963714.29	-3.74096491e+00	1.38104873e+02	-6.18786878e+01	-1.23025651e+01	-6.22895493e+01	-1.92952265e+01	-7.88325585e+00	-1.17250307e+02
1787249285.71	-3.73733126e+00	1.38056546e+02	-6.21310594e+01	-1.27464722e+01	-6.22183735e+01	-2.04398098e+01	-7.88403748e+00	-1.17242764e+02
1787534857.14	-3.73813189e+00	1.38049903e+02	-6.22481585e+01	-1.42368872e+01	-6.21563330e+01	-1.91457671e+01	-7.89924064e+00	-1.17282465e+02
1787820428.57	-3.73422171e+00	1.38059419e+02	-6.20239960e+01	-1.53368853e+01	-6.22796268e+01	-2.08010542e+01	-7.90479891e+00	-1.17343488e+02
1788106000	-3.73873605e+00	1.38061623e+02	-6.21715582e+01	-1.47366556e+01	-6.22820229e+01	-2.06382929e+01	-7.90631148e+00	-1.17414265e+02
1788391571.43	-3.73624150e+00	1.38083758e+02	-6.19803604e+01	-1.51407972e+01	-6.19987244e+01	-2.10076334e+01	-7.91767572e+00	-1.17493610e+02
1788677142.86	-3.73736792e+00	1.38054105e+02	-6.19522777e+01	-1.60837530e+01	-6.22088665e+01	-2.20030266e+01	-7.91591974e+00	-1.17582190e+02
1788962714.29	-3.73261661e+00	1.37986570e+02	-6.19919141e+01	-1.62350438e+01	-6.21828246e+01	-2.15043817e+01	-7.92169517e+00	-1.17626940e+02
1789248285.71	-3.72932985e+00	1.37997262e+02	-6.17589120e+01	-1.66445315e+01	-6.20126514e+01	-2.17615570e+01	-7.92943903e+00	-1.17723523e+02
1789533857.14	-3.73529567e+00	1.37987475e+02	-6.18931670e+01	-1.75055160e+01	-6.20561305e+01	-2.22620268e+01	-7.93849930e+00	-1.17804366e+02
1789819428.57	-3.73769662e+00	1.37972505e+02	-6.19123884e+01	-1.64556905e+01	-6.20324977e+01	-2.27199042e+01	-7.94404607e+00	-1.17835441e+02
1790105000	-3.73643550e+00	1.37963912e+02	-6.17537131e+01	-1.72976446e+01	-6.19758706e+01	-2.23005329e+01	-7.95450271e+00	-1.17887338e+02
1790390571.43	-3.74139778e+00	1.37959404e+02	-6.17905740e+01	-1.82452269e+01	-6.20411024e+01	-2.26636184e+01	-7.94878131e+00	-1.17900753e+02
1790676142.86	-3.74025979e+00	1.37948585e+02	-6.18215988e+01	-1.75711722e+01	-6.17474606e+01	-2.28239356e+01	-7.94908717e+00	-1.17936336e+02
1790961714.29	-3.74081145e+00	1.37948974e+02	-6.17225577e+01	-1.80871606e+01	-6.17013339e+01	-2.39898494e+01	-7.97129793e+00	-1.18115066e+02
1791247285.71	-3.74118118e+00	1.37949489e+02	-6.17257340e+01	-1.89879585e+01	-6.17826082e+01	-2.40914423e+01	-7.97485736e+00	-1.18078820e+02
1791532857.14	-3.73862375e+00	1.37935662e+02	-6.16752689e+01	-1.88420271e+01	-6.18476975e+01	-2.43347620e+01	-7.99023056e+00	-1.18246995e+02
1791818428.57	-3.74183880e+00	1.37894312e+02	-6.14805549e+01	-1.89380047e+01	-6.18322620e+01	-2.43931446e+01	-7.98546577e+00	-1.18191715e+02
1792104000	-3.73368781e+00	1.37879599e+02	-6.16850739e+01	-2.07990918e+01	-6.17729008e+01	-2.51275940e+01	-7.98647982e+00	-1.18256651e+02
1792389571.43	-3.73305664e+00	1.37821930e+02	-6.15221888e+01	-1.95784014e+01	-6.17217903e+01	-2.47661494e+01	-7.99279260e+00	-1.18228224e+02
1792675142.86	-3.73650558e+00	1.37828054e+02	-6.15181454e+01	-2.11755391e+01	-6.16710708e+01	-2.48595036e+01	-8.00072198e+00	-1.18367800e+02
1792960714.29	-3.73559433e+00	1.37842883e+02	-6.17062935e+01	-2.00952200e+01	-6.16736954e+01	-2.38534314e+01	-8.01348065e+00	-1.18504441e+02
1793246285.71	-3.73819011e+00	1.37841251e+02	-6.14697891e+01	-2.05877479e+01	-6.18167771e+01	-2.55264370e+01	-8.01647039e+00	-1.18587591e+02
1793531857.14	-3.73390364e+00	1.37812979e+02	-6.15694054e+01	-2.01439978e+01	-6.14739368e+01	-2.65937967e+01	-8.03200302e+00	-1.18622833e+02
1793817428.57	-3.73664940e+00	1.37806709e+02	-6.13421337e+01	-2.26236930e+01	-6.16776503e+01	-2.75364888e+01	-8.04186256e+00	-1.18669809e+02
1794103000	-3.74683827e+00	1.37795951e+02	-6.14053373e+01	-2.22482968e+01	-6.16528335e+01	-2.82818035e+01	-8.04163996e+00	-1.18807999e+02
1794388571.43	-3.73945509e+00	1.37787362e+02	-6.14222407e+01	-2.39747354e+01	-6.15806657e+01	-2.76034372e+01	-8.04647313e+00	-1.18845547e+02
1794674142.86	-3.73982028e+00	1.37769987e+02	-6.13003865e+01	-2.29900103e+01	-6.16614891e+01	-2.84315563e+01	-8.05064184e+00	-1.18975260e+02
1794959714.29	-3.74635704e+00	1.37761656e+02	-6.13462216e+01	-2.23191137e+01	-6.14756565e+01	-2.77466191e+01	-8.05204349e+00	-1.19030026e+02
1795245285.71	-3.74252944e+00	1.37776438e+02	-6.11187108e+01	-2.28298509e+01	-6.13809952e+01	-2.87573984e+01	-8.06460774e+00	-1.19038173e+02
1795530857.14	-3.74528755e+00	1.37779181e+02	-6.11005503e+01	-2.27754468e+01	-6.14475939e+01	-2.86084950e+01	-8.06179826e+00	-1.19075676e+02
1795816428.57	-3.74103782e+00	1.37780579e+02	-6.12662616e+01	-2.20468393e+01	-6.14079884e+01	-2.83751501e+01	-8.06258064e+00	-1.19061396e+02
1796102000	-3.74281416e+00	1.37742741e+02	-6.11860036e+01	-2.57875515e+01	-6.13317538e+01	-2.94712952e+01	-8.06806677e+00	-1.19245654e+02
1796387571.43	-3.74187090e+00	1.37741283e+02	-6.11916949e+01	-2.53927705e+01	-6.12725975e+01	-3.01198864e+01	-8.07424465e+00	-1.19264650e+02
1796673142.86	-3.74073216e+00	1.37752801e+02	-6.11205253e+01	-2.60815799e+01	-6.14478519e+01	-2.92636795e+01	-8.09798737e+00	-1.19238162e+02
1796958714.29	-3.73927784e+00	1.37719601e+02	-6.14063594e+01	-2.51890806e+01	-6.10729643e+01	-3.12222104e+01	-8.09848640e+00	-1.19255480e+02
1797244285.71	-3.73784604e+00	1.37685195e+02	-6.10927440e+01	-2.58842446e+01	-6.11062120e+01	-3.02016535e+01	-8.11006036e+00	-1.19218766e+02
1797529857.14	-3.73941801e+00	1.37663854e+02	-6.10576958e+01	-2.72196779e+01	-6.11119740e+01	-3.19325702e+01	-8.10835901e+00	-1.19171186e+02
1797815428.57	-3.74433463e+00	1.37716242e+02	-6.10194203e+01	-2.66418689e+01	-6.11705906e+01	-3.16070753e+01	-8.13384974e+00	-1.19223355e+02
1798101000	-3.74865929e+00	1.37709914e+02	-6.09360923e+01	-2.67432700e+01	-6.11665165e+01	-3.10747994e+01	-8.13674459e+00	-1.19190088e+02
1798386571.43	-3.75080194e+00	1.37699544e+02	-6.10135596e+01	-2.72787375e+01	-6.12383833e+01	-3.04728910e+01	-8.13850884e+00	-1.19265790e+02
1798672142.86	-3.74403697e+00	1.37713012e+02	-6.09891731e+01	-2.72419292e+01	-6.10754770e+01	-3.20126540e+01	-8.14604593e+00	-1.19354453e+02
1798957714.29	-3.74649388e+00	1.37704312e+02	-6.09696291e+01	-2.82686047e+01	-6.10406510e+01	-3.37867985e+01	-8.16389953e+00	-1.19331268e+02
1799243285.71	-3.74556967e+00	1.37715527e+02	-6.07504843e+01	-2.93607921e+01	-6.09757551e+01	-3.34999644e+01	-8.17897942e+00	-1.19375322e+02
1799528857.14	-3.74758489e+00	1.37668278e+02	-6.08534499e+01	-3.00612271e+01	-6.11367563e+01	-3.33516691e+01	-8.17660093e+00	-1.19359092e+02
1799814428.57	-3.74268310e+00	1.37667346e+02	-6.09030430e+01	-3.00863730e+01	-6.11056484e+01	-3.33028563e+01	-8.18319320e+00	-1.19369360e+02
1800100000	-3.74608817e+00	1.37633813e+02	-6.05389316e+01	-3.12736540e+01	-6.09831962e+01	-3.52486477e+01	-8.18851910e+00	-1.19432796e+02
1800385571.43	-3.74306421e+00	1.37616642e+02	-6.06989218e+01	-2.90341377e+01	-6.08911861e+01	-3.51836375e+01	-8.20357195e+00	-1.19476763e+02
1800671142.86	-3.74334145e+00	1.37658867e+02	-6.07002276e+01	-2.94341735e+01	-6.08312580e+01	-3.59703982e+01	-8.20541157e+00	-1.19486671e+02
1800956714.29	-3.74434686e+00	1.37677766e+02	-6.05257867e+01	-3.15896276e+01	-6.11607778e+01	-3.52202606e+01	-8.20625592e+00	-1.19450294e+02
1801242285.71	-3.74778707e+00	1.37674593e+02	-6.03574457e+01	-3.19669894e+01	-6.08807186e+01	-3.57457854e+01	-8.21340113e+00	-1.19465685e+02
1801527857.14	-3.74358149e+00	1.37673586e+02	-6.04927962e+01	-3.01210108e+01	-6.07411927e+01	-3.63185564e+01	-8.22405380e+00	-1.19448104e+02
1801813428.57	-3.74244216e+00	1.37633227e+02	-6.04686831e+01	-3.23325501e+01	-6.07386323e+01	-3.75675137e+01	-8.23793138e+00	-1.19475120e+02
1802099000	-3.74566449e+00	1.37598265e+02	-6.06694235e+01	-3.23839782e+01	-6.06285560e+01	-3.69827009e+01	-8.24207980e+00	-1.19446687e+02
1802384571.43	-3.74789629e+00	1.37599611e+02	-6.04404418e+01	-3.36219805e+01	-6.07174198e+01	-3.76687003e+01	-8.24854562e+00	-1.19475759e+02
1802670142.86	-3.74470041e+00	1.37594922e+02	-6.02843306e+01	-3.37644578e+01	-6.06607375e+01	-3.85822821e+01	-8.25393622e+00	-1.19505384e+02
1802955714.29	-3.74611519e+00	1.37594579e+02	-6.03383070e+01	-3.49695738e+01	-6.04878166e+01	-3.83680862e+01	-8.25518761e+00	-1.19504188e+02
1803241285.71	-3.74375201e+00	1.37620448e+02	-6.05414159e+01	-3.33045150e+01	-6.05257457e+01	-3.82275506e+01	-8.26056847e+00	-1.19552136e+02
1803526857.14	-3.75033056e+00	1.37597671e+02	-6.05218330e+01	-3.58255299e+01	-6.04597865e+01	-3.79652705e+01	-8.25868492e+00	-1.19510362e+02
1803812428.57	-3.74258864e+00	1.37566246e+02	-6.06262349e+01	-3.48658142e+01	-6.04208170e+01	-3.94346065e+01	-8.27585838e+00	-1.19474620e+02
1804098000	-3.74627270e+00	1.37621825e+02	-6.02649354e+01	-3.47770036e+01	-6.04142268e+01	-4.05137118e+01	-8.28455767e+00	-1.19535620e+02
1804383571.43	-3.74934971e+00	1.37591369e+02	-6.04360380e+01	-3.51413102e+01	-6.05041405e+01	-4.00509112e+01	-8.27854832e+00	-1.19513631e+02
1804669142.86	-3.74642797e+00	1.37634940e+02	-6.04397186e+01	-3.72827041e+01	-6.05015452e+01	-4.00257113e+01	-8.28435526e+00	-1.19646027e+02
1804954714.29	-3.74721503e+00	1.37652775e+02	-6.02782727e+01	-3.78071345e+01	-6.04449717e+01	-4.12791870e+01	-8.28281876e+00	-1.19649868e+02
1805240285.71	-3.74985527e+00	1.37642631e+02	-6.02140124e+01	-3.68676658e+01	-6.05718391e+01	-4.14492066e+01	-8.28472379e+00	-1.19607525e+02
1805525857.14	-3.74240196e+00	1.37619870e+02	-6.01671165e+01	-3.79712469e+01	-6.03942265e+01	-4.04849730e+01	-8.29074108e+00	-1.19575078e+02
1805811428.57	-3.74182453e+00	1.37607125e+02	-6.03164009e+01	-3.72806169e+01	-6.03202028e+01	-4.20193672e+01	-8.29488613e+00	-1.19640556e+02
1806097000	-3.74321894e+00	1.37617376e+02	-6.03876093e+01	-3.84674958e+01	-6.02565236e+01	-4.28644781e+01	-8.30811576e+00	-1.19621557e+02
1806382571.43	-3.74470475e+00	1.37565099e+02	-6.00497596e+01	-3.98387483e+01	-6.05143547e+01	-4.27926508e+01	-8.30830584e+00	-1.19618528e+02
1806668142.86	-3.74544156e+00	1.37558727e+02	-6.01900764e+01	-3.90029743e+01	-6.02384662e+01	-4.28421715e+01	-8.31165276e+00	-1.19570688e+02
1806953714.29	-3.75061152e+00	1.37584083e+02	-6.01804371e+01	-4.07733207e+01	-6.02374572e+01	-4.20717361e+01	-8.29504117e+00	-1.19562184e+02
1807239285.71	-3.74567100e+00	1.37598020e+02	-6.00983468e+01	-4.05547334e+01	-6.02467157e+01	-4.53515934e+01	-8.30660479e+00	-1.19605110e+02
1807524857.14	-3.74772704e+00	1.37609856e+02	-6.00306505e+01	-4.17911729e+01	-6.02656762e+01	-4.46080348e+01	-8.30653362e+00	-1.19593950e+02
1807810428.57	-3.75247078e+00	1.37644212e+02	-5.99854483e+01	-4.23443883e+01	-6.02550993e+01	-4.56723570e+01	-8.28635104e+00	-1.19637702e+02
1808096000	-3.74726386e+00	1.37632760e+02	-5.99127832e+01	-4.05981582e+01	-6.01278214e+01	-4.49754885e+01	-8.28491790e+00	-1.19552822e+02
1808381571.43	-3.74447067e+00	1.37635034e+02	-6.01172814e+01	-4.36911641e+01	-6.02890988e+01	-4.62728616e+01	-8.28517616e+00	-1.19563201e+02
1808667142.86	-3.75016093e+00	1.37623443e+02	-6.00543905e+01	-4.20334499e+01	-6.01608971e+01	-4.68543070e+01	-8.27612358e+00	-1.19582632e+02
1808952714.29	-3.74696694e+00	1.37619275e+02	-5.98570329e+01	-4.35473408e+01	-6.01619470e+01	-4.65950516e+01	-8.27896285e+00	-1.19676666e+02
1809238285.71	-3.74578473e+00	1.37640451e+02	-5.98244251e+01	-4.49856309e+01	-6.01189014e+01	-4.73214562e+01	-8.26496179e+00	-1.19705894e+02
1809523857.14	-3.74702454e+00	1.37659659e+02	-5.98604072e+01	-4.38211114e+01	-6.01025745e+01	-4.90978788e+01	-8.28972637e+00	-1.19639717e+02
1809809428.57	-3.74590555e+00	1.37644882e+02	-5.97351187e+01	-4.59703121e+01	-6.02487937e+01	-4.80366921e+01	-8.27085585e+00	-1.19601421e+02
1810095000	-3.75110570e+00	1.37668197e+02	-5.99467594e+01	-4.57727278e+01	-6.00427763e+01	-4.98696496e+01	-8.27850149e+00	-1.19687564e+02
1810380571.43	-3.75129759e+00	1.37644785e+02	-6.00626338e+01	-4.56381084e+01	-5.99365281e+01	-5.00902587e+01	-8.27063935e+00	-1.19735937e+02
1810666142.86	-3.74890393e+00	1.37632589e+02	-5.99450095e+01	-4.69580095e+01	-5.99980513e+01	-4.99673014e+01	-8.26833951e+00	-1.19837223e+02
1810951714.29	-3.74942898e+00	1.37673847e+02	-5.98484290e+01	-4.73794200e+01	-6.01689023e+01	-5.14162198e+01	-8.26049407e+00	-1.19815077e+02
1811237285.71	-3.74631483e+00	1.37644047e+02	-5.98943994e+01	-4.86267532e+01	-5.99698968e+01	-5.11738670e+01	-8.24873158e+00	-1.19729065e+02
1811522857.14	-3.74510866e+00	1.37665268e+02	-5.98789992e+01	-4.79637234e+01	-6.01239322e+01	-5.12382817e+01	-8.25249734e+00	-1.19825936e+02
1811808428.57	-3.75099557e+00	1.37709013e+02	-5.97991705e+01	-4.84023480e+01	-6.00333213e+01	-5.21849832e+01	-8.24403843e+00	-1.19780025e+02
1812094000	-3.75154415e+00	1.37745997e+02	-5.97166828e+01	-4.86255614e+01	-5.99288112e+01	-5.29154643e+01	-8.24107934e+00	-1.19874134e+02
1812379571.43	-3.75302040e+00	1.37749937e+02	-5.97924575e+01	-4.95772434e+01	-6.01780002e+01	-5.43998205e+01	-8.23446319e+00	-1.19922841e+02
1812665142.86	-3.75285528e+00	1.37732058e+02	-5.99590667e+01	-5.00061895e+01	-6.00269916e+01	-5.31505628e+01	-8.24645565e+00	-1.19873889e+02
1812950714.29	-3.75217022e+00	1.37737942e+02	-5.96141424e+01	-5.05819013e+01	-5.99894682e+01	-5.40298387e+01	-8.23096297e+00	-1.20014284e+02
1813236285.71	-3.75646269e+00	1.37713826e+02	-5.97831662e+01	-5.14768642e+01	-6.00584202e+01	-5.43177783e+01	-8.24066477e+00	-1.19996985e+02
1813521857.14	-3.75861259e+00	1.37759250e+02	-5.98940948e+01	-5.14272652e+01	-6.01892689e+01	-5.47808833e+01	-8.23325599e+00	-1.19952603e+02
1813807428.57	-3.76035602e+00	1.37700460e+02	-5.96546293e+01	-5.27504944e+01	-6.00616751e+01	-5.56543039e+01	-8.23172328e+00	-1.19953717e+02
1814093000	-3.76210698e+00	1.37738136e+02	-5.98852663e+01	-5.14038163e+01	-5.98905330e+01	-5.58759901e+01	-8.22693734e+00	-1.20052074e+02
1814378571.43	-3.76551117e+00	1.37761144e+02	-5.96821611e+01	-5.27915788e+01	-5.99471474e+01	-5.59639540e+01	-8.21874373e+00	-1.20189322e+02
1814664142.86	-3.76433137e+00	1.37799743e+02	-5.98865347e+01	-5.26269682e+01	-5.98431788e+01	-5.64804260e+01	-8.20748082e+00	-1.20152212e+02
1814949714.29	-3.76650728e+00	1.37833526e+02	-5.97774684e+01	-5.54930316e+01	-5.99207523e+01	-5.72091071e+01	-8.20935332e+00	-1.20168732e+02
1815235285.71	-3.75873604e+00	1.37789698e+02	-5.98975685e+01	-5.35870736e+01	-6.00444323e+01	-5.67906592e+01	-8.21347349e+00	-1.20200018e+02
1815520857.14	-3.76099633e+00	1.37786738e+02	-5.99115929e+01	-5.45290648e+01	-6.00031850e+01	-5.71042282e+01	-8.20266836e+00	-1.20198904e+02
1815806428.57	-3.76661867e+00	1.37793911e+02	-5.97765053e+01	-5.58445257e+01	-6.01924961e+01	-5.71816635e+01	-8.20808349e+00	-1.20249496e+02
1816092000	-3.76643987e+00	1.37851048e+02	-5.96704094e+01	-5.48561005e+01	-5.99700432e+01	-5.87928979e+01	-8.20197211e+00	-1.20291913e+02
1816377571.43	-3.77486577e+00	1.37804585e+02	-5.97959397e+01	-5.53082883e+01	-5.98903414e+01	-5.84678539e+01	-8.20652335e+00	-1.20271790e+02
1816663142.86	-3.77007001e+00	1.37845819e+02	-5.96957485e+01	-5.66634322e+01	-5.98822918e+01	-5.78919447e+01	-8.19704057e+00	-1.20248200e+02
1816948714.29	-3.77733873e+00	1.37858613e+02	-5.96374131e+01	-5.55447587e+01	-5.99843742e+01	-5.70573201e+01	-8.19802533e+00	-1.20282069e+02
1817234285.71	-3.77364373e+00	1.37898156e+02	-5.97903984e+01	-5.52298032e+01	-5.99478252e+01	-5.84029206e+01	-8.20017948e+00	-1.20310349e+02
1817519857.14	-3.78251836e+00	1.37876726e+02	-5.97873774e+01	-5.60863935e+01	-5.99800083e+01	-5.99192526e+01	-8.21465784e+00	-1.20370589e+02
1817805428.57	-3.77836694e+00	1.37897945e+02	-5.96856570e+01	-5.62450056e+01	-5.99323858e+01	-6.02581322e+01	-8.18968145e+00	-1.20339577e+02
1818091000	-3.78094709e+00	1.37861939e+02	-5.99636250e+01	-5.78156960e+01	-5.97088609e+01	-6.07808634e+01	-8.21380632e+00	-1.20269169e+02
1818376571.43	-3.78255877e+00	1.37847398e+02	-6.00520167e+01	-5.84549923e+01	-5.99514393e+01	-6.05253284e+01	-8.19795668e+00	-1.20422275e+02
1818662142.86	-3.77839228e+00	1.37777892e+02	-5.97427052e+01	-5.69357531e+01	-5.99823422e+01	-6.09354996e+01	-8.19990903e+00	-1.20377051e+02
1818947714.29	-3.78550181e+00	1.37873340e+02	-5.97237834e+01	-5.84392923e+01	-5.98477389e+01	-6.03241747e+01	-8.19824369e+00	-1.20352921e+02
1819233285.71	-3.77558218e+00	1.37874676e+02	-5.98699918e+01	-6.07313271e+01	-5.98854086e+01	-6.22880951e+01	-8.20039064e+00	-1.20358548e+02
1819518857.14	-3.78217777e+00	1.37853899e+02	-5.95866611e+01	-5.93459733e+01	-6.00328819e+01	-6.21217058e+01	-8.20051379e+00	-1.20391691e+02
1819804428.57	-3.78078140e+00	1.37857141e+02	-5.96114392e+01	-6.03192587e+01	-5.98075164e+01	-6.31435655e+01	-8.19480743e+00	-1.20422081e+02
1820090000	-3.78398999e+00	1.37911363e+02	-5.95835359e+01	-6.07283840e+01	-5.98844026e+01	-6.21013375e+01	-8.19470613e+00	-1.20403754e+02
1820375571.43	-3.78764148e+00	1.37935899e+02	-5.97494013e+01	-6.13070071e+01	-5.97652920e+01	-6.39574012e+01	-8.19138725e+00	-1.20383786e+02
1820661142.86	-3.79268635e+00	1.37935739e+02	-5.98757366e+01	-6.16879972e+01	-5.98087019e+01	-6.38606322e+01	-8.19650752e+00	-1.20362225e+02
1820946714.29	-3.78633488e+00	1.37881339e+02	-5.97214464e+01	-6.13756384e+01	-5.98949677e+01	-6.39419293e+01	-8.19529783e+00	-1.20380800e+02
1821232285.71	-3.79469928e+00	1.37848350e+02	-5.97269919e+01	-6.14190332e+01	-5.98131833e+01	-6.51424347e+01	-8.20240475e+00	-1.20448937e+02
1821517857.14	-3.79687897e+00	1.37859591e+02	-5.98631748e+01	-6.28435003e+01	-5.98800645e+01	-6.45129093e+01	-8.18742738e+00	-1.20407673e+02
1821803428.57	-3.79760594e+00	1.37869698e+02	-5.95399405e+01	-6.22926300e+01	-5.98738462e+01	-6.56869188e+01	-8.18894028e+00	-1.20411856e+02
1822089000	-3.79797348e+00	1.37877294e+02	-5.98220717e+01	-6.39000973e+01	-5.98598437e+01	-6.51884840e+01	-8.17234872e+00	-1.20420895e+02
1822374571.43	-3.80376271e+00	1.37913196e+02	-5.95274077e+01	-6.40062528e+01	-5.98492789e+01	-6.45106571e+01	-8.17863919e+00	-1.20445132e+02
1822660142.86	-3.79893666e+00	1.37892959e+02	-5.94770082e+01	-6.22821029e+01	-5.97828980e+01	-6.66073613e+01	-8.17829760e+00	-1.20369971e+02
1822945714.29	-3.80698981e+00	1.37892798e+02	-5.95618752e+01	-6.54168482e+01	-5.97431753e+01	-6.76969199e+01	-8.18209820e+00	-1.20319385e+02
1823231285.71	-3.80155112e+00	1.37859705e+02	-5.96198008e+01	-6.68625745e+01	-5.97547305e+01	-6.81744356e+01	-8.18486930e+00	-1.20299914e+02
1823516857.14	-3.80553288e+00	1.37891672e+02	-5.95805376e+01	-6.59552458e+01	-5.96847013e+01	-6.66192325e+01	-8.19004315e+00	-1.20296834e+02
1823802428.57	-3.81112412e+00	1.37865440e+02	-5.97695118e+01	-6.51368294e+01	-5.94661001e+01	-6.80654101e+01	-8.18186379e+00	-1.20366229e+02
1824088000	-3.81540764e+00	1.37836673e+02	-5.94379372e+01	-6.42807208e+01	-5.96037765e+01	-6.74859990e+01	-8.17945455e+00	-1.20296308e+02
1824373571.43	-3.82122190e+00	1.37828372e+02	-5.95220407e+01	-6.60630917e+01	-5.95263521e+01	-6.85838608e+01	-8.15931133e+00	-1.20247781e+02
1824659142.86	-3.82687651e+00	1.37836008e+02	-5.96539754e+01	-6.70918074e+01	-5.95430104e+01	-6.80410128e+01	-8.17146555e+00	-1.20222484e+02
1824944714.29	-3.82363918e+00	1.37829510e+02	-5.93927211e+01	-6.78356640e+01	-5.96003038e+01	-6.95171780e+01	-8.16428281e+00	-1.20201595e+02
1825230285.71	-3.82043384e+00	1.37877622e+02	-5.92686273e+01	-6.73032394e+01	-5.94779388e+01	-6.98466233e+01	-8.15107814e+00	-1.20124584e+02
1825515857.14	-3.82642673e+00	1.37880139e+02	-5.93365898e+01	-6.77615187e+01	-5.94633228e+01	-7.05532405e+01	-8.17005578e+00	-1.20174907e+02
1825801428.57	-3.82904422e+00	1.37914111e+02	-5.94212659e+01	-6.82732556e+01	-5.95878949e+01	-7.19198475e+01	-8.15963374e+00	-1.20143531e+02
1826087000	-3.83258293e+00	1.37877274e+02	-5.94758312e+01	-7.07766212e+01	-5.94493905e+01	-7.02638288e+01	-8.16023262e+00	-1.20037739e+02
1826372571.43	-3.83311961e+00	1.37851536e+02	-5.93498134e+01	-6.90985016e+01	-5.95771148e+01	-7.21977453e+01	-8.16505372e+00	-1.20098366e+02
1826658142.86	-3.82941607e+00	1.37914020e+02	-5.94075255e+01	-6.91246642e+01	-5.95664031e+01	-7.19440332e+01	-8.16967572e+00	-1.20046474e+02
1826943714.29	-3.82984396e+00	1.37908237e+02	-5.92546377e+01	-7.03402586e+01	-5.94515120e+01	-7.27775062e+01	-8.15804110e+00	-1.19947801e+02
1827229285.71	-3.83279991e+00	1.37933672e+02	-5.95681166e+01	-7.03587958e+01	-5.95393273e+01	-7.30942386e+01	-8.16284206e+00	-1.19931794e+02
1827514857.14	-3.83956126e+00	1.37943397e+02	-5.93574948e+01	-7.29982817e+01	-5.93695563e+01	-7.36211275e+01	-8.16308290e+00	-1.19979779e+02
1827800428.57	-3.83723707e+00	1.37968581e+02	-5.91417913e+01	-7.05072731e+01	-5.95273654e+01	-7.27430558e+01	-8.15688538e+00	-1.19810826e+02
1828086000	-3.83809021e+00	1.37936834e+02	-5.91595259e+01	-7.14896828e+01	-5.95548924e+01	-7.40853614e+01	-8.16292918e+00	-1.19886533e+02
1828371571.43	-3.83734344e+00	1.37887683e+02	-5.94624337e+01	-7.19055740e+01	-5.95071327e+01	-7.49967787e+01	-8.16191680e+00	-1.19795376e+02
1828657142.86	-3.84395092e+00	1.37888720e+02	-5.94015570e+01	-7.57448690e+01	-5.94333609e+01	-7.36104753e+01	-8.15145385e+00	-1.19750174e+02
1828942714.29	-3.84753781e+00	1.37949541e+02	-5.93496845e+01	-7.37997054e+01	-5.94229957e+01	-7.58024137e+01	-8.15976975e+00	-1.19798881e+02
1829228285.71	-3.85007833e+00	1.37870679e+02	-5.93111934e+01	-7.29388686e+01	-5.95439628e+01	-7.57747437e+01	-8.17486326e+00	-1.19780511e+02
1829513857.14	-3.84883394e+00	1.37872304e+02	-5.95676326e+01	-7.24287965e+01	-5.94113032e+01	-7.57540936e+01	-8.16195004e+00	-1.19704947e+02
1829799428.57	-3.85396979e+00	1.37803178e+02	-5.90739051e+01	-7.35501628e+01	-5.94882345e+01	-7.66105382e+01	-8.16699647e+00	-1.19704769e+02
1830085000	-3.84916064e+00	1.37838537e+02	-5.96661922e+01	-7.49136960e+01	-5.94291986e+01	-7.68477088e+01	-8.16653375e+00	-1.19734133e+02
1830370571.43	-3.86186345e+00	1.37816676e+02	-5.93811300e+01	-7.41661897e+01	-5.93798655e+01	-7.73181847e+01	-8.17370365e+00	-1.19791355e+02
1830656142.86	-3.85567170e+00	1.37772576e+02	-5.93952060e+01	-7.48390709e+01	-5.93570482e+01	-7.73338280e+01	-8.15435763e+00	-1.19818084e+02
1830941714.29	-3.85192448e+00	1.37736754e+02	-5.93204789e+01	-7.69879840e+01	-5.94665184e+01	-7.74788373e+01	-8.15945506e+00	-1.19763206e+02
1831227285.71	-3.86439889e+00	1.37757384e+02	-5.95249450e+01	-7.57646894e+01	-5.92111747e+01	-7.88175687e+01	-8.16907648e+00	-1.19747791e+02
1831512857.14	-3.85515704e+00	1.37786696e+02	-5.93509315e+01	-7.68235380e+01	-5.93245399e+01	-7.84237801e+01	-8.17968471e+00	-1.19788714e+02
1831798428.57	-3.86169314e+00	1.37745449e+02	-5.92263487e+01	-7.73210904e+01	-5.93153382e+01	-7.96581246e+01	-8.17014250e+00	-1.19838384e+02
1832084000	-3.86164210e+00	1.37735351e+02	-5.93957058e+01	-7.54083693e+01	-5.92752882e+01	-7.95410255e+01	-8.16673635e+00	-1.19844161e+02
1832369571.43	-3.86791930e+00	1.37741427e+02	-5.92887202e+01	-7.70072829e+01	-5.93047670e+01	-8.01410464e+01	-8.18873567e+00	-1.19862251e+02
1832655142.86	-3.87184706e+00	1.37727886e+02	-5.94669105e+01	-7.96886222e+01	-5.92437303e+01	-8.04082060e+01	-8.17582318e+00	-1.19811921e+02
1832940714.29	-3.87443283e+00	1.37799767e+02	-5.93219118e+01	-7.84273544e+01	-5.93023067e+01	-8.09744276e+01	-8.17849446e+00	-1.19755923e+02
1833226285.71	-3.86598983e+00	1.37770127e+02	-5.89121063e+01	-7.92712103e+01	-5.92815693e+01	-8.00232983e+01	-8.17381114e+00	-1.19829933e+02
1833511857.14	-3.86579968e+00	1.37764501e+02	-5.93252551e+01	-7.89451019e+01	-5.92981141e+01	-8.06516134e+01	-8.17163976e+00	-1.19875363e+02
1833797428.57	-3.87226841e+00	1.37698705e+02	-5.88385599e+01	-8.26633117e+01	-5.92097930e+01	-8.17648350e+01	-8.19309995e+00	-1.19863795e+02
1834083000	-3.87666269e+00	1.37650726e+02	-5.92228037e+01	-7.93545514e+01	-5.91381828e+01	-8.25072994e+01	-8.18305922e+00	-1.19920795e+02
1834368571.43	-3.87131032e+00	1.37658002e+02	-5.89852318e+01	-8.19301406e+01	-5.92741920e+01	-8.19336510e+01	-8.17445235e+00	-1.19936275e+02
1834654142.86	-3.87437907e+00	1.37679604e+02	-5.91399109e+01	-8.12649889e+01	-5.92205989e+01	-8.25200855e+01	-8.16662911e+00	-1.19992379e+02
1834939714.29	-3.86915455e+00	1.37675192e+02	-5.90443318e+01	-8.19117302e+01	-5.91623029e+01	-8.27443826e+01	-8.18026787e+00	-1.19925082e+02
1835225285.71	-3.87364781e+00	1.37682085e+02	-5.90360594e+01	-8.17168793e+01	-5.91731772e+01	-8.28217973e+01	-8.17658530e+00	-1.19859384e+02
1835510857.14	-3.88260819e+00	1.37643814e+02	-5.92593566e+01	-8.31332034e+01	-5.92678398e+01	-8.35617335e+01	-8.16762565e+00	-1.19762659e+02
1835796428.57	-3.88216882e+00	1.37638380e+02	-5.90718017e+01	-8.25243596e+01	-5.90839419e+01	-8.40521824e+01	-8.17005277e+00	-1.19797250e+02
1836082000	-3.88171581e+00	1.37675919e+02	-5.91392904e+01	-8.28849124e+01	-5.90392038e+01	-8.50745224e+01	-8.18111742e+00	-1.19839288e+02
1836367571.43	-3.88683703e+00	1.37653687e+02	-5.93164583e+01	-8.41108253e+01	-5.91381137e+01	-8.47799158e+01	-8.17064569e+00	-1.19918839e+02
1836653142.86	-3.88927755e+00	1.37647951e+02	-5.90240702e+01	-8.34967132e+01	-5.91206645e+01	-8.48729338e+01	-8.18092298e+00	-1.19886548e+02
1836938714.29	-3.88049663e+00	1.37667833e+02	-5.90563831e+01	-8.40155500e+01	-5.91888767e+01	-8.59161215e+01	-8.16986995e+00	-1.19889735e+02
1837224285.71	-3.87241269e+00	1.37657351e+02	-5.90399050e+01	-8.51799381e+01	-5.89304340e+01	-8.57758437e+01	-8.17486783e+00	-1.19873215e+02
1837509857.14	-3.88206784e+00	1.37683096e+02	-5.92382864e+01	-8.47335548e+01	-5.89892738e+01	-8.67177869e+01	-8.17940943e+00	-1.19934275e+02
1837795428.57	-3.89260048e+00	1.37689384e+02	-5.90594432e+01	-8.58009453e+01	-5.90764143e+01	-8.69779477e+01	-8.18457177e+00	-1.19981956e+02
1838081000	-3.89328539e+00	1.37683340e+02	-5.91418561e+01	-8.69413570e+01	-5.89344460e+01	-8.77254258e+01	-8.18417109e+00	-1.19914486e+02
1838366571.43	-3.89633465e+00	1.37640546e+02	-5.92729922e+01	-8.63585429e+01	-5.89723021e+01	-8.80306901e+01	-8.19884413e+00	-1.19943986e+02
1838652142.86	-3.89769575e+00	1.37624785e+02	-5.88459211e+01	-8.64753847e+01	-5.90010096e+01	-8.79960353e+01	-8.20029858e+00	-1.19921643e+02
1838937714.29	-3.89759220e+00	1.37638252e+02	-5.88533192e+01	-8.73288555e+01	-5.88969132e+01	-8.87821478e+01	-8.21548849e+00	-1.19996996e+02
1839223285.71	-3.90378798e+00	1.37606731e+02	-5.90494345e+01	-8.74667279e+01	-5.88911041e+01	-8.89654648e+01	-8.20842230e+00	-1.19974770e+02
1839508857.14	-3.90344173e+00	1.37635814e+02	-5.88195164e+01	-8.87613168e+01	-5.89233889e+01	-8.84675600e+01	-8.20934416e+00	-1.19972724e+02
1839794428.57	-3.90486254e+00	1.37624536e+02	-5.88376757e+01	-9.03477182e+01	-5.88913072e+01	-8.98231801e+01	-8.22786162e+00	-1.19989898e+02
1840080000	-3.90574154e+00	1.37629908e+02	-5.87319638e+01	-8.99294803e+01	-5.89136514e+01	-9.03274613e+01	-8.23653020e+00	-1.20048609e+02
1840365571.43	-3.91000692e+00	1.37594803e+02	-5.86775838e+01	-9.07431324e+01	-5.88486812e+01	-8.92059601e+01	-8.22070156e+00	-1.20104956e+02
1840651142.86	-3.91127507e+00	1.37579628e+02	-5.89648915e+01	-8.85712641e+01	-5.88345612e+01	-9.03874271e+01	-8.23559165e+00	-1.20167001e+02
1840936714.29	-3.90704408e+00	1.37575000e+02	-5.89631323e+01	-9.21512853e+01	-5.88396716e+01	-9.15171419e+01	-8.23566646e+00	-1.20192862e+02
1841222285.71	-3.90374126e+00	1.37525294e+02	-5.88428328e+01	-9.11132732e+01	-5.87139450e+01	-9.09980599e+01	-8.23042724e+00	-1.20235981e+02
1841507857.14	-3.90695228e+00	1.37517318e+02	-5.87469239e+01	-8.98321083e+01	-5.87518167e+01	-9.17516572e+01	-8.23146432e+00	-1.20241698e+02
1841793428.57	-3.91911781e+00	1.37497779e+02	-5.89445377e+01	-9.16184266e+01	-5.88195904e+01	-9.17468121e+01	-8.23044344e+00	-1.20259053e+02
1842079000	-3.91307904e+00	1.37492422e+02	-5.86191392e+01	-9.25023359e+01	-5.86960816e+01	-9.26428230e+01	-8.22460722e+00	-1.20421851e+02
1842364571.43	-3.92013251e+00	1.37496643e+02	-5.88598100e+01	-9.20070537e+01	-5.85771157e+01	-9.26379183e+01	-8.23683175e+00	-1.20473222e+02
1842650142.86	-3.91483243e+00	1.37472074e+02	-5.88684762e+01	-9.39670270e+01	-5.87181714e+01	-9.33307754e+01	-8.23102769e+00	-1.20479626e+02
1842935714.29	-3.91972670e+00	1.37504294e+02	-5.87711922e+01	-9.16002423e+01	-5.85179573e+01	-9.48539207e+01	-8.23722514e+00	-1.20512869e+02
1843221285.71	-3.91804438e+00	1.37458714e+02	-5.90737026e+01	-9.23334356e+01	-5.87051929e+01	-9.42690028e+01	-8.24905546e+00	-1.20560356e+02
1843506857.14	-3.92594521e+00	1.37476392e+02	-5.86373305e+01	-9.39772639e+01	-5.85620094e+01	-9.45452808e+01	-8.24238837e+00	-1.20610316e+02
1843792428.57	-3.92511676e+00	1.37430844e+02	-5.86781481e+01	-9.38004122e+01	-5.86148083e+01	-9.59073495e+01	-8.25298387e+00	-1.20756146e+02
1844078000	-3.92081616e+00	1.37449470e+02	-5.85577224e+01	-9.41273000e+01	-5.85666155e+01	-9.61012331e+01	-8.25401957e+00	-1.20742393e+02
1844363571.43	-3.91560727e+00	1.37407301e+02	-5.87843676e+01	-9.49655142e+01	-5.85207535e+01	-9.63590728e+01	-8.26085699e+00	-1.20734468e+02
1844649142.86	-3.91298073e+00	1.37391447e+02	-5.84552063e+01	-9.59218881e+01	-5.85463331e+01	-9.70231442e+01	-8.26597282e+00	-1.20807846e+02
1844934714.29	-3.91465859e+00	1.37393376e+02	-5.86772208e+01	-9.58146938e+01	-5.85202013e+01	-9.67555945e+01	-8.26597501e+00	-1.20890343e+02
1845220285.71	-3.91891071e+00	1.37372959e+02	-5.85324013e+01	-9.52561143e+01	-5.84298566e+01	-9.77827788e+01	-8.27498872e+00	-1.20925597e+02
1845505857.14	-3.92101755e+00	1.37362662e+02	-5.85312876e+01	-9.75474972e+01	-5.85908993e+01	-9.75629043e+01	-8.28985868e+00	-1.21029225e+02
1845791428.57	-3.92408964e+00	1.37380269e+02	-5.85819637e+01	-9.79413369e+01	-5.84364512e+01	-9.91295238e+01	-8.29338679e+00	-1.21083446e+02
1846077000	-3.92736955e+00	1.37344933e+02	-5.86553604e+01	-9.69948435e+01	-5.84919952e+01	-9.95185835e+01	-8.29581473e+00	-1.20938834e+02
1846362571.43	-3.92147856e+00	1.37308206e+02	-5.86257771e+01	-9.62340897e+01	-5.83017930e+01	-9.90139223e+01	-8.29664553e+00	-1.20907672e+02
1846648142.86	-3.92886728e+00	1.37268937e+02	-5.84134018e+01	-9.77609850e+01	-5.83835869e+01	-9.98234427e+01	-8.30959651e+00	-1.21009964e+02
1846933714.29	-3.92777402e+00	1.37254466e+02	-5.84849193e+01	-9.89072692e+01	-5.84042038e+01	-1.01722803e+02	-8.32018271e+00	-1.21046458e+02
1847219285.71	-3.92361927e+00	1.37274182e+02	-5.85856426e+01	-9.86692982e+01	-5.83323520e+01	-1.01647689e+02	-8.31395962e+00	-1.21125712e+02
1847504857.14	-3.93454641e+00	1.37287253e+02	-5.84041437e+01	-1.00264831e+02	-5.82120137e+01	-1.01254768e+02	-8.31685199e+00	-1.21148624e+02
1847790428.57	-3.93573308e+00	1.37263684e+02	-5.84937540e+01	-1.00683703e+02	-5.82514609e+01	-1.01854591e+02	-8.34289752e+00	-1.21162103e+02
1848076000	-3.93131443e+00	1.37270368e+02	-5.84920222e+01	-1.00165037e+02	-5.82676154e+01	-1.02270192e+02	-8.35937800e+00	-1.21160547e+02
1848361571.43	-3.93349308e+00	1.37230490e+02	-5.83471836e+01	-1.00866487e+02	-5.82003174e+01	-1.03154697e+02	-8.36091864e+00	-1.21252396e+02
1848647142.86	-3.93996301e+00	1.37184048e+02	-5.84216936e+01	-1.01604738e+02	-5.81889275e+01	-1.04244318e+02	-8.37280769e+00	-1.21195135e+02
1848932714.29	-3.93766190e+00	1.37206671e+02	-5.83680954e+01	-1.03047508e+02	-5.82490384e+01	-1.03814651e+02	-8.37059911e+00	-1.21207136e+02
1849218285.71	-3.93699361e+00	1.37191774e+02	-5.87016899e+01	-1.04415529e+02	-5.82745990e+01	-1.04922456e+02	-8.37958976e+00	-1.21299052e+02
1849503857.14	-3.93801411e+00	1.37163910e+02	-5.85520951e+01	-1.02882837e+02	-5.81746709e+01	-1.05511239e+02	-8.38538305e+00	-1.21293874e+02
1849789428.57	-3.94018030e+00	1.37151784e+02	-5.81978227e+01	-1.03633479e+02	-5.81801956e+01	-1.05928830e+02	-8.39915800e+00	-1.21304772e+02
1850075000	-3.94689027e+00	1.37153254e+02	-5.83838807e+01	-1.04732027e+02	-5.81328830e+01	-1.06354921e+02	-8.40789207e+00	-1.21260200e+02
1850360571.43	-3.94694533e+00	1.37152933e+02	-5.82659545e+01	-1.03795016e+02	-5.81288140e+01	-1.06598193e+02	-8.41530986e+00	-1.21343328e+02
1850646142.86	-3.94357954e+00	1.37160123e+02	-5.85453416e+01	-1.05870766e+02	-5.80978836e+01	-1.06754765e+02	-8.41779538e+00	-1.21359385e+02
1850931714.29	-3.94365865e+00	1.37134027e+02	-5.83212724e+01	-1.05022870e+02	-5.81439155e+01	-1.07946074e+02	-8.42733349e+00	-1.21375331e+02
1851217285.71	-3.94458252e+00	1.37097337e+02	-5.82156120e+01	-1.07478951e+02	-5.83067671e+01	-1.08780149e+02	-8.43660924e+00	-1.21404383e+02
1851502857.14	-3.93946663e+00	1.37051893e+02	-5.83723546e+01	-1.06278445e+02	-5.81653532e+01	-1.09041238e+02	-8.44541299e+00	-1.21424066e+02
1851788428.57	-3.94146125e+00	1.37057893e+02	-5.83126625e+01	-1.07793062e+02	-5.79569867e+01	-1.09095266e+02	-8.45125133e+00	-1.21483343e+02
1852074000	-3.95341688e+00	1.37063913e+02	-5.86167060e+01	-1.07956458e+02	-5.80118170e+01	-1.10274857e+02	-8.45047106e+00	-1.21458623e+02
1852359571.43	-3.94564160e+00	1.37073320e+02	-5.83256591e+01	-1.06667273e+02	-5.80306645e+01	-1.10428337e+02	-8.44884697e+00	-1.21476595e+02
1852645142.86	-3.93844747e+00	1.37033012e+02	-5.83036499e+01	-1.07849291e+02	-5.81161558e+01	-1.10929024e+02	-8.44988150e+00	-1.21555919e+02
1852930714.29	-3.94173163e+00	1.37003420e+02	-5.84144825e+01	-1.08293729e+02	-5.80663214e+01	-1.11241152e+02	-8.45449295e+00	-1.21621506e+02
1853216285.71	-3.94255017e+00	1.36976355e+02	-5.83099957e+01	-1.07614715e+02	-5.80657596e+01	-1.11438498e+02	-8.46017083e+00	-1.21607211e+02
1853501857.14	-3.94543166e+00	1.36982123e+02	-5.83748334e+01	-1.08937920e+02	-5.80200519e+01	-1.12456909e+02	-8.47187548e+00	-1.21697101e+02
1853787428.57	-3.94884835e+00	1.36994005e+02	-5.83017410e+01	-1.10441498e+02	-5.80423238e+01	-1.12910626e+02	-8.47958618e+00	-1.21656343e+02
1854073000	-3.94565810e+00	1.37014702e+02	-5.84146738e+01	-1.11574887e+02	-5.80216761e+01	-1.14082386e+02	-8.47439396e+00	-1.21749805e+02
1854358571.43	-3.95624034e+00	1.36980649e+02	-5.82578526e+01	-1.12665046e+02	-5.80967165e+01	-1.13756251e+02	-8.46814550e+00	-1.21729030e+02
1854644142.86	-3.94999567e+00	1.36959713e+02	-5.85712142e+01	-1.12602340e+02	-5.80392111e+01	-1.14760428e+02	-8.48686315e+00	-1.21736846e+02
1854929714.29	-3.94662576e+00	1.36907043e+02	-5.83728130e+01	-1.13056996e+02	-5.81036845e+01	-1.14525900e+02	-8.48062032e+00	-1.21872026e+02
1855215285.71	-3.94668656e+00	1.36879015e+02	-5.84080138e+01	-1.11452246e+02	-5.81049931e+01	-1.15675735e+02	-8.47905841e+00	-1.21820454e+02
1855500857.14	-3.94718130e+00	1.36882326e+02	-5.82432056e+01	-1.12604915e+02	-5.78802446e+01	-1.15347162e+02	-8.49046079e+00	-1.21942179e+02
1855786428.57	-3.94596876e+00	1.36905638e+02	-5.82710263e+01	-1.13760214e+02	-5.80462704e+01	-1.15373646e+02	-8.48607510e+00	-1.21931486e+02
1856072000	-3.94863234e+00	1.36889712e+02	-5.83094870e+01	-1.14860146e+02	-5.80114129e+01	-1.16377919e+02	-8.48729707e+00	-1.21909046e+02
1856357571.43	-3.94250439e+00	1.36871640e+02	-5.83303853e+01	-1.14537845e+02	-5.79112486e+01	-1.16541134e+02	-8.48493760e+00	-1.21943869e+02
1856643142.86	-3.94343139e+00	1.36840933e+02	-5.82865899e+01	-1.14875422e+02	-5.80830426e+01	-1.17290271e+02	-8.49879944e+00	-1.21902524e+02
1856928714.29	-3.94367155e+00	1.36847641e+02	-5.82201792e+01	-1.14844007e+02	-5.79833809e+01	-1.18607325e+02	-8.50212989e+00	-1.21866659e+02
1857214285.71	-3.94321113e+00	1.36884462e+02	-5.82528371e+01	-1.16130831e+02	-5.79954390e+01	-1.19199408e+02	-8.50475355e+00	-1.21926196e+02
1857499857.14	-3.95192093e+00	1.36844121e+02	-5.80235093e+01	-1.15976181e+02	-5.79622990e+01	-1.20028109e+02	-8.51394120e+00	-1.21915047e+02
1857785428.57	-3.95170297e+00	1.36800900e+02	-5.83790114e+01	-1.17072410e+02	-5.80987025e+01	-1.19024841e+02	-8.50994272e+00	-1.21932767e+02
1858071000	-3.95346478e+00	1.36794663e+02	-5.82591030e+01	-1.17153233e+02	-5.80367488e+01	-1.19929811e+02	-8.51286947e+00	-1.21924247e+02
1858356571.43	-3.95408463e+00	1.36794718e+02	-5.81513592e+01	-1.18484573e+02	-5.79709458e+01	-1.19680120e+02	-8.52727856e+00	-1.21886072e+02
1858642142.86	-3.94565378e+00	1.36745374e+02	-5.82229057e+01	-1.18592743e+02	-5.79877231e+01	-1.20841095e+02	-8.54006855e+00	-1.21922804e+02
1858927714.29	-3.94648227e+00	1.36769863e+02	-5.81618184e+01	-1.18123782e+02	-5.79682022e+01	-1.21316128e+02	-8.54568791e+00	-1.21955501e+02
1859213285.71	-3.94245610e+00	1.36766849e+02	-5.82572405e+01	-1.19927856e+02	-5.79313788e+01	-1.22433190e+02	-8.55608356e+00	-1.22007507e+02
1859498857.14	-3.94805770e+00	1.36753023e+02	-5.83778492e+01	-1.18378290e+02	-5.79721915e+01	-1.22073810e+02	-8.55256100e+00	-1.21912549e+02
1859784428.57	-3.95550056e+00	1.36737221e+02	-5.81231948e+01	-1.20701548e+02	-5.80094265e+01	-1.22860406e+02	-8.57043156e+00	-1.21907258e+02
1860070000	-3.95588793e+00	1.36736566e+02	-5.81795858e+01	-1.20449502e+02	-5.79065554e+01	-1.22817100e+02	-8.57135711e+00	-1.21895946e+02
1860355571.43	-3.95146664e+00	1.36714183e+02	-5.82775249e+01	-1.19341183e+02	-5.78538968e+01	-1.23852848e+02	-8.56361184e+00	-1.21937638e+02
1860641142.86	-3.95430322e+00	1.36718317e+02	-5.81878991e+01	-1.20538733e+02	-5.79892375e+01	-1.24185299e+02	-8.57012544e+00	-1.21962860e+02
1860926714.29	-3.95511220e+00	1.36668402e+02	-5.78212817e+01	-1.22246114e+02	-5.78385318e+01	-1.24939476e+02	-8.57649204e+00	-1.21889752e+02
1861212285.71	-3.94494571e+00	1.36682025e+02	-5.81387086e+01	-1.23109971e+02	-5.78872903e+01	-1.24996375e+02	-8.57199729e+00	-1.21874890e+02
1861497857.14	-3.94566388e+00	1.36633180e+02	-5.81961158e+01	-1.20952956e+02	-5.78758152e+01	-1.24684974e+02	-8.58016201e+00	-1.21882627e+02
1861783428.57	-3.95179623e+00	1.36618946e+02	-5.82040030e+01	-1.22634180e+02	-5.79274661e+01	-1.26243352e+02	-8.59477997e+00	-1.21855335e+02
1862069000	-3.94592472e+00	1.36623773e+02	-5.83409737e+01	-1.23073964e+02	-5.80266687e+01	-1.26253992e+02	-8.59829996e+00	-1.21927989e+02
1862354571.43	-3.94736216e+00	1.36603039e+02	-5.82446430e+01	-1.23680357e+02	-5.79671897e+01	-1.27093474e+02	-8.60205241e+00	-1.21923634e+02
1862640142.86	-3.95123420e+00	1.36636779e+02	-5.82251170e+01	-1.23115228e+02	-5.80024954e+01	-1.28195087e+02	-8.60724572e+00	-1.21881137e+02
1862925714.29	-3.95098291e+00	1.36627318e+02	-5.83355163e+01	-1.25005428e+02	-5.78415774e+01	-1.27764551e+02	-8.59623015e+00	-1.21776968e+02
1863211285.71	-3.95192593e+00	1.36638206e+02	-5.83027128e+01	-1.25546032e+02	-5.78902419e+01	-1.27347423e+02	-8.60663560e+00	-1.21928593e+02
1863496857.14	-3.95494668e+00	1.36632747e+02	-5.81629603e+01	-1.24056874e+02	-5.78380759e+01	-1.28312850e+02	-8.60255559e+00	-1.21897246e+02
1863782428.57	-3.94700302e+00	1.36613524e+02	-5.82259636e+01	-1.25881485e+02	-5.78962703e+01	-1.27989006e+02	-8.59740399e+00	-1.21927631e+02
1864068000	-3.94767474e+00	1.36570687e+02	-5.81015144e+01	-1.25959420e+02	-5.80408533e+01	-1.28697279e+02	-8.59650216e+00	-1.22009238e+02
1864353571.43	-3.95056458e+00	1.36547508e+02	-5.81249379e+01	-1.27439224e+02	-5.79299405e+01	-1.29668343e+02	-8.59742640e+00	-1.21967984e+02
1864639142.86	-3.94732077e+00	1.36571630e+02	-5.80261204e+01	-1.26883140e+02	-5.77855011e+01	-1.30717972e+02	-8.60262966e+00	-1.21883422e+02
1864924714.29	-3.95313894e+00	1.36583895e+02	-5.80704340e+01	-1.29164133e+02	-5.79163479e+01	-1.30292603e+02	-8.59636748e+00	-1.21883065e+02
1865210285.71	-3.94948229e+00	1.36594088e+02	-5.82663769e+01	-1.27081719e+02	-5.78049140e+01	-1.30880293e+02	-8.59664100e+00	-1.21869480e+02
1865495857.14	-3.94267628e+00	1.36573219e+02	-5.81581395e+01	-1.28392814e+02	-5.77503017e+01	-1.32400585e+02	-8.59491400e+00	-1.21890611e+02
1865781428.57	-3.94282469e+00	1.36550509e+02	-5.81546314e+01	-1.27385869e+02	-5.79006619e+01	-1.32511677e+02	-8.57918233e+00	-1.21900727e+02
1866067000	-3.94747738e+00	1.36577417e+02	-5.80655646e+01	-1.29934272e+02	-5.78974267e+01	-1.31583932e+02	-8.58240705e+00	-1.21901471e+02
1866352571.43	-3.95182584e+00	1.36551007e+02	-5.81671541e+01	-1.29530099e+02	-5.77358939e+01	-1.32105206e+02	-8.56937867e+00	-1.21873479e+02
1866638142.86	-3.95393015e+00	1.36560292e+02	-5.83432461e+01	-1.28915851e+02	-5.78661326e+01	-1.32671559e+02	-8.57146854e+00	-1.21818850e+02
1866923714.29	-3.95350924e+00	1.36543469e+02	-5.81597080e+01	-1.30400248e+02	-5.79053853e+01	-1.33052213e+02	-8.55722416e+00	-1.21818249e+02
1867209285.71	-3.95382858e+00	1.36529709e+02	-5.80899594e+01	-1.31848441e+02	-5.78199173e+01	-1.34328530e+02	-8.54994264e+00	-1.21827256e+02
1867494857.14	-3.94525817e+00	1.36505700e+02	-5.80007002e+01	-1.30074627e+02	-5.77416415e+01	-1.33928686e+02	-8.53372303e+00	-1.21864715e+02
1867780428.57	-3.94697408e+00	1.36544253e+02	-5.78680525e+01	-1.31293410e+02	-5.77721421e+01	-1.34250581e+02	-8.54161093e+00	-1.21903593e+02
1868066000	-3.94372587e+00	1.36620511e+02	-5.79610893e+01	-1.31050612e+02	-5.78104575e+01	-1.35851630e+02	-8.51971568e+00	-1.21901385e+02
1868351571.43	-3.94459655e+00	1.36575616e+02	-5.80960993e+01	-1.31877366e+02	-5.78402112e+01	-1.35594037e+02	-8.52092609e+00	-1.21871823e+02
1868637142.86	-3.95260691e+00	1.36552579e+02	-5.80285557e+01	-1.32430785e+02	-5.77336531e+01	-1.36396355e+02	-8.50975740e+00	-1.21936328e+02
1868922714.29	-3.95020353e+00	1.36517118e+02	-5.80581065e+01	-1.33174542e+02	-5.77097356e+01	-1.36760233e+02	-8.51179209e+00	-1.21922673e+02
1869208285.71	-3.95496290e+00	1.36535213e+02	-5.79111975e+01	-1.33798132e+02	-5.76176658e+01	-1.36175192e+02	-8.51823163e+00	-1.21973049e+02
1869493857.14	-3.94129379e+00	1.36497030e+02	-5.80813930e+01	-1.33559016e+02	-5.77023337e+01	-1.37301712e+02	-8.50885218e+00	-1.21945856e+02
1869779428.57	-3.94362761e+00	1.36513082e+02	-5.78378552e+01	-1.34232892e+02	-5.77093148e+01	-1.37606975e+02	-8.50414757e+00	-1.21990728e+02
1870065000	-3.94956136e+00	1.36547996e+02	-5.77771719e+01	-1.32899187e+02	-5.76536303e+01	-1.38649941e+02	-8.49403733e+00	-1.21983947e+02
1870350571.43	-3.94402032e+00	1.36562943e+02	-5.80659020e+01	-1.35901540e+02	-5.76462665e+01	-1.38351227e+02	-8.46905546e+00	-1.21984751e+02
1870636142.86	-3.95074409e+00	1.36493673e+02	-5.78454013e+01	-1.35729689e+02	-5.76941852e+01	-1.38471110e+02	-8.46192752e+00	-1.22060698e+02
1870921714.29	-3.95303547e+00	1.36544066e+02	-5.78385310e+01	-1.36247973e+02	-5.76230117e+01	-1.39306760e+02	-8.46263401e+00	-1.21963235e+02
1871207285.71	-3.95812473e+00	1.36612811e+02	-5.77673004e+01	-1.35893977e+02	-5.76324237e+01	-1.39973982e+02	-8.45352913e+00	-1.22037334e+02
1871492857.14	-3.95565849e+00	1.36578566e+02	-5.79008443e+01	-1.37596566e+02	-5.77113699e+01	-1.40329903e+02	-8.45444981e+00	-1.22005802e+02
1871778428.57	-3.95139228e+00	1.36548849e+02	-5.77245580e+01	-1.37249528e+02	-5.75180365e+01	-1.40965031e+02	-8.43707351e+00	-1.21917557e+02
1872064000	-3.95172448e+00	1.36514705e+02	-5.77515537e+01	-1.36983425e+02	-5.75454533e+01	-1.41359707e+02	-8.43155434e+00	-1.21925009e+02
1872349571.43	-3.95078495e+00	1.36537232e+02	-5.78318368e+01	-1.38296410e+02	-5.75371866e+01	-1.41543137e+02	-8.42791585e+00	-1.21999193e+02
1872635142.86	-3.95267910e+00	1.36501446e+02	-5.78106233e+01	-1.38524632e+02	-5.75698397e+01	-1.41660867e+02	-8.41911782e+00	-1.22076366e+02
1872920714.29	-3.95162627e+00	1.36536676e+02	-5.76987779e+01	-1.39641684e+02	-5.75106363e+01	-1.43119755e+02	-8.41087464e+00	-1.22030614e+02
1873206285.71	-3.94628359e+00	1.36456669e+02	-5.77154227e+01	-1.40347591e+02	-5.74916093e+01	-1.43920575e+02	-8.40016415e+00	-1.22023405e+02
1873491857.14	-3.95466851e+00	1.36522542e+02	-5.77504291e+01	-1.40236990e+02	-5.75113572e+01	-1.44066222e+02	-8.39847425e+00	-1.22036850e+02
1873777428.57	-3.95201509e+00	1.36552680e+02	-5.77163325e+01	-1.41920525e+02	-5.75042572e+01	-1.43674946e+02	-8.39459408e+00	-1.21906596e+02
1874063000	-3.94987806e+00	1.36554705e+02	-5.77196661e+01	-1.41536562e+02	-5.74354301e+01	-1.45591623e+02	-8.39091556e+00	-1.21971144e+02
1874348571.43	-3.95557147e+00	1.36510776e+02	-5.77179051e+01	-1.41690291e+02	-5.74808035e+01	-1.45753591e+02	-8.37236847e+00	-1.21934209e+02
1874634142.86	-3.95191186e+00	1.36545855e+02	-5.76456707e+01	-1.41791752e+02	-5.74796067e+01	-1.45612469e+02	-8.37054122e+00	-1.21875149e+02
1874919714.29	-3.95306069e+00	1.36559224e+02	-5.75704296e+01	-1.42674494e+02	-5.73932751e+01	-1.46994992e+02	-8.36017887e+00	-1.21827810e+02
1875205285.71	-3.95573833e+00	1.36564325e+02	-5.76494714e+01	-1.43016546e+02	-5.74883166e+01	-1.47196272e+02	-8.33765170e+00	-1.21828533e+02
1875490857.14	-3.95911205e+00	1.36534495e+02	-5.76116230e+01	-1.43449876e+02	-5.75125618e+01	-1.47416948e+02	-8.34286919e+00	-1.21817190e+02
1875776428.57	-3.96463217e+00	1.36615184e+02	-5.75823966e+01	-1.44432954e+02	-5.74551484e+01	-1.47818541e+02	-8.33962831e+00	-1.21705606e+02
1876062000	-3.96076013e+00	1.36560784e+02	-5.75169989e+01	-1.45507488e+02	-5.74623882e+01	-1.48568351e+02	-8.32713951e+00	-1.21748791e+02
1876347571.43	-3.95900102e+00	1.36599179e+02	-5.75402826e+01	-1.45128167e+02	-5.74874586e+01	-1.48980633e+02	-8.30692190e+00	-1.21797263e+02
1876633142.86	-3.96208297e+00	1.36562002e+02	-5.75605494e+01	-1.45320817e+02	-5.74378867e+01	-1.49086171e+02	-8.30483036e+00	-1.21729353e+02
1876918714.29	-3.95903124e+00	1.36598352e+02	-5.77180510e+01	-1.46290098e+02	-5.74153971e+01	-1.50212288e+02	-8.28664215e+00	-1.21573940e+02
1877204285.71	-3.95318603e+00	1.36638592e+02	-5.75980919e+01	-1.45328763e+02	-5.75608516e+01	-1.50472296e+02	-8.28116663e+00	-1.21608567e+02
1877489857.14	-3.96676765e+00	1.36623182e+02	-5.75904145e+01	-1.47136300e+02	-5.74125318e+01	-1.50509003e+02	-8.27964744e+00	-1.21547375e+02
1877775428.57	-3.95908910e+00	1.36578152e+02	-5.76099398e+01	-1.48016746e+02	-5.73318870e+01	-1.51566171e+02	-8.26770973e+00	-1.21542019e+02
1878061000	-3.96460120e+00	1.36606685e+02	-5.74449367e+01	-1.48305014e+02	-5.74782835e+01	-1.51772903e+02	-8.24256357e+00	-1.21516142e+02
1878346571.43	-3.96770271e+00	1.36618901e+02	-5.76174577e+01	-1.47921924e+02	-5.74099566e+01	-1.53287853e+02	-8.24513092e+00	-1.21400914e+02
1878632142.86	-3.96750351e+00	1.36577808e+02	-5.75072409e+01	-1.48932021e+02	-5.72434754e+01	-1.51785998e+02	-8.20930334e+00	-1.21370171e+02
1878917714.29	-3.96778203e+00	1.36590676e+02	-5.74403778e+01	-1.49861536e+02	-5.74208715e+01	-1.52856271e+02	-8.20339370e+00	-1.21335214e+02
1879203285.71	-3.96616688e+00	1.36650570e+02	-5.75240290e+01	-1.50589219e+02	-5.74795707e+01	-1.53602133e+02	-8.18027599e+00	-1.21331188e+02
1879488857.14	-3.96962094e+00	1.36669325e+02	-5.73981821e+01	-1.49950878e+02	-5.73338078e+01	-1.53777085e+02	-8.16633281e+00	-1.21289609e+02
1879774428.57	-3.96787946e+00	1.36624735e+02	-5.74191356e+01	-1.51091695e+02	-5.74356848e+01	-1.54258889e+02	-8.15611883e+00	-1.21081652e+02
1880060000	-3.96647250e+00	1.36627902e+02	-5.75491550e+01	-1.51564367e+02	-5.73586501e+01	-1.55182569e+02	-8.14877026e+00	-1.21125617e+02
1880345571.43	-3.95711051e+00	1.36633689e+02	-5.74369169e+01	-1.52029553e+02	-5.73828137e+01	-1.55884438e+02	-8.13308141e+00	-1.21086277e+02
1880631142.86	-3.96392584e+00	1.36587054e+02	-5.73971305e+01	-1.51349284e+02	-5.73013951e+01	-1.56015811e+02	-8.11997343e+00	-1.20957253e+02
1880916714.29	-3.96594444e+00	1.36623335e+02	-5.74202601e+01	-1.52038711e+02	-5.73333743e+01	-1.56563139e+02	-8.10830800e+00	-1.20888135e+02
1881202285.71	-3.96960772e+00	1.36617420e+02	-5.74278816e+01	-1.52988219e+02	-5.72646016e+01	-1.56870980e+02	-8.09562629e+00	-1.20836054e+02
1881487857.14	-3.96903377e+00	1.36600059e+02	-5.73242780e+01	-1.53262064e+02	-5.72840062e+01	-1.57295917e+02	-8.07250161e+00	-1.20744509e+02
1881773428.57	-3.97913472e+00	1.36641818e+02	-5.73641206e+01	-1.54596999e+02	-5.71377848e+01	-1.58818796e+02	-8.05242772e+00	-1.20656375e+02
1882059000	-3.97696455e+00	1.36611620e+02	-5.73816151e+01	-1.55134415e+02	-5.72576594e+01	-1.57467528e+02	-8.03664953e+00	-1.20660668e+02
1882344571.43	-3.98085792e+00	1.36637039e+02	-5.72322273e+01	-1.55159905e+02	-5.73059753e+01	-1.60151272e+02	-8.01974318e+00	-1.20472439e+02
1882630142.86	-3.97961129e+00	1.36638327e+02	-5.73956852e+01	-1.55906912e+02	-5.71583515e+01	-1.59474087e+02	-7.99902873e+00	-1.20402421e+02
1882915714.29	-3.97651895e+00	1.36605234e+02	-5.73582654e+01	-1.55148220e+02	-5.71968073e+01	-1.59912655e+02	-7.98873160e+00	-1.20324883e+02
1883201285.71	-3.97680375e+00	1.36613790e+02	-5.72707395e+01	-1.57189028e+02	-5.72108710e+01	-1.60592833e+02	-7.97396682e+00	-1.20347380e+02
1883486857.14	-3.97882321e+00	1.36611679e+02	-5.73605585e+01	-1.57631512e+02	-5.71522337e+01	-1.61037417e+02	-7.96404651e+00	-1.20281984e+02
1883772428.57	-3.98124918e+00	1.36590164e+02	-5.73458018e+01	-1.58496332e+02	-5.71492418e+01	-1.61367342e+02	-7.92544120e+00	-1.20158574e+02
1884058000	-3.98035178e+00	1.36610915e+02	-5.72920231e+01	-1.58429067e+02	-5.71817902e+01	-1.63021387e+02	-7.90863206e+00	-1.20094218e+02
1884343571.43	-3.98159174e+00	1.36592228e+02	-5.72330139e+01	-1.59330250e+02	-5.72656765e+01	-1.63252476e+02	-7.91400320e+00	-1.19956955e+02
1884629142.86	-3.98916327e+00	1.36616773e+02	-5.71694383e+01	-1.59129840e+02	-5.71591807e+01	-1.62780832e+02	-7.89065697e+00	-1.19842601e+02
1884914714.29	-3.98644848e+00	1.36597944e+02	-5.72781112e+01	-1.59718772e+02	-5.72024944e+01	-1.63665830e+02	-7.86597920e+00	-1.19847135e+02
1885200285.71	-3.99343874e+00	1.36648718e+02	-5.72913884e+01	-1.60180440e+02	-5.72311574e+01	-1.65221265e+02	-7.86405531e+00	-1.19702188e+02
1885485857.14	-3.99800185e+00	1.36562510e+02	-5.71051592e+01	-1.60803372e+02	-5.70821619e+01	-1.65176447e+02	-7.83810694e+00	-1.19538392e+02
1885771428.57	-3.99663551e+00	1.36607434e+02	-5.72620786e+01	-1.61773189e+02	-5.71423886e+01	-1.65439064e+02	-7.80558463e+00	-1.19598149e+02
1886057000	-3.98989426e+00	1.36654151e+02	-5.72578752e+01	-1.62330120e+02	-5.71201924e+01	-1.66193213e+02	-7.80547262e+00	-1.19592912e+02
1886342571.43	-3.99666637e+00	1.36673489e+02	-5.71769079e+01	-1.62851346e+02	-5.71266356e+01	-1.66805907e+02	-7.77861591e+00	-1.19435620e+02
1886628142.86	-3.99485925e+00	1.36627247e+02	-5.72925841e+01	-1.63187226e+02	-5.71123396e+01	-1.67005637e+02	-7.76730888e+00	-1.19345760e+02
1886913714.29	-4.00166636e+00	1.36591952e+02	-5.71608651e+01	-1.64244655e+02	-5.71391150e+01	-1.67793715e+02	-7.75134249e+00	-1.19205972e+02
1887199285.71	-4.00101286e+00	1.36569500e+02	-5.72173716e+01	-1.63877972e+02	-5.71215336e+01	-1.68210299e+02	-7.74210497e+00	-1.19060537e+02
1887484857.14	-4.00606733e+00	1.36564704e+02	-5.72084329e+01	-1.65678730e+02	-5.70398937e+01	-1.68249834e+02	-7.70805203e+00	-1.19050529e+02
1887770428.57	-4.00722624e+00	1.36584213e+02	-5.72368394e+01	-1.65799859e+02	-5.69745487e+01	-1.69052797e+02	-7.68539975e+00	-1.18914349e+02
1888056000	-4.00670408e+00	1.36633956e+02	-5.71402970e+01	-1.66301480e+02	-5.71317698e+01	-1.70501602e+02	-7.67928408e+00	-1.18857889e+02
1888341571.43	-4.00214618e+00	1.36618127e+02	-5.72095527e+01	-1.65247819e+02	-5.72725569e+01	-1.70322731e+02	-7.65680132e+00	-1.18876853e+02
1888627142.86	-4.00404603e+00	1.36622534e+02	-5.72439950e+01	-1.67490999e+02	-5.69978367e+01	-1.71032212e+02	-7.65669301e+00	-1.18824617e+02
1888912714.29	-3.99911953e+00	1.36616049e+02	-5.70970567e+01	-1.67245205e+02	-5.70546361e+01	-1.71528391e+02	-7.63496035e+00	-1.18737170e+02
1889198285.71	-3.99435740e+00	1.36628298e+02	-5.71372254e+01	-1.68141654e+02	-5.69885248e+01	-1.71965906e+02	-7.62510988e+00	-1.18722191e+02
1889483857.14	-3.99129711e+00	1.36600526e+02	-5.70923361e+01	-1.69737436e+02	-5.71411373e+01	-1.72625733e+02	-7.60323420e+00	-1.18644278e+02
1889769428.57	-3.99923809e+00	1.36639479e+02	-5.70552807e+01	-1.69443988e+02	-5.70784029e+01	-1.72885151e+02	-7.57804577e+00	-1.18691354e+02
1890055000	-4.00120760e+00	1.36590655e+02	-5.70988843e+01	-1.69389842e+02	-5.70450402e+01	-1.73984676e+02	-7.56227615e+00	-1.18623954e+02
1890340571.43	-3.99805634e+00	1.36641749e+02	-5.71265579e+01	-1.70834414e+02	-5.70017724e+01	-1.73884706e+02	-7.54890766e+00	-1.18547887e+02
1890626142.86	-4.00145418e+00	1.36635281e+02	-5.70474077e+01	-1.71548581e+02	-5.70497390e+01	-1.74203396e+02	-7.51947964e+00	-1.18576651e+02
1890911714.29	-4.00842763e+00	1.36609828e+02	-5.70891644e+01	-1.72243603e+02	-5.70808298e+01	-1.76186030e+02	-7.51116304e+00	-1.18514749e+02
1891197285.71	-4.01559571e+00	1.36591023e+02	-5.71406930e+01	-1.72956501e+02	-5.69686308e+01	-1.75982363e+02	-7.48476260e+00	-1.18476939e+02
1891482857.14	-4.01608299e+00	1.36556649e+02	-5.70726217e+01	-1.73064348e+02	-5.70670623e+01	-1.77024875e+02	-7.46304414e+00	-1.18417084e+02
1891768428.57	-4.00920418e+00	1.36523154e+02	-5.71475174e+01	-1.73949063e+02	-5.69518911e+01	-1.76880688e+02	-7.45273766e+00	-1.18358545e+02
1892054000	-4.02106482e+00	1.36498641e+02	-5.71003737e+01	-1.74301418e+02	-5.70551946e+01	-1.78045000e+02	-7.43110718e+00	-1.18377962e+02
1892339571.43	-4.01322331e+00	1.36528043e+02	-5.71179736e+01	-1.74080803e+02	-5.70918147e+01	-1.78404533e+02	-7.42037095e+00	-1.18328729e+02
1892625142.86	-4.01455382e+00	1.36501861e+02	-5.70265786e+01	-1.75063013e+02	-5.70632686e+01	-1.78616517e+02	-7.39678121e+00	-1.18282920e+02
1892910714.29	-4.01689831e+00	1.36503671e+02	-5.70187420e+01	-1.75760218e+02	-5.70363718e+01	-1.79858866e+02	-7.37379240e+00	-1.18265581e+02
1893196285.71	-4.01079324e+00	1.36525292e+02	-5.70236181e+01	-1.76451198e+02	-5.70431147e+01	-1.79659720e+02	-7.35872007e+00	-1.18070365e+02
1893481857.14	-4.02000409e+00	1.36561370e+02	-5.70843793e+01	-1.76789061e+02	-5.69664858e+01	1.78865749e+02	-7.32036115e+00	-1.18109240e+02
1893767428.57	-4.02670123e+00	1.36591111e+02	-5.71697235e+01	-1.77881543e+02	-5.70903679e+01	1.78813749e+02	-7.30351376e+00	-1.18108129e+02
1894053000	-4.02329027e+00	1.36562791e+02	-5.71443768e+01	-1.78508867e+02	-5.71294640e+01	1.78036733e+02	-7.27957456e+00	-1.18078444e+02
1894338571.43	-4.02582985e+00	1.36608361e+02	-5.70263581e+01	-1.78168860e+02	-5.70000972e+01	1.78450033e+02	-7.25666150e+00	-1.17981898e+02
1894624142.86	-4.01900676e+00	1.36594863e+02	-5.70886174e+01	-1.79444317e+02	-5.71396612e+01	1.77536604e+02	-7.24077670e+00	-1.17960685e+02
1894909714.29	-4.02129397e+00	1.36538776e+02	-5.70231759e+01	1.79735481e+02	-5.70378951e+01	1.76153946e+02	-7.22074506e+00	-1.17853045e+02
1895195285.71	-4.02156216e+00	1.36516258e+02	-5.70363954e+01	1.79163671e+02	-5.70323448e+01	1.75541189e+02	-7.21039063e+00	-1.17785351e+02
1895480857.14	-4.02315010e+00	1.36486393e+02	-5.71946353e+01	1.78686456e+02	-5.70848958e+01	1.75454611e+02	-7.18538038e+00	-1.17718840e+02
1895766428.57	-4.02045551e+00	1.36543429e+02	-5.70348233e+01	1.77913738e+02	-5.70103940e+01	1.74824572e+02	-7.15558033e+00	-1.17770692e+02
1896052000	-4.01839796e+00	1.36543671e+02	-5.70508922e+01	1.77764555e+02	-5.70163671e+01	1.74085736e+02	-7.14980280e+00	-1.17682270e+02
1896337571.43	-4.02083791e+00	1.36549030e+02	-5.70222688e+01	1.77359565e+02	-5.70722389e+01	1.73519294e+02	-7.13628359e+00	-1.17562848e+02
1896623142.86	-4.02636901e+00	1.36501829e+02	-5.72279756e+01	1.75977157e+02	-5.72756133e+01	1.73177638e+02	-7.11508355e+00	-1.17566647e+02
1896908714.29	-4.01837645e+00	1.36510439e+02	-5.70382512e+01	1.75586933e+02	-5.69994931e+01	1.71863974e+02	-7.10443377e+00	-1.17586063e+02
1897194285.71	-4.02372133e+00	1.36560274e+02	-5.70465392e+01	1.75620340e+02	-5.70843150e+01	1.72132000e+02	-7.09078470e+00	-1.17578683e+02
1897479857.14	-4.02757624e+00	1.36514161e+02	-5.70655652e+01	1.74790374e+02	-5.71561784e+01	1.71462755e+02	-7.07485231e+00	-1.17544702e+02
1897765428.57	-4.03483824e+00	1.36551057e+02	-5.71902008e+01	1.73557280e+02	-5.71412721e+01	1.71031940e+02	-7.05848834e+00	-1.17526898e+02
1898051000	-4.02353063e+00	1.36518715e+02	-5.71517327e+01	1.73709501e+02	-5.71101395e+01	1.69997286e+02	-7.03017672e+00	-1.17560216e+02
1898336571.43	-4.02179105e+00	1.36514191e+02	-5.70988930e+01	1.72714182e+02	-5.71625692e+01	1.69752247e+02	-7.01276106e+00	-1.17468720e+02
1898622142.86	-4.02610178e+00	1.36530027e+02	-5.69986633e+01	1.71952620e+02	-5.71526569e+01	1.69400077e+02	-6.99456589e+00	-1.17422991e+02
1898907714.29	-4.03322630e+00	1.36494629e+02	-5.70230933e+01	1.71647297e+02	-5.71538994e+01	1.68299479e+02	-6.96286523e+00	-1.17405944e+02
1899193285.71	-4.03074150e+00	1.36540532e+02	-5.71230460e+01	1.71795884e+02	-5.71164781e+01	1.67742147e+02	-6.94047240e+00	-1.17418149e+02
1899478857.14	-4.03782751e+00	1.36531463e+02	-5.71812796e+01	1.70716083e+02	-5.71223255e+01	1.67499237e+02	-6.93241345e+00	-1.17342762e+02
1899764428.57	-4.03383302e+00	1.36556968e+02	-5.72129332e+01	1.69699130e+02	-5.72080538e+01	1.66610930e+02	-6.90098099e+00	-1.17442284e+02
1900050000	-4.03730853e+00	1.36559291e+02	-5.71109017e+01	1.69164503e+02	-5.70656949e+01	1.66091057e+02	-6.87504127e+00	-1.17407850e+02
1900335571.43	-4.04142115e+00	1.36546517e+02	-5.70982896e+01	1.69017835e+02	-5.70918169e+01	1.65535265e+02	-6.85458102e+00	-1.17389225e+02
1900621142.86	-4.03930960e+00	1.36575149e+02	-5.73339126e+01	1.68359245e+02	-5.71658387e+01	1.65309849e+02	-6.83514079e+00	-1.17392434e+02
1900906714.29	-4.04600157e+00	1.36602358e+02	-5.71888793e+01	1.67140327e+02	-5.71501927e+01	1.63374040e+02	-6.81163048e+00	-1.17338779e+02
1901192285.71	-4.04326826e+00	1.36584803e+02	-5.72756817e+01	1.67474014e+02	-5.71252039e+01	1.63825878e+02	-6.79703613e+00	-1.17407252e+02
1901477857.14	-4.04833460e+00	1.36478396e+02	-5.71676725e+01	1.65336200e+02	-5.71794232e+01	1.62642602e+02	-6.76830858e+00	-1.17436865e+02
1901763428.57	-4.05720767e+00	1.36509689e+02	-5.72990458e+01	1.65533924e+02	-5.72086555e+01	1.62232568e+02	-6.76198201e+00	-1.17364447e+02
1902049000	-4.04848982e+00	1.36551927e+02	-5.72271214e+01	1.64413023e+02	-5.71958646e+01	1.61873495e+02	-6.74151017e+00	-1.17336872e+02
1902334571.43	-4.04935222e+00	1.36510745e+02	-5.73000665e+01	1.64774096e+02	-5.72045797e+01	1.60807627e+02	-6.72601048e+00	-1.17370309e+02
1902620142.86	-4.05198277e+00	1.36512788e+02	-5.72665870e+01	1.63959063e+02	-5.72075982e+01	1.60682778e+02	-6.70209445e+00	-1.17381899e+02
1902905714.29	-4.05217471e+00	1.36505960e+02	-5.73471465e+01	1.63247108e+02	-5.72271256e+01	1.59898773e+02	-6.68201970e+00	-1.17445500e+02
1903191285.71	-4.04489537e+00	1.36480187e+02	-5.73528799e+01	1.61899769e+02	-5.72939379e+01	1.60052890e+02	-6.65562080e+00	-1.17410656e+02
1903476857.14	-4.05077020e+00	1.36450223e+02	-5.71957913e+01	1.61935211e+02	-5.73650387e+01	1.58836425e+02	-6.63866976e+00	-1.17408418e+02
1903762428.57	-4.05474109e+00	1.36505080e+02	-5.72724442e+01	1.61841148e+02	-5.72922737e+01	1.58461075e+02	-6.61435285e+00	-1.17437130e+02
1904048000	-4.05755836e+00	1.36496540e+02	-5.73622663e+01	1.60749807e+02	-5.74259646e+01	1.57927056e+02	-6.58774857e+00	-1.17403668e+02
1904333571.43	-4.05893620e+00	1.36507618e+02	-5.73957949e+01	1.60949934e+02	-5.73894394e+01	1.57099424e+02	-6.57468811e+00	-1.17505625e+02
1904619142.86	-4.05501896e+00	1.36505591e+02	-5.74591597e+01	1.59663556e+02	-5.74376344e+01	1.56340763e+02	-6.56363615e+00	-1.17522029e+02
1904904714.29	-4.06511565e+00	1.36530499e+02	-5.73003223e+01	1.59099993e+02	-5.73616759e+01	1.56444745e+02	-6.53466857e+00	-1.17588276e+02
1905190285.71	-4.05714060e+00	1.36527857e+02	-5.73195702e+01	1.57287551e+02	-5.74577618e+01	1.54862467e+02	-6.51943557e+00	-1.17649714e+02
1905475857.14	-4.05796655e+00	1.36547157e+02	-5.76224703e+01	1.56518375e+02	-5.74169588e+01	1.55204062e+02	-6.49280886e+00	-1.17672860e+02
1905761428.57	-4.05919152e+00	1.36493163e+02	-5.74917213e+01	1.57630599e+02	-5.74643826e+01	1.54114196e+02	-6.47056818e+00	-1.17746804e+02
1906047000	-4.05816879e+00	1.36456206e+02	-5.75211759e+01	1.56586326e+02	-5.73562084e+01	1.53796525e+02	-6.45609812e+00	-1.17724639e+02
1906332571.43	-4.06526015e+00	1.36474424e+02	-5.73531598e+01	1.55914489e+02	-5.74833538e+01	1.53523145e+02	-6.42664470e+00	-1.17799310e+02
1906618142.86	-4.05996797e+00	1.36468758e+02	-5.76351347e+01	1.55241524e+02	-5.75232967e+01	1.53004080e+02	-6.41071445e+00	-1.17807056e+02
1906903714.29	-4.06201399e+00	1.36426144e+02	-5.76409955e+01	1.54589528e+02	-5.74860733e+01	1.52288589e+02	-6.38385984e+00	-1.17822142e+02
1907189285.71	-4.05764471e+00	1.36410511e+02	-5.76905889e+01	1.53575087e+02	-5.75463672e+01	1.51234108e+02	-6.37977216e+00	-1.17889002e+02
1907474857.14	-4.05781155e+00	1.36363390e+02	-5.76431579e+01	1.52262802e+02	-5.75640012e+01	1.50587678e+02	-6.35828397e+00	-1.17853143e+02
1907760428.57	-4.05993590e+00	1.36386255e+02	-5.77510078e+01	1.53673795e+02	-5.76508907e+01	1.50313837e+02	-6.32913082e+00	-1.17882882e+02
1908046000	-4.06067145e+00	1.36412123e+02	-5.77320302e+01	1.52141647e+02	-5.76265738e+01	1.50106197e+02	-6.32092917e+00	-1.17857928e+02
1908331571.43	-4.06454224e+00	1.36401386e+02	-5.75495348e+01	1.53088159e+02	-5.77999875e+01	1.49294512e+02	-6.28906485e+00	-1.17931432e+02
1908617142.86	-4.06196131e+00	1.36321029e+02	-5.77486419e+01	1.52136122e+02	-5.78040666e+01	1.48761811e+02	-6.27362617e+00	-1.17982406e+02
1908902714.29	-4.06545144e+00	1.36373150e+02	-5.78084180e+01	1.51025883e+02	-5.77212612e+01	1.47790880e+02	-6.26687770e+00	-1.18056807e+02
1909188285.71	-4.06780062e+00	1.36403154e+02	-5.78522236e+01	1.50636149e+02	-5.78294456e+01	1.47114191e+02	-6.23946443e+00	-1.18083732e+02
1909473857.14	-4.07137831e+00	1.36377022e+02	-5.79285944e+01	1.50016752e+02	-5.76999779e+01	1.47094846e+02	-6.22999372e+00	-1.18176947e+02
1909759428.57	-4.07363517e+00	1.36389914e+02	-5.78525875e+01	1.49563539e+02	-5.78021970e+01	1.46953926e+02	-6.21094364e+00	-1.18229243e+02
1910045000	-4.07339686e+00	1.36395983e+02	-5.77975235e+01	1.49484814e+02	-5.78895168e+01	1.46232168e+02	-6.19678482e+00	-1.18361459e+02
1910330571.43	-4.07276141e+00	1.36378294e+02	-5.78076180e+01	1.48112656e+02	-5.78240641e+01	1.45678663e+02	-6.16752919e+00	-1.18392837e+02
1910616142.86	-4.06632413e+00	1.36369046e+02	-5.79574190e+01	1.48919543e+02	-5.77422430e+01	1.44745976e+02	-6.15909938e+00	-1.18439289e+02
1910901714.29	-4.07260457e+00	1.36377330e+02	-5.79666683e+01	1.47658509e+02	-5.79570704e+01	1.45228247e+02	-6.13209653e+00	-1.18572555e+02
1911187285.71	-4.07173524e+00	1.36340293e+02	-5.78572421e+01	1.46514029e+02	-5.80755378e+01	1.43308393e+02	-6.10898416e+00	-1.18635474e+02
1911472857.14	-4.06907556e+00	1.36301531e+02	-5.79507886e+01	1.47042785e+02	-5.80121479e+01	1.44071524e+02	-6.08686668e+00	-1.18711609e+02
1911758428.57	-4.07035397e+00	1.36361223e+02	-5.80328054e+01	1.45748977e+02	-5.79288882e+01	1.42668310e+02	-6.07150172e+00	-1.18851569e+02
1912044000	-4.07245207e+00	1.36292184e+02	-5.80433371e+01	1.46255597e+02	-5.79772326e+01	1.41942767e+02	-6.05638488e+00	-1.18971063e+02
1912329571.43	-4.07246493e+00	1.36291830e+02	-5.81479361e+01	1.44528054e+02	-5.80038253e+01	1.42322861e+02	-6.04183412e+00	-1.19018630e+02
1912615142.86	-4.07074790e+00	1.36262978e+02	-5.79255250e+01	1.44212062e+02	-5.80670632e+01	1.42087875e+02	-6.02273289e+00	-1.19135930e+02
1912900714.29	-4.07530183e+00	1.36284849e+02	-5.80720583e+01	1.44553340e+02	-5.80680431e+01	1.41243960e+02	-6.00134833e+00	-1.19225441e+02
1913186285.71	-4.07938125e+00	1.36262544e+02	-5.80940588e+01	1.43717429e+02	-5.80468379e+01	1.40466851e+02	-5.98242134e+00	-1.19344865e+02
1913471857.14	-4.07443298e+00	1.36256409e+02	-5.80421038e+01	1.44256033e+02	-5.79593295e+01	1.40367196e+02	-5.96979496e+00	-1.19399517e+02
1913757428.57	-4.06671572e+00	1.36239165e+02	-5.81751616e+01	1.43329663e+02	-5.81549859e+01	1.39940568e+02	-5.94562151e+00	-1.19501089e+02
1914043000	-4.07665822e+00	1.36260415e+02	-5.81785872e+01	1.42857571e+02	-5.81149971e+01	1.39580588e+02	-5.93097071e+00	-1.19583667e+02
1914328571.43	-4.07293860e+00	1.36257241e+02	-5.82379333e+01	1.41943911e+02	-5.81851316e+01	1.38468176e+02	-5.91483432e+00	-1.19698715e+02
1914614142.86	-4.07490107e+00	1.36232194e+02	-5.81691305e+01	1.41827120e+02	-5.81968694e+01	1.38284677e+02	-5.89491551e+00	-1.19729857e+02
1914899714.29	-4.07464016e+00	1.36233662e+02	-5.82930513e+01	1.40181862e+02	-5.83388194e+01	1.37193864e+02	-5.87587806e+00	-1.19836994e+02
1915185285.71	-4.07348443e+00	1.36240817e+02	-5.82391514e+01	1.40612665e+02	-5.84290588e+01	1.37447303e+02	-5.86097208e+00	-1.19949492e+02
1915470857.14	-4.08252743e+00	1.36239683e+02	-5.82758893e+01	1.40814049e+02	-5.82626195e+01	1.37051082e+02	-5.86320302e+00	-1.20023242e+02
1915756428.57	-4.07864152e+00	1.36260801e+02	-5.81444227e+01	1.39570395e+02	-5.82678909e+01	1.37212540e+02	-5.83955134e+00	-1.20053118e+02
1916042000	-4.07610930e+00	1.36259767e+02	-5.83372272e+01	1.39176665e+02	-5.82732832e+01	1.36956608e+02	-5.82875901e+00	-1.20122170e+02
1916327571.43	-4.07233401e+00	1.36189191e+02	-5.83635741e+01	1.38705702e+02	-5.83789856e+01	1.34957259e+02	-5.81566792e+00	-1.20245725e+02
1916613142.86	-4.07721633e+00	1.36183421e+02	-5.82338311e+01	1.38054277e+02	-5.83251815e+01	1.35832117e+02	-5.80795562e+00	-1.20341602e+02
1916898714.29	-4.08432883e+00	1.36140894e+02	-5.83489688e+01	1.38341694e+02	-5.83560967e+01	1.34968504e+02	-5.78615544e+00	-1.20468153e+02
1917184285.71	-4.08651047e+00	1.36145458e+02	-5.83562660e+01	1.36338949e+02	-5.83891311e+01	1.34657344e+02	-5.77372652e+00	-1.20519357e+02
1917469857.14	-4.07498812e+00	1.36119533e+02	-5.83689335e+01	1.35900643e+02	-5.82941423e+01	1.34265754e+02	-5.77113241e+00	-1.20639281e+02
1917755428.57	-4.08021168e+00	1.36030936e+02	-5.84496888e+01	1.36999831e+02	-5.84273280e+01	1.34238755e+02	-5.74936085e+00	-1.20755525e+02
1918041000	-4.08145414e+00	1.36071516e+02	-5.83499368e+01	1.34811568e+02	-5.83480088e+01	1.33420170e+02	-5.73835710e+00	-1.20847037e+02
1918326571.43	-4.08313119e+00	1.36063622e+02	-5.82953191e+01	1.34813983e+02	-5.84562051e+01	1.32497660e+02	-5.71833967e+00	-1.20925591e+02
1918612142.86	-4.07811621e+00	1.36066567e+02	-5.84668496e+01	1.35286311e+02	-5.85199703e+01	1.32592546e+02	-5.70863618e+00	-1.21065163e+02
1918897714.29	-4.07805693e+00	1.36048535e+02	-5.84805624e+01	1.34630355e+02	-5.85740451e+01	1.32810921e+02	-5.69548750e+00	-1.21136885e+02
1919183285.71	-4.07639242e+00	1.36054552e+02	-5.84286986e+01	1.34179792e+02	-5.85265992e+01	1.30860776e+02	-5.67878330e+00	-1.21332927e+02
1919468857.14	-4.07396541e+00	1.36037798e+02	-5.85256994e+01	1.32791369e+02	-5.85914353e+01	1.30823054e+02	-5.66004110e+00	-1.21377615e+02
1919754428.57	-4.07146011e+00	1.36038765e+02	-5.85279587e+01	1.32746750e+02	-5.86778092e+01	1.30240129e+02	-5.64776331e+00	-1.21535751e+02
1920040000	-4.07412811e+00	1.36006810e+02	-5.85286466e+01	1.32036890e+02	-5.85504532e+01	1.29196978e+02	-5.63438306e+00	-1.21651446e+02
1920325571.43	-4.08092676e+00	1.35988368e+02	-5.84514599e+01	1.31175721e+02	-5.86958660e+01	1.29350869e+02	-5.62023931e+00	-1.21816015e+02
1920611142.86	-4.08004618e+00	1.36022889e+02	-5.86672311e+01	1.31062080e+02	-5.86023211e+01	1.29880279e+02	-5.60419191e+00	-1.21954879e+02
1920896714.29	-4.08160333e+00	1.36014258e+02	-5.87190430e+01	1.30907032e+02	-5.85189371e+01	1.28598018e+02	-5.59465615e+00	-1.22051360e+02
1921182285.71	-4.08478974e+00	1.35942431e+02	-5.86163715e+01	1.30026303e+02	-5.86712516e+01	1.28120054e+02	-5.57436696e+00	-1.22219942e+02
1921467857.14	-4.08150818e+00	1.35894016e+02	-5.85919209e+01	1.30058487e+02	-5.86220464e+01	1.27006871e+02	-5.55611316e+00	-1.22416289e+02
1921753428.57	-4.08786155e+00	1.35866406e+02	-5.86065311e+01	1.29512514e+02	-5.86532168e+01	1.27140307e+02	-5.53586421e+00	-1.22539192e+02
1922039000	-4.08265278e+00	1.35914037e+02	-5.87444518e+01	1.28532817e+02	-5.86521456e+01	1.26744096e+02	-5.52064949e+00	-1.22656637e+02
1922324571.43	-4.09062236e+00	1.35964591e+02	-5.86975018e+01	1.28829163e+02	-5.87274930e+01	1.24706300e+02	-5.51154187e+00	-1.22765746e+02
1922610142.86	-4.09584114e+00	1.35936916e+02	-5.88540531e+01	1.28340218e+02	-5.86950705e+01	1.25329384e+02	-5.49295276e+00	-1.22930251e+02
1922895714.29	-4.08426130e+00	1.35950983e+02	-5.88909340e+01	1.27664902e+02	-5.86936940e+01	1.25340974e+02	-5.47753689e+00	-1.23077351e+02
1923181285.71	-4.08113634e+00	1.35912717e+02	-5.88057316e+01	1.27263655e+02	-5.86214951e+01	1.23235531e+02	-5.45461663e+00	-1.23261044e+02
1923466857.14	-4.07750258e+00	1.35903290e+02	-5.88332390e+01	1.27201513e+02	-5.86965327e+01	1.24348058e+02	-5.44028521e+00	-1.23359320e+02
1923752428.57	-4.08552895e+00	1.35876754e+02	-5.87884823e+01	1.26173936e+02	-5.86649263e+01	1.22737378e+02	-5.43168653e+00	-1.23552958e+02
1924038000	-4.08199310e+00	1.35882508e+02	-5.87891119e+01	1.25095118e+02	-5.88529311e+01	1.23524491e+02	-5.40480606e+00	-1.23729443e+02
1924323571.43	-4.08644291e+00	1.35848119e+02	-5.89964110e+01	1.25067901e+02	-5.87873812e+01	1.22767193e+02	-5.39557530e+00	-1.23821364e+02
1924609142.86	-4.08549480e+00	1.35858886e+02	-5.88095064e+01	1.25130722e+02	-5.89344519e+01	1.21676748e+02	-5.37137675e+00	-1.23951034e+02
1924894714.29	-4.08632018e+00	1.35883470e+02	-5.89137849e+01	1.23465508e+02	-5.88143698e+01	1.20810395e+02	-5.35806718e+00	-1.24122204e+02
1925180285.71	-4.08737274e+00	1.35905255e+02	-5.88746425e+01	1.23750983e+02	-5.90114425e+01	1.20721235e+02	-5.33139340e+00	-1.24241519e+02
1925465857.14	-4.08489960e+00	1.35909246e+02	-5.89952576e+01	1.23543463e+02	-5.89830563e+01	1.21046386e+02	-5.32406282e+00	-1.24407759e+02
1925751428.57	-4.08203663e+00	1.35867237e+02	-5.89879952e+01	1.21096965e+02	-5.87903624e+01	1.20103548e+02	-5.30582038e+00	-1.24586353e+02
1926037000	-4.08049033e+00	1.35863760e+02	-5.87819825e+01	1.22422310e+02	-5.91081919e+01	1.18825714e+02	-5.27960164e+00	-1.24779517e+02
1926322571.43	-4.07868379e+00	1.35893365e+02	-5.89789759e+01	1.22467503e+02	-5.90068248e+01	1.18952150e+02	-5.26451469e+00	-1.24839979e+02
1926608142.86	-4.08206437e+00	1.35815968e+02	-5.91269624e+01	1.21465553e+02	-5.90501659e+01	1.17925542e+02	-5.26229414e+00	-1.25041160e+02
1926893714.29	-4.08365042e+00	1.35848579e+02	-5.90919470e+01	1.22191991e+02	-5.90341321e+01	1.18300087e+02	-5.24289582e+00	-1.25209494e+02
1927179285.71	-4.08280845e+00	1.35866189e+02	-5.88606475e+01	1.20505568e+02	-5.90914745e+01	1.18261845e+02	-5.22066958e+00	-1.25389700e+02
1927464857.14	-4.08731983e+00	1.35846013e+02	-5.90184041e+01	1.19030265e+02	-5.90915795e+01	1.17572253e+02	-5.20237809e+00	-1.25560120e+02
1927750428.57	-4.07742669e+00	1.35817110e+02	-5.90870441e+01	1.19131116e+02	-5.89902194e+01	1.16120973e+02	-5.18907421e+00	-1.25676289e+02
1928036000	-4.07750914e+00	1.35811810e+02	-5.91452756e+01	1.18670160e+02	-5.91760537e+01	1.15367070e+02	-5.16488212e+00	-1.25868948e+02
1928321571.43	-4.08254251e+00	1.35787025e+02	-5.92161613e+01	1.18779505e+02	-5.91857961e+01	1.16031628e+02	-5.15814320e+00	-1.26115969e+02
1928607142.86	-4.08408030e+00	1.35789479e+02	-5.91459200e+01	1.17779813e+02	-5.93056731e+01	1.16065007e+02	-5.14024512e+00	-1.26231790e+02
1928892714.29	-4.08689201e+00	1.35800046e+02	-5.93490888e+01	1.17907188e+02	-5.92107789e+01	1.15061757e+02	-5.11767211e+00	-1.26402108e+02
1929178285.71	-4.08850484e+00	1.35846992e+02	-5.92496771e+01	1.17468303e+02	-5.93332792e+01	1.14498413e+02	-5.09971605e+00	-1.26582545e+02
1929463857.14	-4.08059158e+00	1.35798449e+02	-5.93532139e+01	1.15191956e+02	-5.91703742e+01	1.13682222e+02	-5.09191955e+00	-1.26791427e+02
1929749428.57	-4.07625143e+00	1.35852995e+02	-5.92942189e+01	1.14569039e+02	-5.93963060e+01	1.13789599e+02	-5.06721566e+00	-1.26946900e+02
1930035000	-4.07744257e+00	1.35793098e+02	-5.92916510e+01	1.14226019e+02	-5.90968604e+01	1.13047483e+02	-5.05719448e+00	-1.27107234e+02
1930320571.43	-4.08203646e+00	1.35793142e+02	-5.93339631e+01	1.15754252e+02	-5.93741447e+01	1.12533771e+02	-5.03799971e+00	-1.27241156e+02
1930606142.86	-4.08249541e+00	1.35815565e+02	-5.94611573e+01	1.14208451e+02	-5.93988423e+01	1.12060034e+02	-5.02081710e+00	-1.27420439e+02
1930891714.29	-4.08613215e+00	1.35744085e+02	-5.94863517e+01	1.14394265e+02	-5.93193575e+01	1.11190768e+02	-4.99897442e+00	-1.27607879e+02
1931177285.71	-4.08787701e+00	1.35736469e+02	-5.93385100e+01	1.13644673e+02	-5.96027004e+01	1.11611855e+02	-4.98899180e+00	-1.27744669e+02
1931462857.14	-4.08940155e+00	1.35788351e+02	-5.94075943e+01	1.12945576e+02	-5.92691446e+01	1.11558276e+02	-4.97439175e+00	-1.27888900e+02
1931748428.57	-4.07900033e+00	1.35786996e+02	-5.93399083e+01	1.12068146e+02	-5.95388291e+01	1.10630385e+02	-4.95479255e+00	-1.28103913e+02
1932034000	-4.07522571e+00	1.35763361e+02	-5.95694660e+01	1.12695478e+02	-5.95040733e+01	1.09760849e+02	-4.93737544e+00	-1.28316011e+02
1932319571.43	-4.08364860e+00	1.35762906e+02	-5.94525429e+01	1.11647118e+02	-5.94327277e+01	1.09399052e+02	-4.92291405e+00	-1.28437999e+02
1932605142.86	-4.07713511e+00	1.35784710e+02	-5.94586544e+01	1.11898788e+02	-5.94358662e+01	1.09139768e+02	-4.90450740e+00	-1.28590412e+02
1932890714.29	-4.07811866e+00	1.35767437e+02	-5.96689545e+01	1.10742553e+02	-5.95965284e+01	1.08014175e+02	-4.89349529e+00	-1.28784213e+02
1933176285.71	-4.07917718e+00	1.35798004e+02	-5.94291975e+01	1.11765836e+02	-5.95274678e+01	1.08892734e+02	-4.87575945e+00	-1.29005027e+02
1933461857.14	-4.08161154e+00	1.35776273e+02	-5.95950184e+01	1.10427900e+02	-5.96564519e+01	1.07991523e+02	-4.86771408e+00	-1.29112675e+02
1933747428.57	-4.08876822e+00	1.35764022e+02	-5.97924690e+01	1.09764052e+02	-5.95532459e+01	1.07854039e+02	-4.85705291e+00	-1.29310762e+02
1934033000	-4.07694690e+00	1.35738393e+02	-5.95737183e+01	1.09288052e+02	-5.95986954e+01	1.06759741e+02	-4.83672106e+00	-1.29470518e+02
1934318571.43	-4.08376893e+00	1.35774894e+02	-5.95878873e+01	1.08778403e+02	-5.95731465e+01	1.07197095e+02	-4.83032837e+00	-1.29665015e+02
1934604142.86	-4.08163826e+00	1.35749456e+02	-5.95419000e+01	1.09860607e+02	-5.96438987e+01	1.06586547e+02	-4.81687171e+00	-1.29807032e+02
1934889714.29	-4.09104933e+00	1.35746886e+02	-5.96455541e+01	1.08981032e+02	-5.96744358e+01	1.06594097e+02	-4.78508172e+00	-1.30009733e+02
1935175285.71	-4.08969691e+00	1.35746181e+02	-5.95220638e+01	1.08451975e+02	-5.96335103e+01	1.04827537e+02	-4.77479947e+00	-1.30153056e+02
1935460857.14	-4.08896126e+00	1.35768765e+02	-5.98490144e+01	1.06141838e+02	-5.96854784e+01	1.04786273e+02	-4.75300110e+00	-1.30315234e+02
1935746428.57	-4.07801685e+00	1.35849387e+02	-5.97597485e+01	1.06375927e+02	-5.96221126e+01	1.04387551e+02	-4.74292266e+00	-1.30448219e+02
1936032000	-4.08375008e+00	1.35812204e+02	-5.96170493e+01	1.06392806e+02	-5.98769465e+01	1.03133799e+02	-4.72154587e+00	-1.30668004e+02
1936317571.43	-4.08317140e+00	1.35783514e+02	-5.98327409e+01	1.05585958e+02	-5.96550434e+01	1.03672589e+02	-4.71269109e+00	-1.30809645e+02
1936603142.86	-4.08376801e+00	1.35792867e+02	-5.97448064e+01	1.06005317e+02	-5.97634841e+01	1.02844107e+02	-4.68433587e+00	-1.30972662e+02
1936888714.29	-4.07447598e+00	1.35838853e+02	-5.95359853e+01	1.04337104e+02	-5.96336194e+01	1.02813768e+02	-4.67498180e+00	-1.31126026e+02
1937174285.71	-4.08586459e+00	1.35830095e+02	-5.97747299e+01	1.04418431e+02	-5.98129663e+01	1.02438594e+02	-4.65402046e+00	-1.31239083e+02
1937459857.14	-4.08533171e+00	1.35882240e+02	-5.99843505e+01	1.04342385e+02	-5.98343688e+01	1.02493598e+02	-4.63978603e+00	-1.31432198e+02
1937745428.57	-4.08020326e+00	1.35749906e+02	-5.98945574e+01	1.03872002e+02	-5.98856260e+01	9.99422170e+01	-4.62889099e+00	-1.31609743e+02
1938031000	-4.07267774e+00	1.35740622e+02	-5.99852880e+01	1.03242908e+02	-5.98420067e+01	1.00852918e+02	-4.61802135e+00	-1.31743345e+02
1938316571.43	-4.07795182e+00	1.35729479e+02	-5.96789608e+01	1.02859808e+02	-5.98985054e+01	9.94716161e+01	-4.59047669e+00	-1.31937540e+02
1938602142.86	-4.08421166e+00	1.35716814e+02	-5.98931079e+01	1.02158406e+02	-5.97696401e+01	1.00565183e+02	-4.57798886e+00	-1.32125524e+02
1938887714.29	-4.08088525e+00	1.35741345e+02	-6.00467468e+01	1.02576308e+02	-6.00357536e+01	9.85554336e+01	-4.56976006e+00	-1.32250102e+02
1939173285.71	-4.08769738e+00	1.35754663e+02	-6.00712515e+01	1.01455070e+02	-6.00082887e+01	9.89857871e+01	-4.54412173e+00	-1.32399647e+02
1939458857.14	-4.08316029e+00	1.35757485e+02	-6.01178949e+01	1.00439165e+02	-5.98794483e+01	9.94537803e+01	-4.53037122e+00	-1.32514279e+02
1939744428.57	-4.08419932e+00	1.35716817e+02	-5.99106432e+01	9.98994033e+01	-5.98987054e+01	9.70590086e+01	-4.51995247e+00	-1.32734184e+02
1940030000	-4.07961209e+00	1.35695611e+02	-6.01022305e+01	1.00771016e+02	-5.99056732e+01	9.82993639e+01	-4.48990243e+00	-1.32798552e+02
1940315571.43	-4.08273970e+00	1.35667510e+02	-5.99123896e+01	9.93819853e+01	-6.00695933e+01	9.69442350e+01	-4.47249433e+00	-1.32985526e+02
1940601142.86	-4.08614021e+00	1.35681910e+02	-6.00792261e+01	9.95643209e+01	-6.02258501e+01	9.58812798e+01	-4.47134569e+00	-1.33159925e+02
1940886714.29	-4.08546172e+00	1.35658165e+02	-6.01182292e+01	9.84395774e+01	-6.01139817e+01	9.75233307e+01	-4.45815383e+00	-1.33331924e+02
1941172285.71	-4.09251470e+00	1.35713933e+02	-6.00551380e+01	9.73134830e+01	-6.00659218e+01	9.56422880e+01	-4.43116571e+00	-1.33463075e+02
1941457857.14	-4.09096443e+00	1.35674664e+02	-6.02342823e+01	9.83541839e+01	-6.02495287e+01	9.47985626e+01	-4.42089475e+00	-1.33616533e+02
1941743428.57	-4.08624249e+00	1.35716556e+02	-6.01734647e+01	9.61968399e+01	-5.99458748e+01	9.47648395e+01	-4.39258354e+00	-1.33772122e+02
1942029000	-4.09075329e+00	1.35754756e+02	-6.01435156e+01	9.67340493e+01	-6.01730057e+01	9.44353547e+01	-4.37813708e+00	-1.33921858e+02
1942314571.43	-4.08855563e+00	1.35756893e+02	-6.00507630e+01	9.50925055e+01	-6.02723159e+01	9.36986884e+01	-4.36025838e+00	-1.34061427e+02
1942600142.86	-4.09392957e+00	1.35760306e+02	-6.03070892e+01	9.45734994e+01	-6.02018262e+01	9.26476268e+01	-4.34669030e+00	-1.34191345e+02
1942885714.29	-4.09206326e+00	1.35751693e+02	-6.02536533e+01	9.49766844e+01	-6.02180469e+01	9.23842172e+01	-4.33530091e+00	-1.34301707e+02
1943171285.71	-4.09319684e+00	1.35764541e+02	-6.04372706e+01	9.31971002e+01	-6.01757942e+01	9.20182876e+01	-4.30737488e+00	-1.34478542e+02
1943456857.14	-4.09043461e+00	1.35771323e+02	-6.02443660e+01	9.33295898e+01	-6.04006087e+01	9.10069294e+01	-4.29920728e+00	-1.34577113e+02
1943742428.57	-4.08059186e+00	1.35726794e+02	-6.03297959e+01	9.40328618e+01	-6.03385371e+01	9.07060504e+01	-4.27089882e+00	-1.34663609e+02
1944028000	-4.07744686e+00	1.35762957e+02	-6.02575079e+01	9.31096687e+01	-6.03066807e+01	9.07952797e+01	-4.25830099e+00	-1.34808595e+02
1944313571.43	-4.09087611e+00	1.35744226e+02	-6.04523299e+01	9.14593420e+01	-6.04092539e+01	8.89321243e+01	-4.23374432e+00	-1.34914734e+02
1944599142.86	-4.09345764e+00	1.35706267e+02	-6.04821389e+01	9.28569976e+01	-6.04868801e+01	8.85579983e+01	-4.22168504e+00	-1.34994949e+02
1944884714.29	-4.09397773e+00	1.35688557e+02	-6.04803599e+01	9.10172023e+01	-6.05161387e+01	8.81082836e+01	-4.20470780e+00	-1.35125893e+02
1945170285.71	-4.09318123e+00	1.35732263e+02	-6.04103995e+01	9.01580884e+01	-6.05455314e+01	8.77200678e+01	-4.18895874e+00	-1.35262216e+02
1945455857.14	-4.09597445e+00	1.35697965e+02	-6.05422000e+01	8.99044057e+01	-6.05395529e+01	8.81273809e+01	-4.17660165e+00	-1.35467516e+02
1945741428.57	-4.09577613e+00	1.35749566e+02	-6.05246178e+01	9.02996516e+01	-6.04563542e+01	8.71527068e+01	-4.16117393e+00	-1.35568867e+02
1946027000	-4.09605101e+00	1.35718142e+02	-6.06491985e+01	8.72310155e+01	-6.04901192e+01	8.71151001e+01	-4.14643553e+00	-1.35678815e+02
1946312571.43	-4.09622854e+00	1.35694855e+02	-6.06885196e+01	8.85629976e+01	-6.08157777e+01	8.63381739e+01	-4.12237141e+00	-1.35893662e+02
1946598142.86	-4.09486724e+00	1.35699714e+02	-6.09499620e+01	8.82339524e+01	-6.04825679e+01	8.56477126e+01	-4.11675048e+00	-1.36080756e+02
1946883714.29	-4.08905876e+00	1.35695427e+02	-6.08714748e+01	8.81093338e+01	-6.08102945e+01	8.49069860e+01	-4.09746203e+00	-1.36217128e+02
1947169285.71	-4.09977064e+00	1.35724945e+02	-6.07601727e+01	8.67771175e+01	-6.08660328e+01	8.44947809e+01	-4.08057108e+00	-1.36375985e+02
1947454857.14	-4.10588881e+00	1.35688677e+02	-6.07783446e+01	8.69527417e+01	-6.07042138e+01	8.38924224e+01	-4.06504745e+00	-1.36599581e+02
1947740428.57	-4.09820091e+00	1.35706078e+02	-6.07852943e+01	8.43808594e+01	-6.07903396e+01	8.30914931e+01	-4.06435671e+00	-1.36772170e+02
1948026000	-4.09202001e+00	1.35704817e+02	-6.09382759e+01	8.56215438e+01	-6.09663117e+01	8.21490131e+01	-4.04551740e+00	-1.36904276e+02
1948311571.43	-4.09399664e+00	1.35653757e+02	-6.09708202e+01	8.42111320e+01	-6.10127511e+01	8.38794915e+01	-4.03354471e+00	-1.37036211e+02
1948597142.86	-4.08943699e+00	1.35770083e+02	-6.10034690e+01	8.47694239e+01	-6.10979883e+01	8.24986712e+01	-4.01009191e+00	-1.37244779e+02
1948882714.29	-4.08922161e+00	1.35769118e+02	-6.11127303e+01	8.30496659e+01	-6.09167888e+01	8.25053935e+01	-4.00513790e+00	-1.37372895e+02
1949168285.71	-4.09275946e+00	1.35733183e+02	-6.11066288e+01	8.28358164e+01	-6.09209533e+01	8.07657503e+01	-3.98615512e+00	-1.37554928e+02
1949453857.14	-4.08658317e+00	1.35725583e+02	-6.10491594e+01	8.44673476e+01	-6.10475663e+01	8.09295193e+01	-3.98195558e+00	-1.37699809e+02
1949739428.57	-4.08870065e+00	1.35736414e+02	-6.11721703e+01	8.20205235e+01	-6.10274506e+01	8.06082611e+01	-3.95583411e+00	-1.37865336e+02
1950025000	-4.10032090e+00	1.35725152e+02	-6.13806770e+01	8.25458787e+01	-6.11573151e+01	8.12987182e+01	-3.94563092e+00	-1.37989670e+02
1950310571.43	-4.09662884e+00	1.35758195e+02	-6.13574946e+01	8.17224953e+01	-6.10576161e+01	8.07307971e+01	-3.94745212e+00	-1.38177686e+02
1950596142.86	-4.10000351e+00	1.35775876e+02	-6.11928155e+01	8.17216453e+01	-6.12943578e+01	7.84494010e+01	-3.93339074e+00	-1.38221080e+02
1950881714.29	-4.09730174e+00	1.35813645e+02	-6.13345803e+01	8.12936226e+01	-6.11561514e+01	7.81936258e+01	-3.91691225e+00	-1.38405748e+02
1951167285.71	-4.08909976e+00	1.35750337e+02	-6.13492040e+01	8.01016394e+01	-6.12593900e+01	7.88958747e+01	-3.90809044e+00	-1.38514521e+02
1951452857.14	-4.09406431e+00	1.35758808e+02	-6.13430941e+01	7.96246740e+01	-6.11269068e+01	7.79062928e+01	-3.88708954e+00	-1.38605590e+02
1951738428.57	-4.10181876e+00	1.35757877e+02	-6.13820074e+01	7.93971488e+01	-6.13243714e+01	7.59795055e+01	-3.87346848e+00	-1.38818089e+02
1952024000	-4.10188300e+00	1.35755153e+02	-6.15084762e+01	7.93761136e+01	-6.16358946e+01	7.72073859e+01	-3.86585173e+00	-1.38984979e+02
1952309571.43	-4.09846896e+00	1.35732581e+02	-6.14319586e+01	7.99210960e+01	-6.15765504e+01	7.77911524e+01	-3.84925832e+00	-1.39117191e+02
1952595142.86	-4.09648403e+00	1.35735525e+02	-6.14756956e+01	7.92028311e+01	-6.15054612e+01	7.63808498e+01	-3.83083887e+00	-1.39310724e+02
1952880714.29	-4.09788321e+00	1.35758889e+02	-6.16221525e+01	7.79520286e+01	-6.17743778e+01	7.53335723e+01	-3.83116407e+00	-1.39482277e+02
1953166285.71	-4.10523464e+00	1.35771987e+02	-6.15375831e+01	7.90329899e+01	-6.17333875e+01	7.40827882e+01	-3.80827290e+00	-1.39570882e+02
1953451857.14	-4.10239262e+00	1.35769564e+02	-6.17248746e+01	7.80637259e+01	-6.15455227e+01	7.51443698e+01	-3.79699569e+00	-1.39760990e+02
1953737428.57	-4.10698129e+00	1.35753759e+02	-6.19348327e+01	7.53166228e+01	-6.16706469e+01	7.33962254e+01	-3.78966055e+00	-1.39992905e+02
1954023000	-4.09424427e+00	1.35844796e+02	-6.19194410e+01	7.70514033e+01	-6.17796795e+01	7.28965190e+01	-3.77197260e+00	-1.40159135e+02
1954308571.43	-4.09695946e+00	1.35839075e+02	-6.19059207e+01	7.50594031e+01	-6.17975928e+01	7.32370821e+01	-3.76436117e+00	-1.40322128e+02
1954594142.86	-4.09334924e+00	1.35849183e+02	-6.17859485e+01	7.66913767e+01	-6.18675947e+01	7.35136192e+01	-3.75264818e+00	-1.40450470e+02
1954879714.29	-4.08928200e+00	1.35919491e+02	-6.18769983e+01	7.60178162e+01	-6.19517129e+01	7.20886109e+01	-3.72856934e+00	-1.40655991e+02
1955165285.71	-4.08414850e+00	1.35945861e+02	-6.18851602e+01	7.49188863e+01	-6.18695619e+01	7.26075617e+01	-3.72373235e+00	-1.40809928e+02
1955450857.14	-4.09327191e+00	1.35915448e+02	-6.21493469e+01	7.43869406e+01	-6.20493227e+01	7.09230489e+01	-3.70811766e+00	-1.40969176e+02
1955736428.57	-4.09657126e+00	1.35881167e+02	-6.21685726e+01	7.44546756e+01	-6.20877128e+01	7.22347037e+01	-3.70463241e+00	-1.41104453e+02
1956022000	-4.10025233e+00	1.35901765e+02	-6.21022612e+01	7.46650628e+01	-6.24168085e+01	7.16469395e+01	-3.69061083e+00	-1.41178956e+02
1956307571.43	-4.09475217e+00	1.35901618e+02	-6.22226458e+01	7.32848671e+01	-6.19711610e+01	7.10504935e+01	-3.67957901e+00	-1.41355242e+02
1956593142.86	-4.09788236e+00	1.35844541e+02	-6.23435861e+01	7.40058970e+01	-6.21984444e+01	7.12209512e+01	-3.66280858e+00	-1.41471637e+02
1956878714.29	-4.09983817e+00	1.35829322e+02	-6.21557641e+01	7.24029372e+01	-6.22694510e+01	7.15136977e+01	-3.65922500e+00	-1.41540835e+02
1957164285.71	-4.10019320e+00	1.35830811e+02	-6.22204967e+01	7.34510375e+01	-6.24164098e+01	7.14284134e+01	-3.64338393e+00	-1.41661853e+02
1957449857.14	-4.10497997e+00	1.35875291e+02	-6.23243373e+01	7.23508320e+01	-6.25894816e+01	6.96359388e+01	-3.63270431e+00	-1.41782457e+02
1957735428.57	-4.10325314e+00	1.35889811e+02	-6.26246344e+01	7.14347397e+01	-6.23479025e+01	6.84256049e+01	-3.62037183e+00	-1.41925280e+02
1958021000	-4.09438480e+00	1.35905305e+02	-6.24333045e+01	7.13361378e+01	-6.22877194e+01	6.92230654e+01	-3.61248773e+00	-1.42149806e+02
1958306571.43	-4.10136489e+00	1.35936813e+02	-6.24034589e+01	7.13102884e+01	-6.27387692e+01	6.90084304e+01	-3.60371387e+00	-1.42219242e+02
1958592142.86	-4.09963712e+00	1.35890349e+02	-6.25714937e+01	7.29060150e+01	-6.24762629e+01	6.86105008e+01	-3.60128403e+00	-1.42404638e+02
1958877714.29	-4.10712069e+00	1.35974079e+02	-6.26226642e+01	7.26009117e+01	-6.24730827e+01	6.98685061e+01	-3.59139634e+00	-1.42529109e+02
1959163285.71	-4.09545575e+00	1.35943074e+02	-6.23247462e+01	7.03946157e+01	-6.27809880e+01	6.73616085e+01	-3.58218433e+00	-1.42693977e+02
1959448857.14	-4.09098272e+00	1.36007487e+02	-6.22646169e+01	6.94675616e+01	-6.24980628e+01	6.86558292e+01	-3.58701874e+00	-1.42885876e+02
1959734428.57	-4.09348046e+00	1.35987321e+02	-6.25177133e+01	6.88614649e+01	-6.27019133e+01	6.63516078e+01	-3.57793277e+00	-1.43024082e+02
1960020000	-4.08676175e+00	1.36034493e+02	-6.26953505e+01	6.91551840e+01	-6.27435181e+01	6.67280655e+01	-3.56417722e+00	-1.43186405e+02
1960305571.43	-4.08216554e+00	1.36006668e+02	-6.25808049e+01	6.87833641e+01	-6.26912784e+01	6.64038011e+01	-3.56057093e+00	-1.43342281e+02
1960591142.86	-4.08691484e+00	1.36005450e+02	-6.27684258e+01	7.02663864e+01	-6.28570551e+01	6.66826274e+01	-3.55096055e+00	-1.43542345e+02
1960876714.29	-4.09823648e+00	1.36121565e+02	-6.24975996e+01	6.97754323e+01	-6.25659161e+01	6.51548094e+01	-3.54333172e+00	-1.43731625e+02
1961162285.71	-4.10767260e+00	1.36088429e+02	-6.28972359e+01	6.75538449e+01	-6.29081939e+01	6.37922953e+01	-3.53347571e+00	-1.43899427e+02
1961447857.14	-4.11075372e+00	1.36123835e+02	-6.30317296e+01	6.59813058e+01	-6.28193124e+01	6.57643662e+01	-3.53430417e+00	-1.44049954e+02
1961733428.57	-4.10684566e+00	1.36155831e+02	-6.29862641e+01	6.67623947e+01	-6.29574237e+01	6.48994189e+01	-3.52210202e+00	-1.44282804e+02
1962019000	-4.10787440e+00	1.36161239e+02	-6.30234534e+01	6.68523515e+01	-6.29227562e+01	6.54706108e+01	-3.50537586e+00	-1.44404790e+02
1962304571.43	-4.10036314e+00	1.36138575e+02	-6.28167129e+01	6.75526452e+01	-6.29262139e+01	6.49327375e+01	-3.50064050e+00	-1.44546848e+02
1962590142.86	-4.10283621e+00	1.36147782e+02	-6.30055801e+01	6.77906802e+01	-6.31712791e+01	6.48730805e+01	-3.50372845e+00	-1.44697004e+02
1962875714.29	-4.10370477e+00	1.36137710e+02	-6.30485503e+01	6.72288246e+01	-6.30437591e+01	6.42539484e+01	-3.49192171e+00	-1.44828482e+02
1963161285.71	-4.10962819e+00	1.36133882e+02	-6.30670974e+01	6.62608140e+01	-6.30578060e+01	6.13607677e+01	-3.49517104e+00	-1.44903462e+02
1963446857.14	-4.11709708e+00	1.36150330e+02	-6.31897566e+01	6.58783911e+01	-6.33454525e+01	6.25213114e+01	-3.48581784e+00	-1.45042063e+02
1963732428.57	-4.11713404e+00	1.36187459e+02	-6.31788601e+01	6.53821179e+01	-6.33024262e+01	6.31617955e+01	-3.48012489e+00	-1.45203353e+02
1964018000	-4.12675297e+00	1.36218911e+02	-6.31741331e+01	6.47666052e+01	-6.32700065e+01	6.39532969e+01	-3.47637031e+00	-1.45367561e+02
1964303571.43	-4.11315289e+00	1.36176213e+02	-6.30627347e+01	6.60352533e+01	-6.33246360e+01	6.01227988e+01	-3.46914130e+00	-1.45558482e+02
1964589142.86	-4.10898356e+00	1.36190197e+02	-6.29789426e+01	6.27916859e+01	-6.31972050e+01	6.04276396e+01	-3.46261832e+00	-1.45727430e+02
1964874714.29	-4.11095706e+00	1.36238493e+02	-6.31057606e+01	6.53621203e+01	-6.32168018e+01	6.11600849e+01	-3.45188985e+00	-1.45857607e+02
1965160285.71	-4.10365429e+00	1.36275008e+02	-6.32269391e+01	6.46451408e+01	-6.34571809e+01	6.09144821e+01	-3.44382948e+00	-1.46048199e+02
1965445857.14	-4.11161703e+00	1.36270028e+02	-6.32644522e+01	6.34802751e+01	-6.33400419e+01	6.17440483e+01	-3.43712412e+00	-1.46199266e+02
1965731428.57	-4.11286891e+00	1.36291903e+02	-6.33316694e+01	6.46893062e+01	-6.34602194e+01	5.92397859e+01	-3.43150114e+00	-1.46402024e+02
1966017000	-4.10660248e+00	1.36312020e+02	-6.35428098e+01	6.32398398e+01	-6.36614158e+01	6.08058470e+01	-3.42898216e+00	-1.46597096e+02
1966302571.43	-4.11055243e+00	1.36339225e+02	-6.35694371e+01	6.04273771e+01	-6.35677291e+01	6.03831841e+01	-3.42620057e+00	-1.46752576e+02
1966588142.86	-4.11419975e+00	1.36334746e+02	-6.35851232e+01	6.21991704e+01	-6.34339461e+01	5.95209828e+01	-3.42109102e+00	-1.46930081e+02
1966873714.29	-4.11922069e+00	1.36345076e+02	-6.34957284e+01	6.05402611e+01	-6.35782308e+01	5.82249578e+01	-3.40836295e+00	-1.47132834e+02
1967159285.71	-4.12166205e+00	1.36360564e+02	-6.35552825e+01	6.13018435e+01	-6.37527803e+01	5.76220905e+01	-3.41231324e+00	-1.47301400e+02
1967444857.14	-4.12643168e+00	1.36321045e+02	-6.37330358e+01	6.19579609e+01	-6.37108542e+01	5.84595208e+01	-3.40663654e+00	-1.47453785e+02
1967730428.57	-4.13012329e+00	1.36331672e+02	-6.34192397e+01	6.21154776e+01	-6.40015374e+01	5.93366382e+01	-3.39099724e+00	-1.47592959e+02
1968016000	-4.13103095e+00	1.36294752e+02	-6.35401270e+01	6.23969930e+01	-6.38395942e+01	5.59862610e+01	-3.38899220e+00	-1.47799790e+02
1968301571.43	-4.13255225e+00	1.36289275e+02	-6.35764591e+01	6.28523705e+01	-6.41154679e+01	5.75328083e+01	-3.39358777e+00	-1.47947191e+02
1968587142.86	-4.13401785e+00	1.36348324e+02	-6.34748633e+01	5.89815400e+01	-6.36330505e+01	5.64295688e+01	-3.38878175e+00	-1.48037868e+02
1968872714.29	-4.13067960e+00	1.36265591e+02	-6.35591411e+01	5.94376041e+01	-6.38033078e+01	5.63627058e+01	-3.38782283e+00	-1.48252394e+02
1969158285.71	-4.14070914e+00	1.36283852e+02	-6.37214733e+01	5.75990968e+01	-6.40973876e+01	5.63535008e+01	-3.38889445e+00	-1.48403857e+02
1969443857.14	-4.14257108e+00	1.36258753e+02	-6.40923080e+01	6.11706593e+01	-6.40290682e+01	5.57118589e+01	-3.38850390e+00	-1.48541761e+02
1969729428.57	-4.15889024e+00	1.36195347e+02	-6.39405016e+01	5.79513253e+01	-6.41573326e+01	5.58018425e+01	-3.38248120e+00	-1.48730547e+02
1970015000	-4.14575939e+00	1.36296845e+02	-6.38441474e+01	5.71310275e+01	-6.44379987e+01	5.69557211e+01	-3.37852192e+00	-1.48878081e+02
1970300571.43	-4.13726730e+00	1.36262917e+02	-6.41147714e+01	5.75612560e+01	-6.42194428e+01	5.52216655e+01	-3.38162319e+00	-1.49060492e+02
1970586142.86	-4.13996386e+00	1.36307596e+02	-6.39269734e+01	5.66077615e+01	-6.43864716e+01	5.44098483e+01	-3.38161672e+00	-1.49249283e+02
1970871714.29	-4.13650303e+00	1.36262417e+02	-6.39258968e+01	5.83983635e+01	-6.45536141e+01	5.47511527e+01	-3.38833860e+00	-1.49427719e+02
1971157285.71	-4.13372729e+00	1.36260215e+02	-6.42027026e+01	5.77693642e+01	-6.44353597e+01	5.28242865e+01	-3.39124940e+00	-1.49632658e+02
1971442857.14	-4.13330306e+00	1.36269826e+02	-6.40758370e+01	5.74437619e+01	-6.43160790e+01	5.35405027e+01	-3.38863866e+00	-1.49823359e+02
1971728428.57	-4.14293149e+00	1.36326496e+02	-6.46162813e+01	5.46731925e+01	-6.41652172e+01	5.40819548e+01	-3.37682358e+00	-1.50002515e+02
1972014000	-4.14378603e+00	1.36327065e+02	-6.44614325e+01	5.69590584e+01	-6.42431270e+01	5.33913295e+01	-3.37692046e+00	-1.50102214e+02
1972299571.43	-4.15038612e+00	1.36338413e+02	-6.43623789e+01	5.68128993e+01	-6.51200949e+01	5.45946508e+01	-3.38285063e+00	-1.50287164e+02
1972585142.86	-4.15001586e+00	1.36316999e+02	-6.41330106e+01	5.72158652e+01	-6.46062673e+01	5.33763159e+01	-3.37775437e+00	-1.50506477e+02
1972870714.29	-4.15374463e+00	1.36321205e+02	-6.43196925e+01	5.83665486e+01	-6.46370440e+01	5.17619257e+01	-3.37915210e+00	-1.50674606e+02
1973156285.71	-4.15099300e+00	1.36312825e+02	-6.47506793e+01	5.52600915e+01	-6.43746346e+01	5.14959437e+01	-3.38318586e+00	-1.50908596e+02
1973441857.14	-4.15056858e+00	1.36315211e+02	-6.46370442e+01	5.48611001e+01	-6.48841359e+01	5.11806232e+01	-3.37929605e+00	-1.51091720e+02
1973727428.57	-4.15272451e+00	1.36279607e+02	-6.44989366e+01	5.60245278e+01	-6.49498175e+01	5.20306941e+01	-3.38417595e+00	-1.51241695e+02
1974013000	-4.16302589e+00	1.36344635e+02	-6.43825559e+01	5.52566490e+01	-6.47935081e+01	5.10827562e+01	-3.38153835e+00	-1.51404911e+02
1974298571.43	-4.15830220e+00	1.36371377e+02	-6.47287482e+01	5.48264743e+01	-6.46899837e+01	5.37248562e+01	-3.38607086e+00	-1.51575167e+02
1974584142.86	-4.16283220e+00	1.36365114e+02	-6.48852413e+01	5.71260224e+01	-6.52911795e+01	4.95168585e+01	-3.37796793e+00	-1.51777489e+02
1974869714.29	-4.16446238e+00	1.36328338e+02	-6.48510750e+01	5.48167565e+01	-6.50787183e+01	5.23834723e+01	-3.37769511e+00	-1.52040435e+02
1975155285.71	-4.16276498e+00	1.36325173e+02	-6.49298722e+01	5.17067861e+01	-6.47361592e+01	5.12470288e+01	-3.37901707e+00	-1.52197627e+02
1975440857.14	-4.16109835e+00	1.36313039e+02	-6.51461847e+01	5.38133418e+01	-6.50165626e+01	5.00274613e+01	-3.37662179e+00	-1.52398501e+02
1975726428.57	-4.16039562e+00	1.36328748e+02	-6.50575537e+01	5.42975993e+01	-6.49479615e+01	5.21671635e+01	-3.37417023e+00	-1.52585595e+02
1976012000	-4.16410824e+00	1.36321821e+02	-6.49462606e+01	5.34404875e+01	-6.53468557e+01	5.03773902e+01	-3.38116520e+00	-1.52768955e+02
1976297571.43	-4.16333645e+00	1.36291256e+02	-6.49977552e+01	5.29090599e+01	-6.54647194e+01	5.00405942e+01	-3.37950373e+00	-1.52960436e+02
1976583142.86	-4.16056563e+00	1.36282967e+02	-6.52526356e+01	5.15580010e+01	-6.52699145e+01	4.87678582e+01	-3.37611492e+00	-1.53215612e+02
1976868714.29	-4.16295924e+00	1.36277872e+02	-6.53187442e+01	5.34856912e+01	-6.53505602e+01	4.96611526e+01	-3.38149938e+00	-1.53400167e+02
1977154285.71	-4.16339307e+00	1.36266323e+02	-6.53990507e+01	5.32494693e+01	-6.54773698e+01	5.01332741e+01	-3.38432083e+00	-1.53621454e+02
1977439857.14	-4.16507382e+00	1.36229517e+02	-6.52548883e+01	5.38326634e+01	-6.55721706e+01	4.93526024e+01	-3.38031664e+00	-1.53824648e+02
1977725428.57	-4.16424810e+00	1.36225770e+02	-6.53193419e+01	5.27814546e+01	-6.55524332e+01	4.75350003e+01	-3.38011438e+00	-1.54036004e+02
1978011000	-4.16592571e+00	1.36266723e+02	-6.57777435e+01	5.29537991e+01	-6.55890612e+01	5.13810410e+01	-3.38098224e+00	-1.54265961e+02
1978296571.43	-4.16406626e+00	1.36272099e+02	-6.53376049e+01	5.16630285e+01	-6.55121553e+01	5.15111825e+01	-3.38153705e+00	-1.54467241e+02
1978582142.86	-4.16586871e+00	1.36265372e+02	-6.54809493e+01	5.25909922e+01	-6.58770357e+01	5.00967648e+01	-3.38206000e+00	-1.54635355e+02
1978867714.29	-4.16618068e+00	1.36242044e+02	-6.54915230e+01	5.22721544e+01	-6.58802838e+01	4.88173142e+01	-3.38543991e+00	-1.54883509e+02
1979153285.71	-4.16685487e+00	1.36235970e+02	-6.54444635e+01	5.18242719e+01	-6.58858250e+01	4.97504417e+01	-3.37890491e+00	-1.55166149e+02
1979438857.14	-4.16822843e+00	1.36189913e+02	-6.57338733e+01	4.92132433e+01	-6.57845209e+01	4.97050919e+01	-3.37811413e+00	-1.55350569e+02
1979724428.57	-4.16217331e+00	1.36207345e+02	-6.56153257e+01	5.25865687e+01	-6.54753645e+01	4.83227780e+01	-3.37755742e+00	-1.55518065e+02
1980010000	-4.17703880e+00	1.36223502e+02	-6.58355063e+01	5.38140697e+01	-6.59092401e+01	4.66766745e+01	-3.37827158e+00	-1.55691918e+02
1980295571.43	-4.17644761e+00	1.36257798e+02	-6.58056276e+01	5.22890350e+01	-6.59809173e+01	4.91963713e+01	-3.38760903e+00	-1.55966746e+02
1980581142.86	-4.18606746e+00	1.36278369e+02	-6.59200992e+01	5.17356499e+01	-6.62331166e+01	4.73556828e+01	-3.39646290e+00	-1.56115109e+02
1980866714.29	-4.17721798e+00	1.36222040e+02	-6.58055443e+01	5.25207097e+01	-6.61048314e+01	4.78903624e+01	-3.39109434e+00	-1.56388513e+02
1981152285.71	-4.17237351e+00	1.36239699e+02	-6.56571877e+01	5.13869964e+01	-6.61069639e+01	4.57918679e+01	-3.39731157e+00	-1.56549497e+02
1981437857.14	-4.18140335e+00	1.36176731e+02	-6.55534092e+01	5.07312282e+01	-6.62608108e+01	4.91981803e+01	-3.39764789e+00	-1.56824304e+02
1981723428.57	-4.18430858e+00	1.36191205e+02	-6.60156031e+01	5.15731011e+01	-6.60998333e+01	4.98427151e+01	-3.40040748e+00	-1.56963956e+02
1982009000	-4.18616121e+00	1.36169944e+02	-6.54695740e+01	5.00753869e+01	-6.63949332e+01	4.62318570e+01	-3.39964387e+00	-1.57199217e+02
1982294571.43	-4.19018898e+00	1.36128653e+02	-6.56846562e+01	5.28308399e+01	-6.60806608e+01	4.70521471e+01	-3.40253078e+00	-1.57388164e+02
1982580142.86	-4.19404046e+00	1.36157633e+02	-6.57848408e+01	5.17139731e+01	-6.61980655e+01	4.84534605e+01	-3.41001432e+00	-1.57615828e+02
1982865714.29	-4.19444214e+00	1.36112972e+02	-6.65122322e+01	5.21179533e+01	-6.61275048e+01	4.73668846e+01	-3.40858465e+00	-1.57843428e+02
1983151285.71	-4.19561179e+00	1.36164410e+02	-6.61836391e+01	5.31845805e+01	-6.61490113e+01	4.61755243e+01	-3.41620247e+00	-1.58039720e+02
1983436857.14	-4.20104821e+00	1.36144968e+02	-6.56818642e+01	4.90709631e+01	-6.63646305e+01	4.85820459e+01	-3.41696828e+00	-1.58258176e+02
1983722428.57	-4.20777665e+00	1.36065145e+02	-6.64559915e+01	4.97200361e+01	-6.65183344e+01	4.84612390e+01	-3.41263069e+00	-1.58528375e+02
1984008000	-4.20259254e+00	1.36020729e+02	-6.58854237e+01	5.22525781e+01	-6.63444855e+01	4.97323660e+01	-3.42598386e+00	-1.58752841e+02
1984293571.43	-4.20144973e+00	1.36058642e+02	-6.61959420e+01	5.04019434e+01	-6.65913492e+01	4.70081975e+01	-3.42457170e+00	-1.58976959e+02
1984579142.86	-4.20064212e+00	1.36067502e+02	-6.59911543e+01	5.15867489e+01	-6.62289124e+01	4.67852954e+01	-3.43359976e+00	-1.59212147e+02
1984864714.29	-4.20806163e+00	1.36035878e+02	-6.58663184e+01	5.02923376e+01	-6.64216843e+01	4.71573574e+01	-3.43750983e+00	-1.59389631e+02
1985150285.71	-4.21677932e+00	1.36072936e+02	-6.67877927e+01	5.17254095e+01	-6.64016883e+01	4.73673512e+01	-3.44355745e+00	-1.59629254e+02
1985435857.14	-4.21314164e+00	1.36011938e+02	-6.63196460e+01	5.26782311e+01	-6.67690405e+01	4.71551073e+01	-3.44367087e+00	-1.59860075e+02
1985721428.57	-4.20159107e+00	1.36049508e+02	-6.59585614e+01	5.11981978e+01	-6.66107152e+01	4.78185182e+01	-3.43702191e+00	-1.60018110e+02
1986007000	-4.19706758e+00	1.36003962e+02	-6.60871648e+01	5.12109901e+01	-6.67773519e+01	4.63269373e+01	-3.44110844e+00	-1.60303443e+02
1986292571.43	-4.20361572e+00	1.36005973e+02	-6.62259292e+01	4.81218386e+01	-6.61934582e+01	4.80524239e+01	-3.45313455e+00	-1.60570365e+02
1986578142.86	-4.20529173e+00	1.35984926e+02	-6.63487430e+01	4.96369308e+01	-6.66429274e+01	4.87776532e+01	-3.46150903e+00	-1.60752905e+02
1986863714.29	-4.20782511e+00	1.35986757e+02	-6.60717494e+01	5.00308332e+01	-6.65228705e+01	4.77767165e+01	-3.46139680e+00	-1.60970928e+02
1987149285.71	-4.20424445e+00	1.35977731e+02	-6.63322980e+01	4.98355808e+01	-6.65736006e+01	4.73210977e+01	-3.47120753e+00	-1.61168196e+02
1987434857.14	-4.20163382e+00	1.35953895e+02	-6.67280859e+01	4.84918765e+01	-6.66876900e+01	4.53989932e+01	-3.47315872e+00	-1.61421417e+02
1987720428.57	-4.19871475e+00	1.35993538e+02	-6.63028827e+01	4.94177314e+01	-6.68750976e+01	4.93986713e+01	-3.48281200e+00	-1.61636878e+02
1988006000	-4.20701933e+00	1.36027408e+02	-6.65876563e+01	5.01305685e+01	-6.64709578e+01	4.82173821e+01	-3.48241525e+00	-1.61854571e+02
1988291571.43	-4.21186277e+00	1.35957377e+02	-6.64575555e+01	5.02077839e+01	-6.64857528e+01	4.89227348e+01	-3.49836636e+00	-1.62115978e+02
1988577142.86	-4.21659136e+00	1.35921495e+02	-6.68679788e+01	5.25621528e+01	-6.70554260e+01	4.79062142e+01	-3.50418980e+00	-1.62362229e+02
1988862714.29	-4.21262100e+00	1.35921637e+02	-6.62773723e+01	4.93196549e+01	-6.66324902e+01	4.67803141e+01	-3.50395204e+00	-1.62581083e+02
1989148285.71	-4.21016525e+00	1.35936531e+02	-6.66578746e+01	4.88337684e+01	-6.66000516e+01	4.69039208e+01	-3.50441029e+00	-1.62773353e+02
1989433857.14	-4.21458685e+00	1.35951534e+02	-6.67634765e+01	5.15209504e+01	-6.69497106e+01	4.71451971e+01	-3.51802316e+00	-1.63013458e+02
1989719428.57	-4.21633822e+00	1.35865822e+02	-6.65148884e+01	5.13360081e+01	-6.69272319e+01	4.66519619e+01	-3.52938333e+00	-1.63220486e+02
1990005000	-4.21599510e+00	1.35865033e+02	-6.69034918e+01	5.41138627e+01	-6.67348880e+01	4.79900513e+01	-3.52671924e+00	-1.63424951e+02
1990290571.43	-4.21882691e+00	1.35895844e+02	-6.68002853e+01	5.11219123e+01	-6.67375744e+01	4.79505334e+01	-3.52398552e+00	-1.63647616e+02
1990576142.86	-4.22075439e+00	1.35824545e+02	-6.66622591e+01	5.04397462e+01	-6.66520919e+01	4.59563177e+01	-3.54775691e+00	-1.63950785e+02
1990861714.29	-4.23814546e+00	1.35790802e+02	-6.70779852e+01	5.23444808e+01	-6.71004145e+01	5.10273956e+01	-3.54548260e+00	-1.64187132e+02
1991147285.71	-4.22970534e+00	1.35752498e+02	-6.63074453e+01	5.08903332e+01	-6.65679269e+01	4.45963512e+01	-3.54301449e+00	-1.64444285e+02
1991432857.14	-4.22005631e+00	1.35733673e+02	-6.63685091e+01	4.90710446e+01	-6.67410650e+01	4.76543860e+01	-3.54723552e+00	-1.64692663e+02
1991718428.57	-4.22114018e+00	1.35729277e+02	-6.64854154e+01	5.20550744e+01	-6.66920436e+01	4.72318158e+01	-3.54964185e+00	-1.64930932e+02
1992004000	-4.21571858e+00	1.35754762e+02	-6.64602235e+01	4.99328245e+01	-6.69691282e+01	4.66666214e+01	-3.55722534e+00	-1.65222983e+02
1992289571.43	-4.22465367e+00	1.35747853e+02	-6.66863290e+01	5.07076801e+01	-6.65571514e+01	4.64276685e+01	-3.56344646e+00	-1.65363092e+02
1992575142.86	-4.22923276e+00	1.35761721e+02	-6.66802605e+01	4.93863479e+01	-6.71108038e+01	4.82538517e+01	-3.57564456e+00	-1.65611350e+02
1992860714.29	-4.23719081e+00	1.35731813e+02	-6.62666604e+01	5.12118723e+01	-6.67562325e+01	4.89310072e+01	-3.57623705e+00	-1.65852147e+02
1993146285.71	-4.23778176e+00	1.35761235e+02	-6.66378350e+01	5.21381710e+01	-6.70447468e+01	4.55345002e+01	-3.58390759e+00	-1.66067086e+02
1993431857.14	-4.23686359e+00	1.35704217e+02	-6.63324114e+01	4.99458983e+01	-6.68532831e+01	4.85640794e+01	-3.59464294e+00	-1.66355907e+02
1993717428.57	-4.22942851e+00	1.35703311e+02	-6.65781512e+01	5.25158222e+01	-6.68161271e+01	4.69432505e+01	-3.60220537e+00	-1.66587733e+02
1994003000	-4.23164889e+00	1.35704149e+02	-6.62755314e+01	5.25553950e+01	-6.68547571e+01	4.54784793e+01	-3.60686699e+00	-1.66694608e+02
1994288571.43	-4.23529164e+00	1.35664518e+02	-6.68111547e+01	5.01657535e+01	-6.65205561e+01	4.86318516e+01	-3.60847994e+00	-1.66960434e+02
1994574142.86	-4.23552947e+00	1.35643037e+02	-6.67795436e+01	4.86917941e+01	-6.68740175e+01	4.55347998e+01	-3.61059721e+00	-1.67186855e+02
1994859714.29	-4.24613522e+00	1.35637352e+02	-6.66131205e+01	5.04195822e+01	-6.70174882e+01	4.61589193e+01	-3.61198120e+00	-1.67410936e+02
1995145285.71	-4.24355208e+00	1.35652482e+02	-6.61881055e+01	5.36544297e+01	-6.69886915e+01	4.71163394e+01	-3.60650815e+00	-1.67567734e+02
1995430857.14	-4.23797104e+00	1.35635819e+02	-6.60977850e+01	4.75196121e+01	-6.65974570e+01	4.44910433e+01	-3.62126166e+00	-1.67768237e+02
1995716428.57	-4.23860446e+00	1.35625465e+02	-6.59065967e+01	4.91334359e+01	-6.66916589e+01	4.70170916e+01	-3.61767672e+00	-1.67857353e+02
1996002000	-4.23822635e+00	1.35586437e+02	-6.67770399e+01	5.11246072e+01	-6.68184010e+01	4.69604701e+01	-3.62364708e+00	-1.68166258e+02
1996287571.43	-4.23314114e+00	1.35552911e+02	-6.60996378e+01	4.82700116e+01	-6.63680544e+01	4.61843436e+01	-3.62907706e+00	-1.68307864e+02
1996573142.86	-4.23476014e+00	1.35515395e+02	-6.64299178e+01	4.90933190e+01	-6.69721829e+01	4.66844633e+01	-3.63570032e+00	-1.68564930e+02
1996858714.29	-4.24811982e+00	1.35510576e+02	-6.61789707e+01	4.91122037e+01	-6.67272358e+01	4.60789874e+01	-3.63918252e+00	-1.68765414e+02
1997144285.71	-4.24519953e+00	1.35451014e+02	-6.62348533e+01	4.81029095e+01	-6.65306959e+01	4.70295761e+01	-3.64930803e+00	-1.68915521e+02
1997429857.14	-4.25856327e+00	1.35391305e+02	-6.58843139e+01	4.94284843e+01	-6.62806663e+01	4.66377242e+01	-3.66026621e+00	-1.69108101e+02
1997715428.57	-4.24337031e+00	1.35363509e+02	-6.64328112e+01	4.74917183e+01	-6.65079490e+01	4.55158535e+01	-3.67297165e+00	-1.69362695e+02
1998001000	-4.24210337e+00	1.35398459e+02	-6.64883463e+01	4.65310968e+01	-6.68250059e+01	4.58896608e+01	-3.67867189e+00	-1.69595693e+02
1998286571.43	-4.23417856e+00	1.35333614e+02	-6.58981446e+01	4.87510778e+01	-6.69056931e+01	4.66429479e+01	-3.68814330e+00	-1.69872207e+02
1998572142.86	-4.24542044e+00	1.35474555e+02	-6.60005797e+01	4.93422375e+01	-6.68367697e+01	4.52511693e+01	-3.70331714e+00	-1.70047372e+02
1998857714.29	-4.23995375e+00	1.35464252e+02	-6.61411714e+01	4.86780006e+01	-6.67636852e+01	4.30301751e+01	-3.71919141e+00	-1.70297976e+02
1999143285.71	-4.24096369e+00	1.35420787e+02	-6.58880053e+01	4.83713440e+01	-6.64774033e+01	4.64135575e+01	-3.72286503e+00	-1.70470322e+02
1999428857.14	-4.24341323e+00	1.35450567e+02	-6.58703702e+01	4.96808998e+01	-6.64929329e+01	4.63063443e+01	-3.73440864e+00	-1.70747314e+02
1999714428.57	-4.24660842e+00	1.35417195e+02	-6.63547857e+01	4.47941759e+01	-6.65321591e+01	4.49132452e+01	-3.73480811e+00	-1.71004611e+02
2000000000	-4.24840450e+00	1.35357157e+02	-6.63719249e+01	4.82221346e+01	-6.65712273e+01	4.33612225e+01	-3.74500742e+00	-1.71259099e+02
