!Siglent Technologies,SNA5004A,SNA5XCED5R0097,V1.0.0.2.15
!Date: 2026-04-30 16:16:13
!Data & Calibration Information:
!Freq	S11:F2(ON)	S21:F2(ON)	S12:F2(ON)	S22:F2(ON)
# Hz S DB R 50
1000000	5.33505853e-02	1.38917775e-01	-1.07806607e+02	-1.09103902e+02	-1.03296358e+02	1.78084551e+02	-4.38150689e-03	1.79583651e+02
1285571.42857	6.10317944e-02	1.34677649e-01	-1.02943583e+02	1.61283202e+02	-1.01374537e+02	-1.35035049e+02	-8.86106060e-03	1.79399746e+02
1571142.85714	6.78249657e-02	1.44959847e-01	-9.66306120e+01	1.05598605e+02	-1.02048407e+02	1.13400079e+02	-8.29714522e-03	1.79286278e+02
1856714.28571	6.39016436e-02	1.60137296e-01	-1.06905107e+02	1.50905275e+02	-9.45644414e+01	2.09048471e+01	-9.74303037e-03	1.79128160e+02
2142285.71429	8.59107799e-02	1.92250642e-01	-9.55228081e+01	-6.05784608e+01	-1.07259236e+02	-1.42975907e+02	-6.61260786e-03	1.79019121e+02
2427857.14286	5.17604450e-02	5.56431859e-02	-1.09462210e+02	1.46874242e+02	-1.03865918e+02	1.00388117e+01	-9.72451782e-03	1.78856495e+02
2713428.57143	7.37493089e-02	-1.81179421e-02	-1.02781608e+02	1.07387661e+02	-9.90108405e+01	7.95090195e+01	-8.58662835e-03	1.78719683e+02
2999000	4.62555681e-02	8.23678437e-03	-1.04062015e+02	1.36182537e+02	-1.01783962e+02	1.48561920e+02	-1.17172651e-02	1.78607550e+02
3284571.42857	7.47851251e-02	-1.79761087e-02	-9.77554111e+01	8.40352689e+01	-1.04858858e+02	-1.55874876e+02	-1.16808928e-02	1.78482179e+02
3570142.85714	6.83477274e-02	1.09506897e-02	-1.01011020e+02	-4.25609217e+01	-9.41404131e+01	-6.45976410e+01	-9.80795614e-03	1.78350427e+02
3855714.28571	5.13607203e-02	-5.65338010e-02	-1.05383267e+02	-1.41624282e+02	-9.82166705e+01	1.31422347e+02	-1.26560631e-02	1.78247577e+02
4141285.71429	6.11877014e-02	-4.20127644e-02	-1.05328089e+02	-4.75349678e+01	-9.59289157e+01	-1.56841978e+02	-1.58118048e-02	1.78093319e+02
4426857.14286	5.31954585e-02	-2.89566162e-02	-1.05476920e+02	1.28304787e+02	-1.02336300e+02	-9.87477479e+01	-1.73362709e-02	1.78003244e+02
4712428.57143	5.72005485e-02	-8.41054451e-02	-1.01909820e+02	6.95185972e+01	-9.73981331e+01	1.71031222e+02	-2.06014099e-02	1.77878681e+02
4998000	2.65196459e-02	-1.55772738e-01	-1.02224295e+02	3.95003467e+01	-1.18276855e+02	-1.05183643e+02	-2.23187439e-02	1.77718595e+02
5283571.42857	4.49749931e-02	-1.60042395e-01	-9.43043525e+01	6.62016478e+01	-1.04549790e+02	-1.72068241e+02	-1.80400513e-02	1.77612644e+02
5569142.85714	4.44198428e-02	-1.92648876e-01	-1.05211050e+02	-3.58326006e+01	-1.00353656e+02	1.03573212e+02	-2.15674177e-02	1.77492121e+02
5854714.28571	4.06316714e-02	-1.65855317e-01	-9.85007405e+01	-1.62297036e+02	-9.93555264e+01	6.04966602e+01	-2.06215110e-02	1.77395321e+02
6140285.71429	4.43556831e-02	-1.68046149e-01	-9.68119108e+01	-1.15839873e+02	-1.01893899e+02	1.76943503e+02	-2.74476831e-02	1.77296225e+02
6425857.14286	5.10633976e-02	-2.47397540e-01	-1.05098960e+02	-6.09003025e+01	-1.05827424e+02	7.20451764e+01	-2.70657693e-02	1.77160301e+02
6711428.57143	4.47525971e-02	-2.11378972e-01	-1.00808918e+02	1.19934557e+02	-9.74739454e+01	9.92040975e+01	-2.95884586e-02	1.77021495e+02
6997000	3.33792752e-02	-2.24710727e-01	-9.80987027e+01	1.28502349e+02	-1.12659170e+02	1.13428062e+02	-3.69076863e-02	1.76891989e+02
7282571.42857	3.39955678e-02	-2.51889958e-01	-1.01799177e+02	-3.15319634e+01	-1.02113234e+02	-9.55070022e+01	-3.80516699e-02	1.76785030e+02
7568142.85714	3.07452073e-02	-2.91952972e-01	-1.04702166e+02	-7.80831802e+01	-9.81760878e+01	-1.13667678e+02	-3.93748989e-02	1.76658940e+02
7853714.28571	4.76457797e-02	-2.95835573e-01	-9.06991224e+01	-8.27920533e+01	-1.00499622e+02	-1.07113629e+02	-4.22908082e-02	1.76534387e+02
8139285.71429	3.68444522e-02	-2.76460463e-01	-1.00332823e+02	-6.77232276e+01	-9.78956971e+01	-1.57849531e+02	-4.47672303e-02	1.76422483e+02
8424857.14286	3.54054317e-02	-3.11863935e-01	-1.00773103e+02	-2.43302921e+01	-1.11127125e+02	1.78717344e+02	-4.64535453e-02	1.76321716e+02
8710428.57143	4.07264073e-02	-4.04061896e-01	-9.56999398e+01	-8.03807687e+01	-1.18194436e+02	6.78816345e+01	-5.08251191e-02	1.76170653e+02
8996000	3.55043479e-02	-3.79092474e-01	-1.03595474e+02	-4.79711694e+01	-1.01667287e+02	-6.37987556e+01	-4.93007433e-02	1.76045905e+02
9281571.42857	3.89685695e-02	-3.72674399e-01	-1.06923653e+02	-4.52694845e+01	-9.80702913e+01	-5.77571874e+01	-5.83921780e-02	1.75956524e+02
9567142.85714	4.33430206e-02	-3.34862240e-01	-1.05743871e+02	5.29405364e+01	-1.04918669e+02	1.09301302e+02	-5.12807147e-02	1.75817125e+02
9852714.28571	4.64856244e-02	-4.33752019e-01	-9.34551187e+01	1.12539857e+02	-1.12991281e+02	1.23337378e+02	-5.43574211e-02	1.75653935e+02
10138285.7143	4.40267700e-02	-4.26409591e-01	-1.02009381e+02	-2.93951120e+00	-9.68254094e+01	1.81531375e+01	-5.78436984e-02	1.75484119e+02
10423857.1429	3.44992990e-02	-4.55758547e-01	-1.03054478e+02	7.94068058e+01	-1.03991326e+02	-6.53731994e+01	-6.16075404e-02	1.75378408e+02
10709428.5714	3.39947099e-02	-4.44658020e-01	-9.93518661e+01	8.36258109e+01	-9.27434342e+01	1.41576983e+02	-5.71044241e-02	1.75291734e+02
10995000	4.18687604e-02	-4.76545680e-01	-9.93477778e+01	-4.75389274e+00	-1.08882780e+02	-9.79714168e+01	-6.05713448e-02	1.75131154e+02
11280571.4286	3.90642752e-02	-4.66207993e-01	-1.04147811e+02	-4.02223194e+01	-1.03287496e+02	8.09564210e+01	-6.84403012e-02	1.75023225e+02
11566142.8571	4.74960860e-02	-4.83226131e-01	-1.01136557e+02	9.75758785e+00	-9.60607490e+01	4.96082218e+01	-6.71585172e-02	1.74899658e+02
11851714.2857	3.66470353e-02	-5.32675689e-01	-1.02260080e+02	-2.04091834e+01	-1.05262111e+02	-1.63218827e+01	-6.13185346e-02	1.74809614e+02
12137285.7143	3.27507418e-02	-5.35187408e-01	-9.74556484e+01	-4.81003561e+01	-1.04745142e+02	-4.00867164e+00	-6.63518783e-02	1.74605873e+02
12422857.1429	3.27668761e-02	-5.58439088e-01	-9.52700170e+01	-2.84037895e+01	-9.95630641e+01	-1.31950778e+02	-7.94802177e-02	1.74519861e+02
12708428.5714	2.85229620e-02	-5.55330321e-01	-9.60780146e+01	6.59704801e+01	-1.14623143e+02	-1.07821155e+02	-9.35309429e-02	1.74426840e+02
12994000	3.99812460e-02	-5.94717803e-01	-1.00595050e+02	-8.26867341e+01	-1.06309355e+02	-9.60032791e+01	-1.03440793e-01	1.74288332e+02
13279571.4286	3.48343720e-02	-6.10696039e-01	-9.92064294e+01	1.57443492e+02	-1.00246605e+02	-2.93130906e+01	-1.13008234e-01	1.74169883e+02
13565142.8571	2.97312677e-02	-6.36952215e-01	-1.12019975e+02	8.95276868e+01	-1.08944163e+02	1.33489875e+02	-1.04397981e-01	1.73991775e+02
13850714.2857	3.46480208e-02	-5.41598324e-01	-9.88250022e+01	-2.69206559e+01	-1.03594764e+02	-1.41838777e+02	-1.05385287e-01	1.73853166e+02
14136285.7143	2.75866822e-02	-6.11945094e-01	-1.06785520e+02	7.34944755e+01	-1.05872423e+02	-1.53095461e+02	-9.88526231e-02	1.73721504e+02
14421857.1429	3.20228496e-02	-6.84315648e-01	-1.04999481e+02	9.30642714e+01	-9.96231673e+01	1.21926179e+02	-8.91784230e-02	1.73552932e+02
14707428.5714	2.89494897e-02	-7.13367492e-01	-9.34194845e+01	-4.45808909e+01	-1.08167028e+02	-3.95086526e+00	-9.10710038e-02	1.73395610e+02
14993000	2.80154036e-02	-7.12546237e-01	-1.09601715e+02	1.04231611e+02	-1.10564364e+02	-5.80980192e+01	-7.53522021e-02	1.73285344e+02
15278571.4286	2.51637007e-02	-6.82209355e-01	-9.72916890e+01	-1.65627402e+02	-1.08622886e+02	-2.55516017e+01	-8.79913508e-02	1.73188216e+02
15564142.8571	3.05218101e-02	-6.90914862e-01	-1.02448292e+02	1.76589915e+02	-9.49802051e+01	1.00404308e+02	-9.12395448e-02	1.73018929e+02
15849714.2857	2.72391116e-02	-7.11148057e-01	-9.45016352e+01	-1.66695677e+02	-9.53040053e+01	-1.26875267e+02	-9.43075308e-02	1.72940297e+02
16135285.7143	3.32038855e-02	-7.31872631e-01	-9.44187189e+01	2.84565496e+01	-9.98676740e+01	-8.13267132e+01	-9.11728554e-02	1.72762069e+02
16420857.1429	2.45004633e-02	-7.38448884e-01	-9.59644464e+01	1.06330062e+02	-1.02568059e+02	-1.48169121e+02	-9.83288607e-02	1.72669932e+02
16706428.5714	2.43825324e-02	-7.52861822e-01	-1.00833709e+02	-6.92493825e+01	-1.07043080e+02	5.15495515e+01	-1.11187611e-01	1.72520052e+02
16992000	2.31413529e-02	-7.80493212e-01	-9.47607401e+01	-1.72962433e+02	-1.06154295e+02	1.38315797e+02	-1.16708999e-01	1.72341728e+02
17277571.4286	2.39244552e-02	-8.08973306e-01	-9.63849749e+01	-1.32841715e+02	-1.09265828e+02	1.91030316e+01	-1.14061756e-01	1.72291805e+02
17563142.8571	2.60953192e-02	-8.04094864e-01	-9.92135624e+01	-5.03372962e+01	-1.03115490e+02	1.43184709e+02	-1.14852954e-01	1.72134244e+02
17848714.2857	2.46878145e-02	-8.33828408e-01	-9.94267704e+01	7.25882458e+01	-9.80424659e+01	4.21346537e+01	-1.15837645e-01	1.71949093e+02
18134285.7143	1.73844344e-02	-8.23758270e-01	-9.84545309e+01	4.53211629e+01	-9.97079904e+01	-1.74554032e+01	-1.16664357e-01	1.71770117e+02
18419857.1429	1.49342018e-02	-7.90555803e-01	-9.69145347e+01	-7.83397230e+01	-1.05301215e+02	6.66702019e+01	-1.14899694e-01	1.71702824e+02
18705428.5714	1.59298842e-02	-8.33447327e-01	-9.15267284e+01	2.16675528e+01	-1.04699333e+02	-1.11172382e+02	-1.20379482e-01	1.71547861e+02
18991000	1.46786697e-02	-8.44240709e-01	-1.00713661e+02	7.13925470e+01	-9.75874321e+01	-1.03460822e+02	-1.11746185e-01	1.71414806e+02
19276571.4286	1.33691850e-02	-8.89029632e-01	-1.01057081e+02	-1.27448230e+02	-1.00349994e+02	3.98622594e+01	-1.21318692e-01	1.71227025e+02
19562142.8571	8.34991150e-03	-8.77930029e-01	-1.00576186e+02	-1.73423027e+02	-1.04320423e+02	5.62480312e+01	-1.21611413e-01	1.71159590e+02
19847714.2857	7.49798538e-03	-9.12227772e-01	-9.39913714e+01	-1.78572691e+02	-1.04555720e+02	-1.18090347e+02	-1.10391717e-01	1.71040024e+02
20133285.7143	1.74523585e-02	-8.64993217e-01	-9.72535708e+01	-1.52779455e+02	-1.02631587e+02	1.27454041e+02	-1.09644956e-01	1.70775696e+02
20418857.1429	1.11668193e-02	-9.34168741e-01	-1.02954678e+02	-1.09191069e+02	-1.07811936e+02	1.88673673e+01	-1.07042829e-01	1.70722346e+02
20704428.5714	6.60627416e-03	-9.56504192e-01	-1.00084740e+02	1.47293481e+02	-1.01122481e+02	-2.42635236e+01	-1.29403476e-01	1.70610740e+02
20990000	1.57596027e-02	-8.99968777e-01	-1.11056404e+02	-1.58696959e+02	-1.04526212e+02	1.41549849e+02	-1.01880778e-01	1.70372417e+02
21275571.4286	1.74613192e-03	-1.03511165e+00	-1.08468895e+02	1.59293686e+02	-1.21013682e+02	-8.93833888e+01	-1.58832514e-01	1.70291769e+02
21561142.8571	2.29800936e-02	-1.02581220e+00	-9.85279581e+01	-6.23447466e+01	-1.02783479e+02	-1.65169393e+02	-7.86339570e-02	1.69957163e+02
21846714.2857	8.83930660e-03	-9.48501863e-01	-9.28699545e+01	7.92161776e+01	-1.00711393e+02	-1.07285754e+02	-1.12094448e-01	1.70099230e+02
22132285.7143	2.86554648e-03	-1.13803026e+00	-1.11927596e+02	6.68805837e+01	-9.73893886e+01	5.12770558e+01	-1.32253246e-01	1.69737147e+02
22417857.1429	-3.65895802e-03	-1.00288662e+00	-9.76792355e+01	1.17094512e+02	-1.10935887e+02	-1.72931916e+02	-1.62606990e-01	1.70365281e+02
22703428.5714	-2.70794285e-02	-1.32510800e+00	-1.01348609e+02	7.33516395e+01	-9.65964404e+01	1.21618493e+01	-2.69462973e-01	1.69515253e+02
22989000	-3.70731848e-02	-1.35377299e+00	-1.05815962e+02	-1.56097702e+02	-9.67587030e+01	-1.59029616e+02	-3.19961133e-01	1.70588971e+02
23274571.4286	-2.02871764e-02	-1.17218008e+00	-9.43464780e+01	-1.31300671e+02	-1.05821506e+02	8.59340614e+01	-3.51919419e-01	1.69374759e+02
23560142.8571	-3.23163446e-02	-1.43761168e+00	-9.97066472e+01	1.14322894e+02	-1.07443945e+02	-8.37446681e+01	-5.42090577e-01	1.69728007e+02
23845714.2857	9.00495421e-04	-1.15655507e+00	-9.69884233e+01	1.78691205e+02	-1.00997627e+02	1.11877347e+02	-2.43790444e-01	1.69267656e+02
24131285.7143	-2.08275767e-02	-1.43074128e+00	-1.03161605e+02	-1.33250821e+02	-9.81450579e+01	-1.55777831e+02	-4.34337577e-01	1.69044233e+02
24416857.1429	4.13263878e-03	-1.15535431e+00	-1.12233901e+02	-1.48905527e+02	-9.75373127e+01	-1.30413699e+02	-1.35703056e-01	1.68819061e+02
24702428.5714	4.62373407e-03	-1.16153154e+00	-9.99449497e+01	3.55979267e+00	-1.03332756e+02	1.15120383e+02	-2.00345590e-01	1.68576190e+02
24988000	2.06188511e-03	-1.17672016e+00	-1.04957976e+02	1.57213842e+02	-9.85637991e+01	-1.62119029e+02	-1.88927540e-01	1.68659808e+02
25273571.4286	8.71120082e-03	-1.07096499e+00	-1.11425130e+02	7.23511095e+01	-9.91647202e+01	8.26844296e+01	-9.61648930e-02	1.68372056e+02
25559142.8571	3.65164699e-03	-1.14869465e+00	-9.46351236e+01	1.40500065e+02	-1.03266982e+02	-1.53214124e+02	-1.83621198e-01	1.68324379e+02
25844714.2857	5.77713487e-03	-1.11829992e+00	-1.10449241e+02	-2.32947321e+01	-1.22457184e+02	1.70844515e+02	-1.07812713e-01	1.68209055e+02
26130285.7143	6.05603538e-03	-1.10740013e+00	-9.30137616e+01	-4.87019161e+01	-1.03554714e+02	-1.91831467e+01	-1.45631441e-01	1.68035201e+02
26415857.1429	1.74748917e-03	-1.14656210e+00	-1.03345830e+02	9.10326472e+01	-1.00507462e+02	3.48054533e+01	-1.33427268e-01	1.68017881e+02
26701428.5714	1.02668500e-03	-1.15267145e+00	-9.68283810e+01	-1.10582339e+01	-1.07046722e+02	-9.16099815e+01	-9.58481089e-02	1.67777390e+02
26987000	-2.30638746e-04	-1.20627524e+00	-9.34805605e+01	1.38384858e+02	-1.13522385e+02	-1.22468290e+02	-1.57931183e-01	1.67708472e+02
27272571.4286	-1.44337404e-04	-1.18880967e+00	-9.61982787e+01	-6.12107992e+00	-9.96485796e+01	1.02780515e+02	-1.23709797e-01	1.67579243e+02
27558142.8571	-1.09091087e-03	-1.22224079e+00	-9.56308189e+01	-4.62007207e+00	-9.96844279e+01	1.31468504e+02	-1.73507476e-01	1.67498838e+02
27843714.2857	-1.49834305e-04	-1.21340267e+00	-9.77276618e+01	3.77838673e+00	-1.03433216e+02	-3.33015466e+01	-1.14962318e-01	1.67290656e+02
28129285.7143	-1.60873997e-03	-1.23728849e+00	-9.90720587e+01	-3.99798158e+01	-9.71208963e+01	1.66322248e+01	-1.54950847e-01	1.67184249e+02
28414857.1429	-8.24871297e-04	-1.24709172e+00	-1.09756226e+02	-1.14675846e+02	-1.06172141e+02	-3.80682098e+00	-1.30830711e-01	1.67117050e+02
28700428.5714	-1.21281876e-03	-1.25877518e+00	-1.05001488e+02	4.85444561e+01	-1.03317572e+02	-1.56918734e+01	-1.56119859e-01	1.66841374e+02
28986000	-2.33319535e-03	-1.25556562e+00	-9.97852368e+01	-1.48523295e+02	-1.02775657e+02	1.78843062e+02	-1.19092235e-01	1.66708854e+02
29271571.4286	-3.43070093e-03	-1.27757613e+00	-9.59025828e+01	1.36855822e+02	-1.12139173e+02	7.30567561e+01	-1.39099771e-01	1.66531002e+02
29557142.8571	-4.36390177e-03	-1.26120161e+00	-9.74037265e+01	7.71244155e+01	-1.12035607e+02	1.39630945e+02	-1.31463156e-01	1.66474286e+02
29842714.2857	-1.40680013e-03	-1.28670553e+00	-1.05401840e+02	-1.77887040e+02	-1.03405108e+02	-4.61326019e+01	-1.45095799e-01	1.66341482e+02
30128285.7143	-3.07736749e-03	-1.30310327e+00	-1.02055323e+02	5.89417272e+01	-1.15259259e+02	-1.27730203e+02	-1.50648724e-01	1.66165581e+02
30413857.1429	-2.28520492e-03	-1.29688526e+00	-1.04678178e+02	-3.43381455e+01	-1.08847236e+02	-1.32011135e+02	-1.32912566e-01	1.65981049e+02
30699428.5714	-4.29135491e-04	-1.29356861e+00	-1.11439134e+02	-6.28849892e+01	-1.02431266e+02	1.34922530e+02	-1.42160455e-01	1.65894476e+02
30985000	-1.52693557e-04	-1.29840809e+00	-1.04763311e+02	1.53704406e+02	-1.06431520e+02	1.27143599e+02	-1.42157902e-01	1.65748632e+02
31270571.4286	-8.44848714e-04	-1.30169200e+00	-9.92012772e+01	4.27694196e+01	-1.01561145e+02	1.14813610e+02	-1.41702488e-01	1.65627024e+02
31556142.8571	1.10781706e-03	-1.32435941e+00	-9.43916735e+01	9.99177076e+01	-1.02474700e+02	6.75292927e+01	-1.34987859e-01	1.65451557e+02
31841714.2857	8.96945975e-05	-1.35501710e+00	-1.02288992e+02	-7.54618144e+01	-1.00530000e+02	-3.74062301e+01	-1.19673244e-01	1.65300918e+02
32127285.7143	-2.04608738e-04	-1.35996061e+00	-1.02936511e+02	-1.27855422e+02	-9.64377751e+01	1.31930279e+02	-1.18901315e-01	1.65115499e+02
32412857.1429	-1.70235057e-04	-1.35515912e+00	-9.72635977e+01	1.42167510e+02	-1.04216419e+02	-4.70314199e+01	-1.32501915e-01	1.65030279e+02
32698428.5714	4.08043167e-04	-1.36908528e+00	-1.03869562e+02	1.37099379e+02	-1.02008519e+02	5.49105820e+01	-1.47423971e-01	1.64904003e+02
32984000	1.18525004e-03	-1.36721485e+00	-1.00471140e+02	-1.35048091e+02	-1.04960540e+02	-6.68623092e+01	-1.52067699e-01	1.64846503e+02
33269571.4286	-3.05662370e-07	-1.38235908e+00	-1.05525116e+02	-1.56012849e+02	-1.11305278e+02	-2.16979475e+01	-1.49903794e-01	1.64647148e+02
33555142.8571	2.19878272e-03	-1.40399716e+00	-9.92249850e+01	-5.79550234e+00	-1.00484979e+02	1.61593214e+02	-1.48600599e-01	1.64443245e+02
33840714.2857	5.34258857e-03	-1.43173535e+00	-9.93951022e+01	3.04762944e+01	-1.01835774e+02	-2.01194458e-01	-1.41301716e-01	1.64405025e+02
34126285.7143	2.79702542e-03	-1.41814270e+00	-1.03238639e+02	-4.14771446e+01	-9.63103548e+01	9.18855454e+01	-1.51826542e-01	1.64322764e+02
34411857.1429	6.99771106e-03	-1.43414916e+00	-9.68304959e+01	-4.26009936e+01	-9.94040634e+01	-1.15763551e+01	-1.37583456e-01	1.64014110e+02
34697428.5714	5.12343770e-03	-1.45278275e+00	-9.30945893e+01	1.04015204e+02	-1.12997346e+02	-7.53447795e+00	-1.36943159e-01	1.63852925e+02
34983000	1.38622087e-02	-1.44927053e+00	-9.92856851e+01	3.89985262e+01	-1.03559059e+02	-6.39200222e+01	-1.45626569e-01	1.63808813e+02
35268571.4286	1.08711281e-02	-1.45787987e+00	-9.51282213e+01	1.21717957e+02	-9.52608173e+01	1.24941066e+01	-1.31475363e-01	1.63655841e+02
35554142.8571	1.31967308e-02	-1.46709154e+00	-9.83228450e+01	-1.03252467e+02	-1.00000583e+02	-1.50526480e+02	-1.29368979e-01	1.63584322e+02
35839714.2857	1.31934733e-02	-1.48983525e+00	-9.47215248e+01	-1.71301647e+02	-1.13461430e+02	1.22362517e+02	-1.25850012e-01	1.63461225e+02
36125285.7143	1.52730944e-02	-1.49456710e+00	-1.06324993e+02	1.17205450e+02	-1.06132289e+02	3.32976889e+01	-1.14537083e-01	1.63376114e+02
36410857.1429	1.72142298e-02	-1.49915581e+00	-9.82031026e+01	4.32473938e+01	-9.81233250e+01	7.46951266e+00	-1.23501242e-01	1.63140511e+02
36696428.5714	1.87973482e-02	-1.50168334e+00	-9.93126205e+01	1.52677390e+02	-1.07852948e+02	1.02366751e+02	-1.28128506e-01	1.63005088e+02
36982000	1.79132796e-02	-1.50845107e+00	-9.53854488e+01	1.67632160e+02	-9.57370137e+01	-1.07902066e+02	-1.35677163e-01	1.62826474e+02
37267571.4286	1.98450698e-02	-1.49743623e+00	-9.36617816e+01	1.56935057e+02	-1.00168339e+02	-3.65875783e+01	-1.27639139e-01	1.62729048e+02
37553142.8571	1.53300426e-02	-1.49174622e+00	-9.94245738e+01	1.29849921e+02	-9.75102379e+01	1.12629420e+02	-1.29343792e-01	1.62606719e+02
37838714.2857	1.84879448e-02	-1.50290059e+00	-1.06473962e+02	-6.19489062e+01	-1.02690776e+02	7.71981139e+01	-1.28932670e-01	1.62479663e+02
38124285.7143	1.28145721e-02	-1.45658826e+00	-1.07995922e+02	-1.12623539e+02	-9.45046945e+01	6.69613518e+01	-1.14144994e-01	1.62376247e+02
38409857.1429	1.79252883e-02	-1.47828662e+00	-9.23694776e+01	1.81329893e+01	-1.10887427e+02	-4.53858476e+00	-1.15456094e-01	1.62193197e+02
38695428.5714	1.43549837e-02	-1.52856346e+00	-9.44596070e+01	1.49110233e+01	-1.05100288e+02	1.00988847e+02	-1.11587140e-01	1.62029758e+02
38981000	2.38774383e-02	-1.51716147e+00	-1.01441411e+02	3.78813580e+00	-1.04109995e+02	1.29166672e+02	-1.20847531e-01	1.61949425e+02
39266571.4286	2.15491406e-02	-1.49645041e+00	-9.75494722e+01	-6.61100718e+01	-1.00260577e+02	-1.19526930e+02	-1.17083903e-01	1.61829977e+02
39552142.8571	1.73654843e-02	-1.49822536e+00	-9.57772579e+01	6.58951960e+00	-9.66145504e+01	3.16913780e+01	-1.23230887e-01	1.61709758e+02
39837714.2857	1.23999983e-02	-1.47544945e+00	-9.04726102e+01	-1.37944733e+02	-9.33132144e+01	-1.77243726e+01	-1.06460673e-01	1.61559324e+02
40123285.7143	9.40478627e-03	-1.45267211e+00	-9.06792605e+01	-9.24269297e+01	-1.02462151e+02	-4.91498806e+01	-1.06202364e-01	1.61467787e+02
40408857.1429	1.41400599e-02	-1.45615489e+00	-9.23113536e+01	-4.97698323e+01	-9.46668531e+01	-8.02438160e+01	-1.04652926e-01	1.61376658e+02
40694428.5714	1.87019073e-02	-1.45097751e+00	-1.03463191e+02	-1.25669863e+02	-1.00393272e+02	-6.43700568e+01	-1.09987477e-01	1.61215080e+02
40980000	1.48770876e-02	-1.43567237e+00	-9.90148952e+01	-1.39474615e+02	-9.59149163e+01	2.60488129e+01	-1.03468439e-01	1.61054839e+02
41265571.4286	2.46052327e-02	-1.43244602e+00	-9.29661419e+01	-1.62426786e+02	-1.03248816e+02	-1.11510511e+02	-1.03873927e-01	1.60948230e+02
41551142.8571	1.56811226e-02	-1.43462434e+00	-9.29788147e+01	-1.68825763e+02	-9.96560776e+01	1.78538583e+02	-1.08156286e-01	1.60748031e+02
41836714.2857	1.78652879e-02	-1.47930706e+00	-1.04869760e+02	-7.69089943e+01	-1.00944903e+02	1.78711999e+01	-1.18874053e-01	1.60621413e+02
42122285.7143	2.51252994e-02	-1.45103155e+00	-9.99495083e+01	-1.46018886e+02	-1.11292968e+02	3.29008203e+01	-1.26791125e-01	1.60490516e+02
42407857.1429	3.17295988e-02	-1.40217546e+00	-9.67134426e+01	1.25798903e+02	-9.67061087e+01	1.35179841e+02	-1.24666031e-01	1.60349016e+02
42693428.5714	2.17183689e-02	-1.40174638e+00	-9.98367593e+01	-3.46116098e+01	-9.90393192e+01	1.02830055e+02	-1.32636797e-01	1.60199958e+02
42979000	1.84019488e-02	-1.46580472e+00	-9.96538192e+01	-4.16623389e+01	-1.02343532e+02	-1.28903048e+02	-1.34462648e-01	1.60088408e+02
43264571.4286	2.53013046e-02	-1.46368200e+00	-9.83921111e+01	1.11742268e+02	-9.60685640e+01	8.03632715e+01	-1.26816624e-01	1.59922479e+02
43550142.8571	2.89446990e-02	-1.47307830e+00	-1.02690647e+02	-7.33553537e+01	-9.45786608e+01	-1.57967878e+02	-1.22414821e-01	1.59812786e+02
43835714.2857	4.09485994e-02	-1.45653136e+00	-9.58072966e+01	-1.72842412e+02	-1.06176447e+02	-2.79428280e+00	-1.24807280e-01	1.59680960e+02
44121285.7143	3.73720540e-02	-1.48220660e+00	-1.13373790e+02	-1.23973049e+02	-9.99034931e+01	-2.76142574e+01	-1.20018168e-01	1.59582907e+02
44406857.1429	4.30515985e-02	-1.50166732e+00	-1.06314581e+02	1.25491800e+02	-9.82677126e+01	6.73087334e+01	-1.06889128e-01	1.59446724e+02
44692428.5714	2.55572787e-02	-1.43168922e+00	-1.03204682e+02	1.08696279e+02	-1.07122921e+02	-3.14378101e+01	-1.08350527e-01	1.59322059e+02
44978000	1.61764328e-02	-1.44794391e+00	-1.01172511e+02	-2.99753030e+01	-9.99857854e+01	1.30234380e+02	-1.02517159e-01	1.59204554e+02
45263571.4286	1.62232803e-02	-1.49421623e+00	-1.03008504e+02	5.12505449e+01	-1.00172126e+02	-1.17906734e+02	-9.10619450e-02	1.59084779e+02
45549142.8571	3.07525367e-02	-1.47355154e+00	-9.91814549e+01	7.17904020e+01	-1.00589271e+02	1.45216080e+02	-8.33046023e-02	1.58938762e+02
45834714.2857	3.65730493e-02	-1.46439951e+00	-1.05531366e+02	6.48227435e+01	-9.58055499e+01	1.53101103e+02	-7.99650248e-02	1.58851652e+02
46120285.7143	4.02585088e-02	-1.50340165e+00	-1.14183767e+02	1.61361822e+02	-9.96001013e+01	1.65010442e+02	-8.02575541e-02	1.58750278e+02
46405857.1429	3.10363435e-02	-1.48750495e+00	-1.09376788e+02	2.31276647e+01	-1.02151363e+02	-8.92360716e+01	-8.04340021e-02	1.58614590e+02
46691428.5714	4.38905325e-02	-1.50621749e+00	-9.68238102e+01	1.05462561e+02	-9.65275351e+01	-5.06618472e+01	-7.49040913e-02	1.58448451e+02
46977000	4.78467231e-02	-1.50059316e+00	-1.12471912e+02	1.21817132e+02	-9.16615238e+01	-1.49804198e+02	-7.10163053e-02	1.58362218e+02
47262571.4286	4.13737604e-02	-1.48043357e+00	-9.88530538e+01	5.34937032e+01	-9.91923231e+01	-1.07983731e+02	-7.86766663e-02	1.58169953e+02
47548142.8571	4.16479189e-02	-1.49804044e+00	-9.49530399e+01	1.49512018e+02	-1.00815462e+02	-7.78127867e+01	-7.93106591e-02	1.58031943e+02
47833714.2857	4.96176656e-02	-1.49607116e+00	-9.42244205e+01	-1.09240268e+02	-1.02972117e+02	-1.54759701e+02	-8.31508629e-02	1.57868926e+02
48119285.7143	3.98906646e-02	-1.49861368e+00	-9.44595758e+01	1.69290397e+02	-1.03531519e+02	1.40889895e+02	-8.58868371e-02	1.57728708e+02
48404857.1429	3.97211445e-02	-1.46210735e+00	-9.97922934e+01	6.83822541e+01	-9.69301724e+01	5.91000240e+01	-7.27641100e-02	1.57659078e+02
48690428.5714	3.64290852e-02	-1.49615207e+00	-1.00926912e+02	-1.71930593e+02	-1.08169364e+02	-1.58399035e+02	-7.38988572e-02	1.57533405e+02
48976000	3.68683032e-02	-1.46694830e+00	-1.02941204e+02	1.71979197e+02	-9.83417042e+01	-1.39693168e+02	-7.07001402e-02	1.57506426e+02
49261571.4286	3.80687294e-02	-1.46608559e+00	-9.84582666e+01	1.60650617e+02	-1.00289015e+02	-3.30025406e+01	-6.48786829e-02	1.57394734e+02
49547142.8571	3.70802560e-02	-1.50473799e+00	-9.62474183e+01	1.43385662e+02	-9.73779743e+01	1.28051774e+02	-6.73359377e-02	1.57295957e+02
49832714.2857	3.75557195e-02	-1.43839275e+00	-9.63184341e+01	-1.59893394e+02	-1.02607721e+02	7.43466079e+01	-6.39642856e-02	1.57151994e+02
50118285.7143	2.67272304e-02	-1.50632962e+00	-9.74530403e+01	7.28386836e+01	-9.80282509e+01	1.43665104e+02	-6.49892810e-02	1.56992405e+02
50403857.1429	3.81849458e-02	-1.46336816e+00	-9.41877052e+01	-1.52953037e+02	-1.06398375e+02	1.85829510e+01	-6.08308419e-02	1.56856819e+02
50689428.5714	4.36482454e-02	-1.48606646e+00	-1.00236843e+02	7.96360990e+01	-9.87623172e+01	2.96308709e+01	-6.35488100e-02	1.56723582e+02
50975000	4.71175290e-02	-1.57794768e+00	-9.55015992e+01	5.97738362e+01	-9.90718681e+01	-7.75517981e+01	-6.45364825e-02	1.56578836e+02
51260571.4286	5.43594170e-02	-1.52823146e+00	-9.70637411e+01	6.61165086e+01	-9.74551504e+01	2.93001885e+01	-6.60323652e-02	1.56455232e+02
51546142.8571	6.24696480e-02	-1.56851655e+00	-9.58944000e+01	-1.74938110e+02	-1.01800359e+02	1.74802450e+02	-6.84438902e-02	1.56294562e+02
51831714.2857	6.46949211e-02	-1.53583180e+00	-9.73586525e+01	1.74118496e+02	-9.58913050e+01	1.32446864e+01	-7.17817551e-02	1.56209240e+02
52117285.7143	5.75780994e-02	-1.53871569e+00	-1.09546887e+02	-2.64893220e+01	-1.00959961e+02	1.18651450e+02	-7.82750917e-02	1.56131078e+02
52402857.1429	7.11859014e-02	-1.56555739e+00	-9.57981297e+01	-1.74529867e+02	-9.68417184e+01	1.24026190e+02	-7.68592401e-02	1.55957328e+02
52688428.5714	6.45241107e-02	-1.57988627e+00	-1.01432673e+02	-6.12578377e+01	-1.10429762e+02	-7.91563383e+01	-7.71521240e-02	1.55789103e+02
52974000	6.15255251e-02	-1.57494212e+00	-1.07527249e+02	1.34141617e+01	-1.08094685e+02	-4.59973293e+01	-7.79229716e-02	1.55661752e+02
53259571.4286	5.52150902e-02	-1.59942753e+00	-1.05464914e+02	-8.11056955e+01	-1.08709663e+02	-1.10960359e+02	-7.28544232e-02	1.55509492e+02
53545142.8571	6.23655692e-02	-1.55525389e+00	-9.56499546e+01	-1.11329296e+02	-9.85859416e+01	1.77275249e+02	-6.85098192e-02	1.55408075e+02
53830714.2857	5.89829381e-02	-1.58870583e+00	-9.79370392e+01	1.09401115e+02	-9.89607314e+01	-3.24073758e+01	-6.24961986e-02	1.55301378e+02
54116285.7143	4.77243081e-02	-1.57860015e+00	-1.02753943e+02	7.61234149e+01	-1.03232614e+02	-4.37524291e+01	-6.22470836e-02	1.55224906e+02
54401857.1429	5.77144768e-02	-1.59268512e+00	-1.01461450e+02	1.24439137e+02	-1.02480320e+02	-9.37396139e+01	-6.51659427e-02	1.55099253e+02
54687428.5714	5.82538532e-02	-1.53531170e+00	-9.57280370e+01	8.73969049e+01	-1.01979861e+02	5.03093002e+00	-6.41421658e-02	1.54956921e+02
54973000	5.38286459e-02	-1.55493084e+00	-1.01997189e+02	1.04222673e+02	-1.00081649e+02	-1.52383371e+01	-6.82738363e-02	1.54860195e+02
55258571.4286	5.08916628e-02	-1.54289655e+00	-1.11633213e+02	1.20331273e+02	-1.00509980e+02	6.79198209e+01	-6.98066692e-02	1.54768998e+02
55544142.8571	5.00718849e-02	-1.59874371e+00	-9.47087630e+01	1.05451974e+02	-1.10582043e+02	4.43409852e+01	-6.95498247e-02	1.54602831e+02
55829714.2857	4.47120955e-02	-1.54220143e+00	-9.75368656e+01	3.17715560e+00	-1.12560705e+02	4.45784306e+01	-7.34534286e-02	1.54481358e+02
56115285.7143	5.11473388e-02	-1.58620716e+00	-9.35678015e+01	-1.05238812e+01	-1.00598775e+02	-1.12176017e+02	-7.55360057e-02	1.54319307e+02
56400857.1429	4.87607745e-02	-1.58162323e+00	-9.70513173e+01	1.17726206e+02	-1.03811202e+02	-1.37009711e+01	-7.28131592e-02	1.54168250e+02
56686428.5714	3.89670755e-02	-1.59429303e+00	-9.61077309e+01	-4.27186258e+01	-1.00518139e+02	1.60582311e+02	-7.08700048e-02	1.54036546e+02
56972000	4.89983861e-02	-1.63132014e+00	-9.95348188e+01	-1.39261407e+01	-9.95197218e+01	1.13119649e+02	-7.37175233e-02	1.53986933e+02
57257571.4286	4.05819753e-02	-1.68319195e+00	-1.02015969e+02	7.90873831e+01	-1.02428863e+02	-1.32743210e+02	-7.30076588e-02	1.53928344e+02
57543142.8571	3.75116281e-02	-1.70414587e+00	-1.02086345e+02	-8.49109420e+01	-1.01448494e+02	1.36410923e+02	-8.05893319e-02	1.53787076e+02
57828714.2857	5.34602050e-02	-1.63721243e+00	-1.00739591e+02	6.39038677e+00	-1.01759233e+02	3.39488419e+01	-8.11999276e-02	1.53636436e+02
58114285.7143	5.14135640e-02	-1.65888565e+00	-1.06083446e+02	1.02812290e+02	-1.07150603e+02	1.14397791e+02	-8.28593272e-02	1.53508278e+02
58399857.1429	4.91144723e-02	-1.63828329e+00	-1.03584970e+02	5.33585456e+01	-1.04881163e+02	3.50108129e+01	-8.76433327e-02	1.53314044e+02
58685428.5714	5.49230466e-02	-1.64690162e+00	-9.92893178e+01	1.09554196e+02	-1.00074250e+02	-5.44215825e+01	-8.74913729e-02	1.53139804e+02
58971000	4.82173818e-02	-1.69809079e+00	-1.00339389e+02	-2.67524331e+01	-1.04930910e+02	1.71655897e+02	-8.02656311e-02	1.53023855e+02
59256571.4286	4.60726549e-02	-1.70936277e+00	-1.05893144e+02	8.61552673e+01	-9.94641342e+01	-1.41539447e+02	-8.56753259e-02	1.52873436e+02
59542142.8571	4.50559682e-02	-1.67655232e+00	-9.61646602e+01	1.68875431e+02	-9.86656010e+01	-1.29084672e+01	-8.03417245e-02	1.52798053e+02
59827714.2857	4.74129308e-02	-1.69084750e+00	-1.04113385e+02	1.60384284e+02	-1.28603846e+02	2.84944486e+01	-8.27521405e-02	1.52714408e+02
60113285.7143	5.70648136e-02	-1.74188632e+00	-9.92701188e+01	7.24096859e+01	-9.77455458e+01	1.71946883e+02	-8.91070955e-02	1.52634398e+02
60398857.1429	5.55275252e-02	-1.84905012e+00	-9.85877236e+01	1.59092487e+02	-1.12964032e+02	1.72671681e+01	-9.23242120e-02	1.52575910e+02
60684428.5714	5.13541911e-02	-1.79842922e+00	-9.44002800e+01	8.91081853e+01	-1.02502828e+02	1.78656372e+02	-1.01229270e-01	1.52465991e+02
60970000	3.99940771e-02	-1.76794052e+00	-9.54861294e+01	1.17727105e+02	-1.00295336e+02	1.77938859e+02	-1.01624993e-01	1.52355931e+02
61255571.4286	4.15596367e-02	-1.73406912e+00	-9.55474261e+01	2.14269732e+01	-1.08795674e+02	-1.29692966e+02	-1.05684542e-01	1.52243396e+02
61541142.8571	4.58788952e-02	-1.80376785e+00	-1.00477721e+02	4.30701037e+01	-9.65284871e+01	4.52253620e+01	-1.02496613e-01	1.52059316e+02
61826714.2857	4.36163136e-02	-1.82557215e+00	-1.07861821e+02	1.79275335e+02	-1.04702360e+02	7.81342449e+01	-1.06539616e-01	1.51968787e+02
62112285.7143	4.70739737e-02	-1.86819198e+00	-9.74224275e+01	6.85121338e+01	-1.06120637e+02	3.40119888e+01	-1.02337461e-01	1.51846642e+02
62397857.1429	4.79222942e-02	-1.90431371e+00	-9.95263621e+01	1.53093357e+02	-1.05179600e+02	8.81113899e+01	-9.95540605e-02	1.51690092e+02
62683428.5714	5.67786548e-02	-1.84402350e+00	-1.04112087e+02	8.81705592e+01	-1.06012275e+02	-1.41613193e+02	-1.00171160e-01	1.51589240e+02
62969000	4.88466124e-02	-1.93059315e+00	-9.84540591e+01	3.22480311e+01	-9.50036395e+01	1.76653855e+02	-1.18247351e-01	1.51486709e+02
63254571.4286	5.11142661e-02	-1.90113568e+00	-9.96681020e+01	6.99554251e+00	-1.10875094e+02	2.20174800e+01	-1.15709113e-01	1.51424313e+02
63540142.8571	5.63701592e-02	-1.90900563e+00	-8.95671841e+01	-5.16615651e+01	-1.04073499e+02	-1.36810932e+02	-1.16906987e-01	1.51325127e+02
63825714.2857	5.02752643e-02	-1.86677899e+00	-9.34712425e+01	4.12470844e+01	-1.00702839e+02	-9.16187819e+00	-1.22884938e-01	1.51152544e+02
64111285.7143	5.48378849e-02	-1.91643237e+00	-9.79104264e+01	1.17490000e+02	-9.59145797e+01	-1.26153142e+01	-1.22015578e-01	1.51018839e+02
64396857.1429	4.52070607e-02	-1.85176689e+00	-8.80501527e+01	8.00312967e+01	-1.05388001e+02	1.26499264e+02	-1.27805048e-01	1.50848099e+02
64682428.5714	3.93572492e-02	-1.94947205e+00	-9.29286409e+01	-6.77559833e+01	-1.02982310e+02	1.12416073e+02	-1.19188653e-01	1.50700067e+02
64968000	4.81549310e-02	-1.97173552e+00	-9.49768872e+01	8.85659503e+00	-9.51949515e+01	-7.55198406e+01	-1.22517614e-01	1.50608204e+02
65253571.4286	4.93293761e-02	-1.95854526e+00	-1.00492276e+02	-4.11418105e-01	-9.31542549e+01	1.69885901e+02	-1.16974199e-01	1.50430961e+02
65539142.8571	4.58764658e-02	-1.97199100e+00	-9.71115794e+01	9.40167062e+01	-9.72140665e+01	1.54885241e+02	-1.14506082e-01	1.50299253e+02
65824714.2857	4.43470337e-02	-1.92618306e+00	-9.90693727e+01	-6.82537558e+01	-1.01739065e+02	-1.41309135e+02	-1.11826519e-01	1.50231939e+02
66110285.7143	3.97060421e-02	-1.96383468e+00	-9.57131460e+01	1.59526107e+02	-9.79295499e+01	3.60207317e+01	-1.16016530e-01	1.50061046e+02
66395857.1429	3.79978400e-02	-1.98880596e+00	-1.02010365e+02	-3.09702721e+01	-9.88362839e+01	1.26698918e+02	-1.26275160e-01	1.49978161e+02
66681428.5714	4.91215580e-02	-2.00856469e+00	-9.29351403e+01	-1.31219101e+02	-1.01368113e+02	8.40344866e+01	-1.27636330e-01	1.49884482e+02
66967000	4.87406031e-02	-1.97606783e+00	-1.02203104e+02	1.45067301e+02	-9.96508452e+01	-1.66055274e+02	-1.35417033e-01	1.49749538e+02
67252571.4286	5.06627483e-02	-2.02105940e+00	-9.56811544e+01	-4.73978780e+01	-9.98724886e+01	-1.11886334e+02	-1.45502644e-01	1.49603118e+02
67538142.8571	4.59407299e-02	-2.00492117e+00	-9.94556414e+01	-1.78942300e+02	-9.63550010e+01	7.05745140e+01	-1.54339900e-01	1.49504531e+02
67823714.2857	4.91475787e-02	-2.02085942e+00	-9.21360730e+01	1.45411271e+02	-9.88981898e+01	1.64871488e+02	-1.58972007e-01	1.49384827e+02
68109285.7143	4.65633398e-02	-2.08995124e+00	-1.03656016e+02	-1.65220048e+02	-1.19160957e+02	-1.39147696e+02	-1.62229430e-01	1.49220015e+02
68394857.1429	3.97637637e-02	-2.14959378e+00	-9.70318725e+01	1.42197474e+02	-1.22961356e+02	9.03169089e+01	-1.58572392e-01	1.49092388e+02
68680428.5714	4.86625824e-02	-2.14997959e+00	-9.72211352e+01	-1.98544894e+01	-1.08635050e+02	1.41460998e+00	-1.72245386e-01	1.49052522e+02
68966000	3.70609819e-02	-2.16544718e+00	-9.96736168e+01	-1.05924784e+02	-9.43399534e+01	9.15249480e+00	-1.70299033e-01	1.48980272e+02
69251571.4286	4.13671337e-02	-2.15675688e+00	-1.00800473e+02	-1.55414984e+02	-1.07544572e+02	5.84190480e+00	-1.76318384e-01	1.48806783e+02
69537142.8571	2.86286840e-02	-2.17634907e+00	-1.13557073e+02	-1.76002821e+02	-9.75868423e+01	-1.08759462e+02	-1.90616271e-01	1.48683923e+02
69822714.2857	4.08065738e-02	-2.21488934e+00	-1.07477273e+02	-1.01383952e+02	-1.04184356e+02	-1.56805910e+02	-1.90381445e-01	1.48596411e+02
70108285.7143	4.44332459e-02	-2.22176215e+00	-1.02307716e+02	1.21785930e+02	-1.02750216e+02	1.37981340e+02	-1.86386195e-01	1.48503459e+02
70393857.1429	3.98235744e-02	-2.21715312e+00	-9.83390192e+01	-9.13608584e+01	-1.02303016e+02	1.21393563e+02	-1.94868943e-01	1.48356188e+02
70679428.5714	3.39877257e-02	-2.17739356e+00	-1.02911321e+02	1.69414709e+02	-1.02383254e+02	-5.46256126e+01	-2.00544537e-01	1.48225548e+02
70965000	3.38143257e-02	-2.21052439e+00	-9.58141674e+01	3.75672359e+01	-1.01109269e+02	6.02584083e+01	-2.07816795e-01	1.48171140e+02
71250571.4286	4.71168409e-02	-2.26539362e+00	-9.77976647e+01	-7.59533858e+01	-9.72548202e+01	1.57527070e+02	-2.13826789e-01	1.48022720e+02
71536142.8571	3.85755242e-02	-2.23970543e+00	-1.03861204e+02	-1.51245036e+02	-1.10636605e+02	1.72821259e+02	-2.04842907e-01	1.47807725e+02
71821714.2857	2.95004966e-02	-2.29717155e+00	-1.08906836e+02	-4.10503793e+01	-1.00635240e+02	1.18990256e+02	-2.07710098e-01	1.47677119e+02
72107285.7143	2.08363448e-02	-2.32193771e+00	-9.21719326e+01	-1.11310736e+02	-9.92558410e+01	-2.64061896e+01	-1.94559315e-01	1.47547121e+02
72392857.1429	2.50633219e-02	-2.29016669e+00	-9.19338505e+01	-6.09586977e+01	-9.58088406e+01	-1.59848119e+02	-2.02149415e-01	1.47356359e+02
72678428.5714	1.71134033e-02	-2.35598888e+00	-9.91355733e+01	-1.53661397e+02	-9.35202426e+01	-1.64475076e+02	-1.92842366e-01	1.47281785e+02
72964000	2.11422515e-02	-2.33586037e+00	-1.00405594e+02	-3.49393339e+00	-9.41961330e+01	1.58348254e+02	-1.84773617e-01	1.47061564e+02
73249571.4286	2.00194288e-02	-2.36196875e+00	-9.71232137e+01	-1.24206781e+02	-1.05248605e+02	1.20606312e+02	-1.75726794e-01	1.46828912e+02
73535142.8571	2.22902266e-02	-2.36968695e+00	-9.93636104e+01	3.02290976e+01	-9.83897983e+01	1.66652871e+02	-1.86222400e-01	1.46680104e+02
73820714.2857	1.81253343e-02	-2.33332418e+00	-9.55290633e+01	-9.91691107e+01	-1.01084432e+02	1.31938840e+02	-1.91967614e-01	1.46550989e+02
74106285.7143	2.27734404e-02	-2.35939139e+00	-9.48307424e+01	-1.38743941e+02	-1.00161418e+02	1.29111566e+02	-1.93898429e-01	1.46428593e+02
74391857.1429	3.78165400e-02	-2.39047577e+00	-1.01755448e+02	-1.36728887e+02	-9.92908394e+01	7.43507091e+00	-1.93119151e-01	1.46383481e+02
74677428.5714	2.84964523e-02	-2.44373520e+00	-9.36477735e+01	-5.72288242e+01	-1.16690982e+02	-2.39622559e+01	-2.01709625e-01	1.46250908e+02
74963000	2.65707404e-02	-2.43317830e+00	-9.92865532e+01	6.61427438e+01	-9.93942767e+01	1.58044124e+02	-1.95722813e-01	1.46129599e+02
75248571.4286	2.99963012e-02	-2.45641519e+00	-9.26926797e+01	1.40382097e+02	-9.75430514e+01	1.42543701e+02	-2.08313644e-01	1.46006610e+02
75534142.8571	2.62742469e-02	-2.52433073e+00	-1.06340440e+02	-1.08407047e+02	-9.79823764e+01	-1.04996430e+01	-1.94129412e-01	1.45804984e+02
75819714.2857	2.63570940e-02	-2.50813288e+00	-9.45877769e+01	-1.04579673e+02	-9.81529276e+01	5.85085218e+01	-2.13613001e-01	1.45658929e+02
76105285.7143	2.42817136e-02	-2.55780347e+00	-9.24915673e+01	-1.72415589e+02	-1.00861682e+02	-3.09566745e+01	-2.06102756e-01	1.45551907e+02
76390857.1429	1.11396257e-02	-2.54559634e+00	-1.06231263e+02	-7.19402466e+01	-1.07044617e+02	-9.62708189e+01	-2.08131274e-01	1.45493272e+02
76676428.5714	9.81090133e-03	-2.54528856e+00	-1.00417308e+02	9.84758672e+01	-9.75981996e+01	-8.48782185e+01	-2.10691979e-01	1.45411218e+02
76962000	4.02639359e-03	-2.58935956e+00	-9.39128819e+01	1.51193109e+02	-1.00222425e+02	-3.03903856e+01	-2.00835777e-01	1.45142620e+02
77247571.4286	8.43473230e-03	-2.64313757e+00	-1.04969391e+02	1.14084369e+02	-1.07588316e+02	-1.73401743e+02	-2.25516606e-01	1.45081498e+02
77533142.8571	3.74671426e-03	-2.65824549e+00	-9.09796369e+01	8.58203279e+01	-1.02131457e+02	-5.07772569e+01	-2.19690743e-01	1.44867583e+02
77818714.2857	3.02482861e-03	-2.66875135e+00	-1.07160280e+02	6.32918720e+01	-9.53421669e+01	6.91930911e+01	-2.09427443e-01	1.44702942e+02
78104285.7143	5.85832235e-03	-2.66648582e+00	-1.01651714e+02	-1.98872653e+01	-1.13619005e+02	-1.80265779e+01	-2.22998669e-01	1.44633634e+02
78389857.1429	1.00970262e-02	-2.69220618e+00	-9.43901940e+01	-1.65932835e+02	-9.27979764e+01	-1.29555523e+02	-2.30349169e-01	1.44546539e+02
78675428.5714	9.39047462e-03	-2.70263990e+00	-9.32678921e+01	1.35371672e+02	-9.71824911e+01	-1.74673017e+02	-2.24283492e-01	1.44331630e+02
78961000	5.92283646e-03	-2.71250896e+00	-9.37853694e+01	1.64687960e+02	-9.41994849e+01	-1.37829944e+02	-2.18907976e-01	1.44237414e+02
79246571.4286	6.57515992e-03	-2.70132975e+00	-9.75262699e+01	-9.79374261e+01	-1.04007568e+02	1.68315375e+02	-2.22089253e-01	1.44068471e+02
79532142.8571	4.37100576e-03	-2.72724033e+00	-1.00210992e+02	-9.71424104e+01	-9.66261472e+01	-1.62992924e+02	-2.25370067e-01	1.43930906e+02
79817714.2857	4.87221060e-03	-2.78055633e+00	-1.02222985e+02	-6.45846470e+01	-9.76009302e+01	-1.25985848e+02	-2.20632250e-01	1.43776637e+02
80103285.7143	6.85466017e-03	-2.80026580e+00	-1.05165602e+02	-1.56619754e+02	-9.50062355e+01	1.68755546e+02	-2.22815504e-01	1.43735620e+02
80388857.1429	9.26696977e-04	-2.81415046e+00	-9.25348870e+01	1.68134553e+02	-9.29931543e+01	1.67723131e+02	-2.30207151e-01	1.43666244e+02
80674428.5714	4.06491549e-03	-2.81413481e+00	-9.46037472e+01	1.42890142e+02	-1.05282590e+02	1.11489460e+02	-2.32901107e-01	1.43373444e+02
80960000	4.70558976e-03	-2.83903373e+00	-9.47157721e+01	-1.47838809e+02	-9.63936671e+01	-1.28693591e+02	-2.44282057e-01	1.43139468e+02
81245571.4286	2.38930424e-03	-2.85323866e+00	-9.79066231e+01	-1.30248082e+02	-9.53267470e+01	1.71465036e+02	-2.27880878e-01	1.43080989e+02
81531142.8571	3.00786138e-03	-2.88135624e+00	-9.34457839e+01	1.29223155e+02	-1.06784619e+02	-1.09171948e+02	-2.39544516e-01	1.43017633e+02
81816714.2857	-1.44195643e-03	-2.89677044e+00	-9.41626200e+01	-5.69543747e+01	-1.09252982e+02	1.18476431e+02	-2.16923964e-01	1.42832938e+02
82102285.7143	-3.35849431e-03	-2.93886320e+00	-1.02975549e+02	1.54599315e+02	-9.98056355e+01	7.90678035e+01	-2.29285652e-01	1.42709416e+02
82387857.1429	-8.40623725e-03	-2.93819932e+00	-9.96658040e+01	-1.74146649e+02	-1.02723060e+02	1.72193934e+02	-2.35171088e-01	1.42633633e+02
82673428.5714	-2.24289802e-03	-2.92949502e+00	-9.59843930e+01	1.54637203e+02	-9.82708643e+01	-1.31675809e+02	-2.39247427e-01	1.42373207e+02
82959000	-2.88069395e-03	-2.95209761e+00	-1.01718276e+02	1.37903579e+02	-9.63827374e+01	-1.25231475e+02	-2.25624414e-01	1.42457234e+02
83244571.4286	-4.66371629e-03	-2.98412559e+00	-1.01543473e+02	1.53373691e+02	-9.44526256e+01	1.28433925e+02	-2.17844726e-01	1.42157798e+02
83530142.8571	-4.22270371e-03	-2.99057292e+00	-1.01328420e+02	-1.55859461e+02	-9.92371942e+01	-1.60060103e+02	-2.30227373e-01	1.41997612e+02
83815714.2857	5.37560849e-04	-3.00331744e+00	-1.01687363e+02	-1.67581932e+02	-1.07415824e+02	-1.74326389e+02	-2.19896035e-01	1.41930818e+02
84101285.7143	-4.47386873e-03	-3.01845445e+00	-9.23840107e+01	8.54542018e+01	-9.47093913e+01	-1.72840926e+02	-2.33645542e-01	1.41790555e+02
84386857.1429	-2.25985653e-03	-3.03611690e+00	-1.01290361e+02	1.77839127e+02	-9.84976921e+01	-1.32807047e+02	-2.18022121e-01	1.41672325e+02
84672428.5714	-1.30068771e-03	-3.06704893e+00	-1.02835131e+02	-1.64486930e+02	-1.00620545e+02	1.04216872e+02	-2.27150717e-01	1.41594814e+02
84958000	-1.87685823e-03	-3.07358936e+00	-9.63525940e+01	1.05217641e+02	-1.04319891e+02	-5.86630178e+01	-2.15059567e-01	1.41444171e+02
85243571.4286	-2.59642954e-03	-3.09521593e+00	-9.39779108e+01	1.58883695e+02	-9.48957002e+01	-1.53099823e+02	-2.07961364e-01	1.41214341e+02
85529142.8571	-9.27551437e-03	-3.11614671e+00	-1.02083293e+02	-1.14822035e+02	-9.49951262e+01	1.05921949e+02	-1.96259009e-01	1.41097755e+02
85814714.2857	-9.04886678e-03	-3.11966708e+00	-9.24433931e+01	1.14647052e+02	-9.75299352e+01	1.54269320e+02	-2.13514943e-01	1.40877300e+02
86100285.7143	-7.99458971e-03	-3.13195233e+00	-9.20270863e+01	1.08946086e+02	-9.65941826e+01	1.75574047e+02	-2.07822841e-01	1.40857038e+02
86385857.1429	-7.84523284e-03	-3.16518570e+00	-9.48084473e+01	-1.43652937e+02	-9.78396684e+01	1.33847338e+02	-2.14887175e-01	1.40725705e+02
86671428.5714	-8.48101661e-03	-3.20069734e+00	-9.39401149e+01	1.72692428e+02	-1.01190971e+02	9.89646202e+01	-2.02136346e-01	1.40566787e+02
86957000	-1.00884908e-02	-3.21057165e+00	-8.83565189e+01	1.16972685e+02	-9.69165427e+01	1.54130982e+02	-2.05577693e-01	1.40417327e+02
87242571.4286	-1.26008857e-02	-3.23437461e+00	-9.16408251e+01	1.37246174e+02	-9.53923703e+01	1.23547305e+02	-2.03948522e-01	1.40251279e+02
87528142.8571	-1.25963331e-02	-3.24981840e+00	-1.10990512e+02	3.53363586e+01	-9.97874923e+01	1.78903360e+02	-2.01754308e-01	1.40180791e+02
87813714.2857	-1.07481325e-02	-3.25717905e+00	-1.00691261e+02	9.83585476e+01	-1.00405285e+02	1.37294105e+02	-1.94249605e-01	1.40017481e+02
88099285.7143	-1.22111447e-02	-3.29871404e+00	-9.41090275e+01	1.65918420e+02	-1.02590554e+02	1.43112976e+02	-1.89608780e-01	1.39797474e+02
88384857.1429	-1.35383636e-02	-3.33497835e+00	-9.68233161e+01	1.38051631e+02	-9.27417610e+01	1.29723380e+02	-1.98184864e-01	1.39711790e+02
88670428.5714	-1.22283660e-02	-3.34929971e+00	-9.85677350e+01	1.01837265e+02	-9.35271762e+01	1.43139469e+02	-1.92515473e-01	1.39662697e+02
88956000	-1.57330026e-02	-3.39094047e+00	-9.08321468e+01	1.11222464e+02	-9.12324965e+01	1.39720115e+02	-1.87313151e-01	1.39471138e+02
89241571.4286	-1.48497621e-02	-3.41608746e+00	-9.37347452e+01	1.42703268e+02	-9.99219718e+01	1.71022122e+02	-1.82132959e-01	1.39305188e+02
89527142.8571	-1.62957011e-02	-3.42045463e+00	-9.77963100e+01	-1.52565837e+02	-9.54935436e+01	1.37268719e+02	-1.84374797e-01	1.39155970e+02
89812714.2857	-1.51847751e-02	-3.41824121e+00	-1.31912825e+02	-9.54062948e+01	-9.49846136e+01	1.75268217e+02	-1.96816446e-01	1.38999274e+02
90098285.7143	-1.50738176e-02	-3.42430666e+00	-9.80209975e+01	-1.56511536e+02	-9.50198310e+01	1.30146779e+02	-1.88327719e-01	1.38913863e+02
90383857.1429	-1.56302084e-02	-3.45915504e+00	-1.09012648e+02	1.09042521e+02	-1.01111779e+02	9.47116277e+01	-1.97391369e-01	1.38755967e+02
90669428.5714	-1.70476122e-02	-3.48698146e+00	-9.48476207e+01	9.90545093e+01	-9.27558478e+01	1.06020759e+02	-1.86395728e-01	1.38626844e+02
90955000	-1.70973204e-02	-3.48797768e+00	-9.78403787e+01	-1.65579350e+02	-9.40053547e+01	1.21078739e+02	-1.97636112e-01	1.38488764e+02
91240571.4286	-1.43543905e-02	-3.49757782e+00	-1.01844771e+02	9.69498682e+01	-9.74595138e+01	8.28681781e+01	-1.85491891e-01	1.38368838e+02
91526142.8571	-1.30848508e-02	-3.50643267e+00	-1.02701330e+02	3.76616712e+01	-1.02100012e+02	1.62649771e+02	-1.91168680e-01	1.38214882e+02
91811714.2857	-1.40310544e-02	-3.52182387e+00	-9.29836931e+01	1.52399667e+02	-9.34320367e+01	9.93437488e+01	-1.86838959e-01	1.38115404e+02
92097285.7143	-1.24302693e-02	-3.55115377e+00	-9.36476372e+01	1.16417884e+02	-9.32157705e+01	1.41113279e+02	-1.90453860e-01	1.37927918e+02
92382857.1429	-1.34866093e-02	-3.57664090e+00	-9.57483559e+01	1.46415311e+02	-1.02145015e+02	-1.62286188e+02	-1.87444408e-01	1.37784262e+02
92668428.5714	-1.42791804e-02	-3.59941094e+00	-8.99428264e+01	1.27167177e+02	-9.61620270e+01	9.54715109e+01	-1.82220745e-01	1.37673762e+02
92954000	-1.34414070e-02	-3.60178654e+00	-9.22340403e+01	1.28552238e+02	-9.73636675e+01	5.00155908e+01	-1.83777876e-01	1.37527992e+02
93239571.4286	-1.48956939e-02	-3.59628520e+00	-9.28959064e+01	1.39339155e+02	-9.96898441e+01	1.51613113e+02	-1.93440715e-01	1.37350036e+02
93525142.8571	-1.21168049e-02	-3.62938300e+00	-1.00345049e+02	8.81101086e+01	-1.04423074e+02	1.39995478e+02	-1.77472788e-01	1.37217546e+02
93810714.2857	-9.83106554e-03	-3.64576116e+00	-1.03453170e+02	1.33615767e+02	-1.01854022e+02	7.79600954e+01	-1.81235743e-01	1.37089943e+02
94096285.7143	-7.16645400e-03	-3.70800864e+00	-9.32601508e+01	1.28148678e+02	-1.02643038e+02	-1.78943953e+02	-1.74209516e-01	1.36968801e+02
94381857.1429	-6.46285639e-03	-3.72513942e+00	-9.12656956e+01	1.50800065e+02	-9.69981819e+01	1.28490764e+02	-1.61765191e-01	1.36951874e+02
94667428.5714	-6.01175322e-03	-3.75198907e+00	-9.49498088e+01	1.45759809e+02	-9.60103268e+01	1.41080997e+02	-1.57502827e-01	1.36754384e+02
94953000	-6.29991112e-03	-3.74490052e+00	-9.28861338e+01	1.39769730e+02	-9.42073814e+01	1.38177017e+02	-1.53879697e-01	1.36564579e+02
95238571.4286	-5.22721344e-03	-3.76695525e+00	-9.30619925e+01	1.38434630e+02	-9.29483959e+01	1.53667903e+02	-1.49425478e-01	1.36447870e+02
95524142.8571	-4.36107853e-03	-3.77784330e+00	-9.96052862e+01	1.03099656e+02	-9.26479153e+01	1.37989743e+02	-1.55619802e-01	1.36316107e+02
95809714.2857	-3.87538814e-03	-3.81920508e+00	-9.46990471e+01	9.72358124e+01	-9.28688926e+01	1.17882460e+02	-1.61906449e-01	1.36182911e+02
96095285.7143	-3.27016108e-03	-3.83848655e+00	-9.50449810e+01	1.15710157e+02	-9.12608129e+01	1.36088527e+02	-1.47370839e-01	1.36046523e+02
96380857.1429	-1.24518036e-03	-3.83108164e+00	-8.88344423e+01	1.48348866e+02	-9.39909528e+01	1.40649950e+02	-1.36444028e-01	1.35992760e+02
96666428.5714	-1.76797955e-04	-3.83701315e+00	-9.36502302e+01	1.46980587e+02	-9.50865782e+01	1.51623318e+02	-1.33542392e-01	1.35818800e+02
96952000	-1.35684721e-03	-3.84419179e+00	-8.97593665e+01	1.25148978e+02	-9.48090194e+01	1.14097902e+02	-1.22188230e-01	1.35727215e+02
97237571.4286	2.40921373e-03	-3.86559338e+00	-9.11153549e+01	9.88031775e+01	-8.96346986e+01	1.07770043e+02	-1.17033410e-01	1.35606470e+02
97523142.8571	-9.73749888e-04	-3.87898256e+00	-9.19630018e+01	1.59156152e+02	-9.49276144e+01	1.40652272e+02	-1.21776831e-01	1.35463736e+02
97808714.2857	-6.53987459e-04	-3.87987887e+00	-9.35611311e+01	1.29416178e+02	-9.53664608e+01	1.33853332e+02	-1.17945459e-01	1.35353327e+02
98094285.7143	2.16906378e-04	-3.88295157e+00	-9.04354027e+01	1.29409450e+02	-9.24077322e+01	1.16142047e+02	-1.21726329e-01	1.35170477e+02
98379857.1429	2.18529797e-03	-3.85671571e+00	-9.12025051e+01	1.16380264e+02	-8.87294279e+01	1.44785242e+02	-1.26014133e-01	1.35012748e+02
98665428.5714	-3.21675151e-04	-3.86895721e+00	-8.96391245e+01	1.22715626e+02	-8.93186609e+01	1.30124629e+02	-1.26162547e-01	1.34869631e+02
98951000	4.81400903e-03	-3.87510449e+00	-8.86338846e+01	1.25824916e+02	-8.91865245e+01	1.10224935e+02	-1.36056683e-01	1.34757950e+02
99236571.4286	6.80035781e-03	-3.88497298e+00	-9.02840445e+01	9.16409620e+01	-8.89229690e+01	9.62007297e+01	-1.38598082e-01	1.34679517e+02
99522142.8571	9.79820652e-03	-3.90551686e+00	-8.86865000e+01	1.20104887e+02	-8.61745789e+01	1.12319489e+02	-1.46159777e-01	1.34569006e+02
99807714.2857	7.46807227e-03	-3.89087595e+00	-9.06052056e+01	8.65984764e+01	-8.87113585e+01	1.14803983e+02	-1.43561017e-01	1.34454181e+02
100093285.714	1.06525840e-02	-3.89064701e+00	-8.93615794e+01	1.04079525e+02	-8.57741196e+01	1.21244643e+02	-1.46605315e-01	1.34250826e+02
100378857.143	6.27039213e-03	-3.91753615e+00	-8.91453403e+01	1.29926521e+02	-8.75994938e+01	1.04309245e+02	-1.46602830e-01	1.34104486e+02
100664428.571	8.79375291e-03	-3.91710253e+00	-8.73675999e+01	1.01112392e+02	-8.68546630e+01	8.72434762e+01	-1.45344962e-01	1.34039860e+02
100950000	3.32075468e-03	-3.92071170e+00	-8.73277092e+01	1.08280387e+02	-8.78874452e+01	9.06897734e+01	-1.39716556e-01	1.33951362e+02
101235571.429	6.36599488e-03	-3.96515472e+00	-8.79251479e+01	1.07078970e+02	-8.56859035e+01	9.15442741e+01	-1.44398913e-01	1.33835904e+02
101521142.857	6.26802484e-03	-3.93870438e+00	-8.54654139e+01	9.68623092e+01	-8.75903489e+01	9.04838819e+01	-1.54714874e-01	1.33664126e+02
101806714.286	2.58188569e-03	-3.94590846e+00	-8.90898540e+01	9.04160458e+01	-8.40458622e+01	8.48882124e+01	-1.50158752e-01	1.33543904e+02
102092285.714	3.88822049e-03	-3.92833919e+00	-8.53445929e+01	8.01447133e+01	-8.43419502e+01	8.24980470e+01	-1.49485068e-01	1.33445973e+02
102377857.143	1.19848346e-02	-3.95071988e+00	-8.54528603e+01	7.58674407e+01	-8.43244975e+01	7.04427007e+01	-1.42335245e-01	1.33360240e+02
102663428.571	1.31756704e-02	-4.01316557e+00	-8.53621937e+01	7.45285777e+01	-8.47185880e+01	7.41007363e+01	-1.42639047e-01	1.33245718e+02
102949000	8.24756426e-03	-3.98848373e+00	-8.93065772e+01	6.01344046e+01	-8.45246638e+01	5.57242483e+01	-1.39088308e-01	1.33160802e+02
103234571.429	8.05290320e-03	-3.96569808e+00	-8.50313279e+01	5.86536169e+01	-8.35034040e+01	5.78274760e+01	-1.37472154e-01	1.33008683e+02
103520142.857	8.48352885e-03	-3.95489464e+00	-8.27803503e+01	4.45396687e+01	-8.68526707e+01	5.44238219e+01	-1.31361126e-01	1.32885712e+02
103805714.286	7.95130437e-03	-3.97746142e+00	-8.46794420e+01	3.40877809e+01	-8.35576388e+01	3.80259307e+01	-1.19966149e-01	1.32782095e+02
104091285.714	7.64542236e-03	-3.98479895e+00	-8.68525531e+01	3.84789239e+01	-8.42936907e+01	3.43559398e+01	-1.14327906e-01	1.32671780e+02
104376857.143	1.28769992e-02	-4.00267056e+00	-8.55360798e+01	3.13394493e+01	-8.81529749e+01	2.50687825e+01	-1.03958434e-01	1.32566480e+02
104662428.571	2.20343655e-02	-4.00037770e+00	-8.53954365e+01	3.63403492e+01	-8.63916353e+01	2.18144207e+01	-1.01464668e-01	1.32394101e+02
104948000	2.50949622e-02	-3.97053570e+00	-8.56513417e+01	4.75464340e+01	-8.69465099e+01	2.89133216e+01	-1.00204052e-01	1.32253182e+02
105233571.429	1.59300576e-02	-3.98782380e+00	-8.68068983e+01	5.85988656e+01	-8.62069018e+01	3.29286035e+01	-1.05344506e-01	1.32132069e+02
105519142.857	1.62366579e-02	-3.97761562e+00	-8.77114787e+01	2.72250290e+01	-8.82926714e+01	1.93459141e+01	-1.11854313e-01	1.32008692e+02
105804714.286	1.15464559e-02	-3.95521466e+00	-8.98077129e+01	2.14143683e+01	-8.87261822e+01	2.02119673e+01	-1.10900727e-01	1.31862487e+02
106090285.714	1.49670333e-02	-3.96186908e+00	-8.74465224e+01	5.09289385e+00	-8.71098605e+01	4.36677876e+00	-1.07374824e-01	1.31720813e+02
106375857.143	2.17421475e-02	-3.94954118e+00	-8.85795043e+01	1.65956051e+01	-8.61159837e+01	8.64725932e+00	-1.08842188e-01	1.31639404e+02
106661428.571	2.72377300e-02	-3.99461878e+00	-9.08272075e+01	4.37248152e+00	-9.39699573e+01	1.04840569e+01	-1.14888211e-01	1.31537350e+02
106947000	1.99402529e-02	-3.96644221e+00	-8.99462710e+01	3.02182307e+01	-8.65141436e+01	1.71731374e+01	-1.17754039e-01	1.31397495e+02
107232571.429	2.00011578e-02	-3.97443689e+00	-8.68047017e+01	-8.06314960e+00	-8.88613300e+01	-5.64006702e+00	-1.22679965e-01	1.31262875e+02
107518142.857	1.63601662e-02	-3.93020363e+00	-9.02269596e+01	1.90953817e+01	-9.02127244e+01	-7.65249411e+00	-1.25993689e-01	1.31167134e+02
107803714.286	2.74935523e-02	-3.97370400e+00	-9.16371472e+01	9.25678034e+00	-8.96235359e+01	-1.66419955e+01	-1.21162648e-01	1.31048658e+02
108089285.714	2.18962917e-02	-4.00678603e+00	-9.24489778e+01	-3.48324335e-01	-9.01628016e+01	1.42617953e+01	-1.15847036e-01	1.30943390e+02
108374857.143	2.57752382e-02	-3.97364506e+00	-9.13127733e+01	-3.08961361e+00	-8.91083979e+01	-1.31674481e+01	-1.21776329e-01	1.30765120e+02
108660428.571	1.62567271e-02	-3.98333473e+00	-8.90648199e+01	-6.53735676e+00	-9.55823788e+01	-2.07554535e+01	-1.20545821e-01	1.30585664e+02
108946000	3.17432484e-02	-4.05966435e+00	-8.92666081e+01	2.52383084e+01	-9.07894419e+01	1.92843635e+01	-1.08781499e-01	1.30475714e+02
109231571.429	4.08330506e-02	-3.96513867e+00	-9.40574447e+01	-1.38343967e+01	-9.33884797e+01	4.20970389e+00	-1.03900941e-01	1.30376788e+02
109517142.857	4.12772255e-02	-3.99571881e+00	-8.87597749e+01	1.67034836e+01	-8.97251602e+01	1.40066850e+01	-1.03099922e-01	1.30274444e+02
109802714.286	4.60140728e-02	-4.00331420e+00	-9.25498249e+01	-2.97023363e+01	-8.93925343e+01	-6.57236786e+00	-1.04988182e-01	1.30178096e+02
110088285.714	4.13973833e-02	-4.07802225e+00	-9.36804748e+01	1.17544716e+01	-9.20855420e+01	-1.13581926e+00	-1.05837648e-01	1.30040986e+02
110373857.143	4.06576148e-02	-4.05753939e+00	-9.84357475e+01	2.48197101e+01	-9.34316156e+01	-2.25411613e+01	-1.16285518e-01	1.29884560e+02
110659428.571	4.97157363e-02	-4.05782267e+00	-9.09452702e+01	2.95051140e+01	-9.12812648e+01	2.64547881e+01	-1.19125303e-01	1.29745607e+02
110945000	4.64367444e-02	-4.05883284e+00	-8.93474058e+01	-8.19089622e+00	-9.22343885e+01	1.76003701e+00	-1.26192497e-01	1.29614223e+02
111230571.429	4.59246826e-02	-4.06948874e+00	-9.16961331e+01	-3.98478810e+00	-9.47516800e+01	-3.81964409e+01	-1.31258775e-01	1.29479900e+02
111516142.857	5.09943280e-02	-4.06684776e+00	-8.91728859e+01	9.67242079e+00	-9.61291678e+01	1.43085276e+01	-1.26946725e-01	1.29322285e+02
111801714.286	5.48014668e-02	-4.08325239e+00	-9.39822711e+01	1.04291198e+01	-1.07458105e+02	-1.04367875e+02	-1.28629828e-01	1.29251975e+02
112087285.714	5.36768846e-02	-4.04701144e+00	-9.71383924e+01	-1.49165892e+01	-9.16124741e+01	-3.19988848e+01	-1.29883039e-01	1.29179296e+02
112372857.143	5.02279528e-02	-4.06785411e+00	-9.15568601e+01	-9.98532119e+00	-9.01446094e+01	7.58209591e+00	-1.32386232e-01	1.29064481e+02
112658428.571	4.40393845e-02	-4.05388705e+00	-1.02243106e+02	-7.06196765e+00	-1.02394060e+02	-7.84614224e+01	-1.29919214e-01	1.28913325e+02
112944000	4.99325965e-02	-4.07628420e+00	-9.82395782e+01	3.06080492e+01	-9.53187774e+01	-5.66595921e+01	-1.26654338e-01	1.28761742e+02
113229571.429	5.72654546e-02	-4.07670732e+00	-9.44154377e+01	-4.96047931e+01	-9.50275408e+01	-3.34253261e+01	-1.28335002e-01	1.28596771e+02
113515142.857	4.50646184e-02	-4.07117674e+00	-1.06646586e+02	1.33684532e+01	-8.98294709e+01	-2.43236718e+01	-1.21204966e-01	1.28505471e+02
113800714.286	5.17816237e-02	-4.08410137e+00	-9.68728653e+01	-4.97451707e+01	-9.17347979e+01	-2.02084574e+01	-1.20323929e-01	1.28335683e+02
114086285.714	5.02338409e-02	-4.06948399e+00	-9.39244213e+01	1.45499533e+01	-9.42541980e+01	-3.70774254e+01	-1.19500466e-01	1.28192934e+02
114371857.143	5.59272212e-02	-4.01189282e+00	-9.63209045e+01	-9.18002575e+01	-9.49405928e+01	2.43065385e+00	-1.23352362e-01	1.28132181e+02
114657428.571	4.74239314e-02	-4.11232192e+00	-9.48690400e+01	8.45581898e+00	-9.83777244e+01	-1.54617065e+02	-1.33543104e-01	1.28061922e+02
114943000	5.47898076e-02	-4.08327641e+00	-1.04421411e+02	-3.51296255e+01	-1.03314646e+02	-5.61738962e+01	-1.48302873e-01	1.27968728e+02
115228571.429	5.66770343e-02	-4.08625777e+00	-9.41047672e+01	-2.19868138e+01	-9.76325364e+01	-3.55448041e+01	-1.52157062e-01	1.27928965e+02
115514142.857	6.78260931e-02	-4.06534211e+00	-1.01574678e+02	-2.36401941e+01	-9.26622293e+01	-5.48308408e+01	-1.43115333e-01	1.27826459e+02
115799714.286	6.71096141e-02	-4.08381636e+00	-9.65337919e+01	-1.30276590e+02	-1.03192428e+02	-1.89638119e+01	-1.47419087e-01	1.27745621e+02
116085285.714	5.73634535e-02	-4.14007681e+00	-9.18385323e+01	6.36947351e+00	-9.85455726e+01	-7.40793730e-01	-1.45894458e-01	1.27632006e+02
116370857.143	5.38374615e-02	-4.10084878e+00	-9.23019407e+01	-4.60824086e+01	-9.20783837e+01	-3.52013533e+01	-1.43847045e-01	1.27482394e+02
116656428.571	4.55736955e-02	-4.12472671e+00	-9.93183582e+01	-6.70588774e+00	-1.03330501e+02	-2.32714200e+01	-1.53440665e-01	1.27338736e+02
116942000	6.46970229e-02	-4.15359074e+00	-9.51533840e+01	-9.03730023e+01	-1.20914694e+02	-1.35461517e+02	-1.53236250e-01	1.27170356e+02
117227571.429	5.53915287e-02	-4.08698916e+00	-8.91521196e+01	5.38037246e+01	-9.91297190e+01	1.53305029e+01	-1.44597384e-01	1.27009679e+02
117513142.857	5.98907044e-02	-4.09879114e+00	-9.65404627e+01	5.48676853e+00	-1.07762879e+02	-8.08673253e+01	-1.44903547e-01	1.26942407e+02
117798714.286	5.29397066e-02	-4.11347786e+00	-1.00915495e+02	1.26396443e+02	-9.51009173e+01	-7.84370657e+00	-1.50715096e-01	1.26831369e+02
118084285.714	5.49294313e-02	-4.13104651e+00	-8.86094503e+01	7.04280093e+01	-9.96481443e+01	-1.51310139e+00	-1.52611259e-01	1.26748076e+02
118369857.143	6.35953084e-02	-4.08149898e+00	-1.04129126e+02	-2.68722351e+01	-1.12659855e+02	-1.00729534e+02	-1.55584946e-01	1.26649236e+02
118655428.571	5.38329182e-02	-4.10692656e+00	-1.01567490e+02	9.08227378e+01	-1.01878335e+02	6.91687705e+01	-1.60541445e-01	1.26557187e+02
118941000	5.49245023e-02	-4.05449083e+00	-9.20330223e+01	2.74513101e+01	-1.01340298e+02	5.17516453e+01	-1.55056041e-01	1.26436304e+02
119226571.429	6.34724759e-02	-4.08897628e+00	-9.51494370e+01	-1.29381561e+01	-9.35009674e+01	-2.03952562e+01	-1.51705971e-01	1.26273444e+02
119512142.857	5.92084752e-02	-4.10764352e+00	-9.81555870e+01	2.99652941e+01	-9.65536112e+01	1.77331682e+01	-1.52766600e-01	1.26165673e+02
119797714.286	5.47940773e-02	-4.05921382e+00	-9.13339390e+01	-1.19394519e+01	-9.52395376e+01	2.91887203e+01	-1.55902209e-01	1.26048181e+02
120083285.714	5.21078983e-02	-4.09121289e+00	-9.58429329e+01	2.64156404e+01	-9.51258503e+01	-2.33100043e+01	-1.63087231e-01	1.25855863e+02
120368857.143	7.09459961e-02	-4.08649480e+00	-9.90675231e+01	-1.09164854e+02	-9.92799956e+01	3.72057020e+01	-1.60410051e-01	1.25716276e+02
120654428.571	6.08980688e-02	-4.09579936e+00	-1.03529780e+02	-5.35474875e+01	-1.06970818e+02	-3.12886907e+01	-1.47729111e-01	1.25608048e+02
120940000	5.31308132e-02	-4.08178858e+00	-9.44450474e+01	-4.46008109e+00	-9.41649426e+01	1.02310347e+02	-1.47343489e-01	1.25503553e+02
121225571.429	6.66809578e-02	-4.07354131e+00	-9.18374569e+01	-6.62315908e+01	-9.45396739e+01	4.77065012e+01	-1.54580288e-01	1.25420579e+02
121511142.857	6.75709349e-02	-4.02742407e+00	-9.23434199e+01	2.04771339e+01	-8.92861089e+01	-2.02362372e+01	-1.53860422e-01	1.25357038e+02
121796714.286	5.22120683e-02	-4.06298389e+00	-9.53566616e+01	4.34326899e+01	-9.75988782e+01	-9.17318359e+01	-1.67205211e-01	1.25219347e+02
122082285.714	4.99097049e-02	-4.11439619e+00	-8.90501004e+01	2.75723349e+01	-9.22698205e+01	2.21597687e+01	-1.84822270e-01	1.25123185e+02
122367857.143	4.97993856e-02	-4.09064290e+00	-9.27396059e+01	2.71950748e-01	-1.04497518e+02	-7.56571652e+01	-1.83889354e-01	1.25030651e+02
122653428.571	5.56808199e-02	-4.04341826e+00	-1.03181752e+02	6.55343331e+00	-1.04258901e+02	-2.52459371e+01	-1.84560286e-01	1.24863482e+02
122939000	5.30840748e-02	-4.10200271e+00	-8.55056349e+01	3.74589818e+00	-9.12940639e+01	2.35679848e+01	-1.88725532e-01	1.24818779e+02
123224571.429	6.16010966e-02	-4.18036906e+00	-8.69034689e+01	3.07972403e+01	-9.62126552e+01	-6.73359964e+00	-1.99959052e-01	1.24699994e+02
123510142.857	5.66533843e-02	-4.15627781e+00	-9.27317585e+01	4.82757989e+01	-9.86769307e+01	-1.26907469e+01	-2.00437115e-01	1.24569782e+02
123795714.286	5.25594371e-02	-4.08786585e+00	-9.02420717e+01	-5.30764072e+00	-9.12564237e+01	-2.38439720e+01	-1.99838068e-01	1.24499543e+02
124081285.714	5.73364598e-02	-4.04499460e+00	-8.89622649e+01	2.94132827e+01	-9.70014761e+01	-1.69592306e+01	-2.09652247e-01	1.24351117e+02
124366857.143	5.79348409e-02	-4.12568601e+00	-9.68342599e+01	-2.89483032e+01	-9.32676554e+01	-1.11375193e+00	-2.09173307e-01	1.24258350e+02
124652428.571	6.74053425e-02	-4.12700487e+00	-1.02736257e+02	-6.61042758e+01	-9.45945776e+01	-6.63130219e+01	-2.17854108e-01	1.24174924e+02
124938000	5.58423133e-02	-4.11338884e+00	-9.77813731e+01	2.11580431e+01	-9.00480928e+01	5.96642674e+01	-2.24930116e-01	1.24124293e+02
125223571.429	5.54894368e-02	-4.15215059e+00	-9.71541197e+01	-8.74059088e+00	-1.08446030e+02	1.79133260e+02	-2.22819844e-01	1.23972080e+02
125509142.857	7.12025329e-02	-4.07867557e+00	-8.62518699e+01	4.27827557e+00	-8.74958192e+01	1.69439873e+01	-2.14840463e-01	1.23846300e+02
125794714.286	6.66969523e-02	-4.13649760e+00	-1.10746670e+02	4.68958272e+01	-1.00006158e+02	-6.27366761e+01	-2.21920466e-01	1.23639689e+02
126080285.714	5.77594156e-02	-4.14531857e+00	-1.02102047e+02	4.31360399e+00	-1.01531228e+02	5.87818296e-01	-2.20180783e-01	1.23564092e+02
126365857.143	6.68735755e-02	-4.14377732e+00	-9.36765853e+01	2.41562689e+01	-9.06955180e+01	2.28241022e+01	-2.25584301e-01	1.23407044e+02
126651428.571	5.96643159e-02	-4.14992098e+00	-9.45633299e+01	4.00857704e+01	-8.97496337e+01	-4.21814482e+01	-2.22504345e-01	1.23267966e+02
126937000	6.18207669e-02	-4.19250217e+00	-9.14499528e+01	3.20644320e+01	-9.73507059e+01	1.82368286e+01	-2.20717109e-01	1.23187111e+02
127222571.429	5.22556012e-02	-4.19076815e+00	-9.83565092e+01	9.07551418e+00	-9.39276479e+01	4.96686409e+01	-2.22595728e-01	1.23067726e+02
127508142.857	5.24323145e-02	-4.17724703e+00	-8.71795359e+01	1.43116796e+01	-1.01053604e+02	-2.18405298e+01	-2.29079910e-01	1.22968809e+02
127793714.286	4.66803202e-02	-4.13999952e+00	-9.14254833e+01	-1.73017888e+01	-1.00265761e+02	4.56680853e+01	-2.30716236e-01	1.22846475e+02
128079285.714	4.71414434e-02	-4.15697060e+00	-1.08933391e+02	-8.85090235e+01	-9.88977274e+01	9.33437052e+01	-2.35741459e-01	1.22717327e+02
128364857.143	3.60741352e-02	-4.18731868e+00	-9.73705491e+01	2.64111839e+01	-9.36283613e+01	1.34776097e+01	-2.36321821e-01	1.22678882e+02
128650428.571	5.36703677e-02	-4.23013453e+00	-8.98207185e+01	-7.03223003e+00	-9.30309118e+01	-1.42548237e+01	-2.44987699e-01	1.22428672e+02
128936000	4.21880375e-02	-4.19508353e+00	-8.96504404e+01	1.85874192e+00	-9.12495729e+01	-7.37138010e+01	-2.36582985e-01	1.22356014e+02
129221571.429	3.61154416e-02	-4.22913417e+00	-9.53435064e+01	-5.00733198e+01	-9.43143505e+01	3.02509775e+01	-2.40577462e-01	1.22233248e+02
129507142.857	3.87791403e-02	-4.20832630e+00	-1.02422918e+02	1.45152547e+02	-9.09375811e+01	5.10558954e+01	-2.32350941e-01	1.22129346e+02
129792714.286	2.90974171e-02	-4.17425721e+00	-9.13270149e+01	-1.29180575e+02	-1.00140277e+02	-1.78314558e+01	-2.36149889e-01	1.22048585e+02
130078285.714	2.75974148e-02	-4.20865594e+00	-9.10819716e+01	-1.78609799e+01	-9.96810677e+01	-5.86663546e+01	-2.50616631e-01	1.21922883e+02
130363857.143	3.56566386e-02	-4.20509155e+00	-8.78988721e+01	-3.78371720e+01	-8.67177062e+01	-4.54471752e+01	-2.53514475e-01	1.21687947e+02
130649428.571	3.61617012e-02	-4.25425873e+00	-8.94646165e+01	-2.96237436e+01	-9.28671093e+01	-3.51231302e+01	-2.55526619e-01	1.21583245e+02
130935000	4.77761581e-02	-4.21460066e+00	-9.90716309e+01	-2.25320189e+01	-9.27488717e+01	-7.49588001e+01	-2.38484125e-01	1.21440344e+02
131220571.429	4.10581377e-02	-4.19884483e+00	-8.98846382e+01	1.57791171e+01	-9.26315515e+01	-2.28396673e+01	-2.43619617e-01	1.21305898e+02
131506142.857	4.67827940e-02	-4.21279437e+00	-8.96525409e+01	-1.52160416e+01	-9.78619409e+01	-2.60844739e+01	-2.40960796e-01	1.21147918e+02
131791714.286	4.12202527e-02	-4.28672151e+00	-8.86725556e+01	-4.05115610e+01	-9.00695619e+01	-5.72762571e+01	-2.58902762e-01	1.21019682e+02
132077285.714	4.53695045e-02	-4.26428102e+00	-9.35419282e+01	4.66823130e+01	-9.44907329e+01	-1.77748463e+01	-2.57879497e-01	1.20754044e+02
132362857.143	4.05745258e-02	-4.30109473e+00	-9.78555807e+01	-7.66922322e+01	-8.75046311e+01	-5.65547367e+01	-2.64904009e-01	1.20627015e+02
132648428.571	4.56070025e-02	-4.29389070e+00	-1.00375577e+02	-7.64042421e+00	-9.70433272e+01	-3.91483440e+01	-2.54690361e-01	1.20519075e+02
132934000	3.78011496e-02	-4.29399951e+00	-8.93049334e+01	-6.16255304e+01	-9.24496935e+01	1.10324598e+01	-2.54003219e-01	1.20383812e+02
133219571.429	4.22406030e-02	-4.30711352e+00	-9.46326184e+01	-1.87752247e+01	-9.37992710e+01	-1.91765877e+01	-2.57055763e-01	1.20204246e+02
133505142.857	2.92095375e-02	-4.34619705e+00	-9.01697198e+01	-2.38909991e+01	-1.07633689e+02	-4.13854375e+01	-2.61090437e-01	1.20131978e+02
133790714.286	3.13243956e-02	-4.32238951e+00	-8.61385091e+01	-2.37625444e+01	-9.61552590e+01	-1.01548448e+02	-2.65119634e-01	1.19972601e+02
134076285.714	2.73692537e-02	-4.33635510e+00	-9.39030242e+01	-1.77997387e+01	-8.79761916e+01	-4.20770866e+01	-2.61774607e-01	1.19766621e+02
134361857.143	2.13991483e-02	-4.36378911e+00	-9.26610731e+01	-7.13495327e+01	-9.07696387e+01	2.88320737e+01	-2.57676888e-01	1.19630369e+02
134647428.571	2.76515450e-02	-4.33592438e+00	-9.23861562e+01	-1.10787685e+01	-9.04171613e+01	8.10178219e+00	-2.46400606e-01	1.19566467e+02
134933000	3.62499855e-02	-4.34243727e+00	-9.65271798e+01	-1.38603661e+02	-8.90898776e+01	-3.46943392e+01	-2.36032036e-01	1.19424704e+02
135218571.429	3.35499454e-02	-4.35700780e+00	-9.80998285e+01	8.56761018e-01	-1.00939291e+02	-2.18646588e+01	-2.46470565e-01	1.19336694e+02
135504142.857	2.83839055e-02	-4.33580221e+00	-1.02219143e+02	-1.65946023e+00	-1.00955564e+02	1.78077528e+02	-2.59446186e-01	1.19228163e+02
135789714.286	2.47507560e-02	-4.38712282e+00	-9.96957649e+01	-9.12466513e+01	-9.88029732e+01	-8.06776461e+01	-2.54675158e-01	1.19109175e+02
136075285.714	2.93376647e-02	-4.32888219e+00	-1.01784440e+02	-1.58763924e+01	-9.29783820e+01	-3.98209474e+01	-2.51805861e-01	1.19013388e+02
136360857.143	2.16363734e-02	-4.41070662e+00	-8.96574976e+01	-2.06186567e+01	-9.31925804e+01	-7.79442982e+01	-2.36741796e-01	1.18742420e+02
136646428.571	2.36509349e-02	-4.44825570e+00	-9.30334083e+01	-7.92313947e+01	-9.17682006e+01	-5.39354009e+01	-2.52129286e-01	1.18612094e+02
136932000	2.37956588e-02	-4.41845525e+00	-9.82631293e+01	-3.85832190e+01	-9.78088380e+01	-4.16310330e+01	-2.61594081e-01	1.18459255e+02
137217571.429	2.62441203e-02	-4.39112841e+00	-9.47518136e+01	-2.83166707e+01	-8.98991686e+01	-8.26383441e+01	-2.53311571e-01	1.18276579e+02
137503142.857	2.08021922e-02	-4.37325681e+00	-8.89721002e+01	-7.85962061e+01	-9.43198060e+01	-4.09213473e+00	-2.75875440e-01	1.18135161e+02
137788714.286	2.09932713e-02	-4.42995516e+00	-9.14975911e+01	-7.42941620e+00	-8.61552723e+01	-9.04577436e+00	-2.68557538e-01	1.18027876e+02
138074285.714	1.72563831e-02	-4.47613370e+00	-8.70055450e+01	-2.33216955e+01	-9.17720885e+01	-9.73519230e+01	-2.68668787e-01	1.17923271e+02
138359857.143	1.72483738e-02	-4.48448822e+00	-9.36973423e+01	-3.37417800e+01	-9.50853162e+01	-2.24377252e+01	-2.73770215e-01	1.17872994e+02
138645428.571	2.07742173e-02	-4.51791248e+00	-8.73720986e+01	-7.03985634e+01	-9.04523396e+01	1.11676740e+01	-2.60135589e-01	1.17775605e+02
138931000	1.73227114e-02	-4.52297103e+00	-9.35849228e+01	-6.91076319e+01	-9.15782932e+01	-7.31812346e+00	-2.62335246e-01	1.17596526e+02
139216571.429	1.01816225e-02	-4.49875940e+00	-8.66388575e+01	-2.70072764e+01	-8.90743577e+01	-5.83592240e+00	-2.59252629e-01	1.17457717e+02
139502142.857	1.45921876e-02	-4.56034020e+00	-8.96397852e+01	-5.14647068e+01	-9.45617674e+01	-3.99639849e+01	-2.46253107e-01	1.17327962e+02
139787714.286	9.32517252e-03	-4.57902688e+00	-8.60450612e+01	-7.74680142e+01	-9.31776738e+01	-3.30292517e+01	-2.47760280e-01	1.17165084e+02
140073285.714	7.80391152e-03	-4.60061037e+00	-9.90243143e+01	-8.90832809e+01	-9.45350301e+01	-2.76098272e+01	-2.55042012e-01	1.17036170e+02
140358857.143	7.32135002e-03	-4.59026087e+00	-1.06998277e+02	3.80775243e+00	-8.95996040e+01	1.08808909e+00	-2.55747248e-01	1.16901327e+02
140644428.571	3.54509862e-03	-4.58297556e+00	-1.03605150e+02	-2.47883974e+01	-9.38728208e+01	-8.74459275e+01	-2.49128387e-01	1.16807643e+02
140930000	4.84057414e-03	-4.62167532e+00	-9.06155307e+01	-2.29399927e+01	-9.44290993e+01	-4.88183784e+01	-2.40903309e-01	1.16601322e+02
141215571.429	5.42196756e-03	-4.59861029e+00	-8.97194956e+01	-8.20097378e+01	-9.82870709e+01	8.95429288e+01	-2.49601198e-01	1.16547792e+02
141501142.857	6.28282348e-03	-4.62357389e+00	-9.35040202e+01	-3.35258250e+01	-9.77610823e+01	-2.65418487e+01	-2.64511905e-01	1.16452045e+02
141786714.286	3.95695209e-03	-4.63363013e+00	-8.82442389e+01	-7.17432542e+01	-9.18941359e+01	-6.53578734e+01	-2.60754446e-01	1.16329738e+02
142072285.714	4.69828366e-03	-4.66416428e+00	-8.97571626e+01	-7.87497710e+01	-9.01341788e+01	-5.65782451e+01	-2.59468230e-01	1.16195104e+02
142357857.143	3.55016448e-04	-4.68921562e+00	-9.04956526e+01	-6.43178827e+00	-9.21988655e+01	-7.23535885e+01	-2.53393665e-01	1.15993009e+02
142643428.571	2.26645675e-03	-4.70758548e+00	-9.63858805e+01	-9.75968543e+01	-8.94755181e+01	-6.25828640e+01	-2.56179594e-01	1.15899641e+02
142929000	1.94737410e-04	-4.69551926e+00	-8.93121562e+01	-8.42108747e+01	-9.34065343e+01	-4.05141506e+01	-2.45897174e-01	1.15626971e+02
143214571.429	5.00346328e-03	-4.73365132e+00	-9.95667043e+01	-3.23136392e+01	-8.82240782e+01	-4.13778820e+01	-2.46296155e-01	1.15541165e+02
143500142.857	-2.10980988e-03	-4.74554558e+00	-9.08963264e+01	-3.71642327e+01	-9.60051259e+01	-3.58798950e+01	-2.50401025e-01	1.15384122e+02
143785714.286	-4.83338867e-03	-4.76432874e+00	-9.31447929e+01	-3.98702881e+01	-9.00218000e+01	-5.48844763e+01	-2.45835974e-01	1.15261376e+02
144071285.714	-4.34689253e-03	-4.75125240e+00	-8.72460547e+01	-2.79780487e+01	-9.03687205e+01	-1.79476188e+01	-2.47332914e-01	1.15155282e+02
144356857.143	-3.00405245e-03	-4.77048695e+00	-9.08212553e+01	-8.62192377e+00	-9.23036203e+01	-4.00635284e+01	-2.46575322e-01	1.15083913e+02
144642428.571	-6.37659358e-03	-4.80440639e+00	-8.79499077e+01	-4.93378012e+01	-9.19804348e+01	-2.28526526e+01	-2.38831061e-01	1.14959447e+02
144928000	-3.20387455e-03	-4.81558832e+00	-9.18648698e+01	-8.91083235e+01	-9.43373947e+01	-1.07119220e+02	-2.44058487e-01	1.14851885e+02
145213571.429	-4.33693304e-03	-4.83112058e+00	-9.55268004e+01	-3.62745552e+01	-9.55190469e+01	-5.57645210e+01	-2.43797708e-01	1.14729699e+02
145499142.857	-4.78705258e-03	-4.82692993e+00	-8.96535838e+01	-8.54282431e+01	-9.08064298e+01	-6.53314692e+01	-2.53486178e-01	1.14570365e+02
145784714.286	-9.17710205e-03	-4.83843651e+00	-9.63246373e+01	-7.30484856e+01	-9.13613144e+01	-1.18294993e+02	-2.46345360e-01	1.14474800e+02
146070285.714	-7.39949529e-03	-4.85410885e+00	-9.30546591e+01	-6.64339006e+01	-9.73212399e+01	-1.10398418e+02	-2.41723421e-01	1.14275425e+02
146355857.143	-4.68902584e-03	-4.86916171e+00	-9.19202788e+01	-6.09824797e+01	-9.18166860e+01	-7.29807717e+01	-2.40474130e-01	1.14135032e+02
146641428.571	-5.04416460e-03	-4.86641560e+00	-8.99873774e+01	-9.56986962e+01	-9.24521941e+01	-5.69254852e+01	-2.27630225e-01	1.13933769e+02
146927000	-1.00948424e-02	-4.89160473e+00	-9.05584546e+01	-8.36920105e+01	-9.32091922e+01	-3.59273862e+01	-2.25992865e-01	1.13917577e+02
147212571.429	-1.11886585e-02	-4.91924601e+00	-9.76421135e+01	-1.16193034e+02	-9.28977051e+01	-6.06034512e+01	-2.19356998e-01	1.13825168e+02
147498142.857	-1.36079228e-02	-4.96232444e+00	-9.51951235e+01	-4.30061252e+01	-9.28353386e+01	-5.86362574e+01	-2.24922217e-01	1.13594740e+02
147783714.286	-1.53310210e-02	-5.02895461e+00	-8.75714338e+01	-8.17699796e+01	-9.48040644e+01	-6.94045519e+01	-2.17384755e-01	1.13516159e+02
148069285.714	-1.70245369e-02	-5.05726909e+00	-9.05690892e+01	-5.70170659e+01	-9.48927717e+01	-6.74065188e+01	-2.09015041e-01	1.13340718e+02
148354857.143	-1.70899578e-02	-5.04729985e+00	-9.71003105e+01	-9.60797691e+01	-9.48051065e+01	-5.96214577e+01	-2.14454450e-01	1.13202258e+02
148640428.571	-1.82920086e-02	-5.05230183e+00	-1.03787937e+02	-1.71554359e+02	-1.01512766e+02	-5.10098215e+01	-2.00704634e-01	1.13132792e+02
148926000	-1.60131361e-02	-5.08386167e+00	-9.69880045e+01	-1.21244025e+01	-9.06847844e+01	-9.72319110e+01	-2.00869554e-01	1.12987051e+02
149211571.429	-1.64135012e-02	-5.12751598e+00	-9.98515404e+01	-8.97934526e+01	-1.08629439e+02	-1.47239974e+02	-1.99986520e-01	1.12866024e+02
149497142.857	-1.71980150e-02	-5.15084884e+00	-8.98546977e+01	-6.52588514e+01	-9.61910644e+01	-4.18030362e+01	-1.84630909e-01	1.12698463e+02
149782714.286	-1.70454360e-02	-5.16780453e+00	-8.98419448e+01	-7.31076083e+01	-9.20254738e+01	-4.38679470e+01	-1.77474437e-01	1.12528057e+02
150068285.714	-1.86891423e-02	-5.19142401e+00	-1.00659931e+02	-1.37356048e+02	-9.77731206e+01	-7.74972335e+01	-1.71731114e-01	1.12414874e+02
150353857.143	-1.52292382e-02	-5.22125773e+00	-9.51266646e+01	-7.83832834e+01	-9.98898323e+01	-2.95018628e+01	-1.89639913e-01	1.12362305e+02
150639428.571	-1.74179556e-02	-5.22203791e+00	-9.18900029e+01	-2.35216560e+01	-9.61988275e+01	-1.26775256e+02	-1.80058077e-01	1.12216668e+02
150925000	-2.05481924e-02	-5.23246984e+00	-9.17718263e+01	-9.05855467e+01	-9.43595150e+01	-3.51405813e+01	-1.82216579e-01	1.12115306e+02
151210571.429	-1.87284285e-02	-5.26172106e+00	-9.02644972e+01	-4.39341656e+01	-9.31830630e+01	-6.70796620e+01	-1.79340486e-01	1.12022756e+02
151496142.857	-1.57872093e-02	-5.28617694e+00	-9.47209873e+01	-8.35319807e+01	-9.33516767e+01	-8.22040579e+01	-1.79386704e-01	1.11844977e+02
151781714.286	-1.70041516e-02	-5.31577665e+00	-9.10977734e+01	-6.80247265e+01	-9.82525069e+01	-1.09529310e+02	-1.86042025e-01	1.11772587e+02
152067285.714	-2.00534156e-02	-5.34575973e+00	-9.69071492e+01	-3.96051185e+01	-8.93827260e+01	-3.53121074e+01	-1.73314219e-01	1.11613489e+02
152352857.143	-1.78589621e-02	-5.39143360e+00	-9.15335688e+01	-9.38648981e+01	-9.89308483e+01	-1.01765834e+02	-1.70034368e-01	1.11472502e+02
152638428.571	-1.55019543e-02	-5.39208844e+00	-9.02525465e+01	-6.08270458e+01	-9.18940317e+01	-7.71884608e+01	-1.73490070e-01	1.11375842e+02
152924000	-1.43269230e-02	-5.37307647e+00	-9.43770398e+01	1.11528929e+01	-9.25585719e+01	-5.78359686e+01	-1.67953130e-01	1.11316407e+02
153209571.429	-1.39600718e-02	-5.39082599e+00	-9.24141521e+01	-1.13876388e+02	-9.49523054e+01	-4.22442987e+01	-1.63361578e-01	1.11167373e+02
153495142.857	-1.58981873e-02	-5.44414018e+00	-9.13968755e+01	-7.86106026e+01	-9.10977657e+01	-7.18881129e+01	-1.58148432e-01	1.11034945e+02
153780714.286	-1.27007056e-02	-5.46769162e+00	-9.58033494e+01	-5.27997467e+01	-8.88664891e+01	-7.11030197e+01	-1.47324867e-01	1.10856749e+02
154066285.714	-1.53315706e-02	-5.50331120e+00	-9.62624442e+01	-9.50610350e+01	-9.05240124e+01	-7.10383589e+01	-1.46017832e-01	1.10673070e+02
154351857.143	-1.51923517e-02	-5.49665715e+00	-9.97381788e+01	-1.77951286e+00	-9.30310421e+01	-4.81601654e+01	-1.41498595e-01	1.10557537e+02
154637428.571	-1.65143468e-02	-5.52601569e+00	-9.26806001e+01	-3.96728475e+01	-9.58378389e+01	-5.20450268e+01	-1.49465813e-01	1.10449734e+02
154923000	-1.33840395e-02	-5.53533644e+00	-9.52449770e+01	-9.65310058e+01	-9.53207226e+01	-9.83241073e+01	-1.65999058e-01	1.10330243e+02
155208571.429	-1.26556917e-02	-5.58737438e+00	-9.04467417e+01	-1.24616487e+02	-8.81305824e+01	-6.63245355e+01	-1.55993802e-01	1.10122285e+02
155494142.857	-1.37360338e-02	-5.61287938e+00	-9.40642265e+01	-5.94936801e+01	-9.45973024e+01	-7.14672694e+01	-1.58040923e-01	1.09916918e+02
155779714.286	-1.17780525e-02	-5.66409147e+00	-8.84313885e+01	-5.23950145e+01	-8.97389416e+01	-8.92812167e+01	-1.52694430e-01	1.09823439e+02
156065285.714	-1.21379635e-02	-5.69210301e+00	-1.01637073e+02	-8.91410712e+01	-9.31386505e+01	-6.05575097e+01	-1.47412881e-01	1.09814516e+02
156350857.143	-9.86010262e-03	-5.70636110e+00	-9.38648006e+01	-6.19455956e+01	-8.91802997e+01	-9.64660099e+01	-1.39667395e-01	1.09755259e+02
156636428.571	-1.03965343e-02	-5.71633144e+00	-9.07238026e+01	-5.65116774e+01	-9.47496911e+01	-8.31063075e+01	-1.41447922e-01	1.09623123e+02
156922000	-8.30212279e-03	-5.73305931e+00	-8.94567665e+01	-7.63710301e+01	-8.82371906e+01	-8.15465552e+01	-1.39827768e-01	1.09501184e+02
157207571.429	-8.26535534e-03	-5.76275895e+00	-9.13709547e+01	-7.17542510e+01	-9.48856823e+01	-9.25039566e+01	-1.39177477e-01	1.09362151e+02
157493142.857	-1.05214931e-03	-5.76635799e+00	-9.40178660e+01	-9.89578899e+01	-8.98347999e+01	-7.85269797e+01	-1.33174016e-01	1.09180326e+02
157778714.286	-5.89516450e-03	-5.83654604e+00	-9.27857911e+01	-5.73859247e+01	-9.44623174e+01	-1.00045254e+02	-1.35660959e-01	1.09050697e+02
158064285.714	-2.11749579e-03	-5.84218473e+00	-9.38582023e+01	-7.92443329e+01	-8.88825502e+01	-7.42828800e+01	-1.32376201e-01	1.08962581e+02
158349857.143	-1.64499838e-03	-5.86596854e+00	-8.88242571e+01	-1.10374229e+02	-9.02993477e+01	-8.42041945e+01	-1.34742279e-01	1.08817649e+02
158635428.571	-5.53689413e-04	-5.85176893e+00	-8.95570502e+01	-8.28993216e+01	-8.95101865e+01	-8.18884357e+01	-1.34109019e-01	1.08758524e+02
158921000	-6.53344465e-03	-5.88039490e+00	-9.48220281e+01	-7.11050823e+01	-9.28633312e+01	-5.14036612e+01	-1.35506394e-01	1.08608765e+02
159206571.429	2.55605403e-03	-5.91020632e+00	-9.70688120e+01	-6.60893262e+01	-9.01346533e+01	-7.23875664e+01	-1.36948060e-01	1.08532553e+02
159492142.857	-7.06727078e-04	-5.92708543e+00	-9.13578414e+01	-6.10932931e+01	-8.79075944e+01	-1.00899003e+02	-1.38873962e-01	1.08461426e+02
159777714.286	-2.21563722e-03	-5.93370508e+00	-9.20096090e+01	-7.12699259e+01	-9.27654637e+01	-7.59843671e+01	-1.42347496e-01	1.08398622e+02
160063285.714	-1.09976743e-03	-5.98182811e+00	-1.00756261e+02	-1.30821370e+02	-9.00090164e+01	-7.78933253e+01	-1.42892692e-01	1.08350433e+02
160348857.143	-1.39050820e-03	-5.99330155e+00	-9.18837011e+01	-7.27698606e+01	-9.90765539e+01	-8.04533404e+01	-1.51216726e-01	1.08180973e+02
160634428.571	2.07189107e-03	-5.98063272e+00	-9.03283611e+01	-8.16357108e+01	-9.08232606e+01	-9.34418283e+01	-1.53807887e-01	1.07978488e+02
160920000	3.23306539e-03	-5.98906574e+00	-9.31675553e+01	-6.86313492e+01	-8.96907079e+01	-7.36111283e+01	-1.49499848e-01	1.07857901e+02
161205571.429	5.91385483e-04	-5.99172923e+00	-9.50364522e+01	-7.87644667e+01	-9.12607188e+01	-8.22686842e+01	-1.43315227e-01	1.07682515e+02
161491142.857	4.03652783e-03	-6.03392062e+00	-9.14850603e+01	-7.94730179e+01	-9.00280710e+01	-9.61504802e+01	-1.42388200e-01	1.07575943e+02
161776714.286	5.56623255e-03	-6.08794994e+00	-8.83684051e+01	-8.53870977e+01	-9.21553636e+01	-5.95940943e+01	-1.38096665e-01	1.07506495e+02
162062285.714	3.60238787e-03	-6.08320702e+00	-9.03952409e+01	-6.99664944e+01	-9.54207725e+01	-3.94792350e+01	-1.39589621e-01	1.07417120e+02
162347857.143	4.40032207e-03	-6.10912968e+00	-9.39496988e+01	-1.02712946e+02	-9.60688976e+01	-8.27453536e+01	-1.37564167e-01	1.07308610e+02
162633428.571	1.28542685e-02	-6.09682555e+00	-8.56600148e+01	-9.56205755e+01	-1.02815439e+02	-5.17726174e+01	-1.37855309e-01	1.07186361e+02
162919000	7.85069220e-03	-6.11373639e+00	-9.18390455e+01	-6.82310142e+01	-8.95820476e+01	-7.94334835e+01	-1.26648472e-01	1.07040125e+02
163204571.429	7.40392364e-03	-6.13802672e+00	-8.92422591e+01	-9.25200290e+01	-9.40295334e+01	-1.08734071e+02	-1.15386153e-01	1.06901988e+02
163490142.857	1.30627481e-02	-6.15882852e+00	-9.16265030e+01	-1.18500379e+02	-8.86632033e+01	-1.16452636e+02	-1.11646655e-01	1.06783053e+02
163775714.286	1.20464886e-02	-6.17997922e+00	-8.90589376e+01	-1.17087733e+02	-9.24535477e+01	-6.02695003e+01	-1.09790229e-01	1.06663164e+02
164061285.714	1.35395703e-02	-6.18632467e+00	-9.04313074e+01	-1.24018023e+02	-9.07093779e+01	-9.66555805e+01	-1.06453187e-01	1.06549616e+02
164346857.143	1.03757953e-02	-6.19102671e+00	-8.82366016e+01	-1.01366131e+02	-9.07504082e+01	-9.51626155e+01	-1.01581660e-01	1.06469457e+02
164632428.571	1.39173004e-02	-6.20047804e+00	-9.30457932e+01	-9.25215292e+01	-9.84511438e+01	-9.70237360e+01	-1.05246727e-01	1.06388014e+02
164918000	1.33443534e-02	-6.19853576e+00	-9.18313247e+01	-1.14487009e+02	-9.14589895e+01	-9.41863766e+01	-1.02623771e-01	1.06216962e+02
165203571.429	1.54768805e-02	-6.21268306e+00	-8.97917209e+01	-1.19405819e+02	-9.12835624e+01	-1.13897195e+02	-1.02048777e-01	1.06030098e+02
165489142.857	1.32865157e-02	-6.24460347e+00	-8.82852838e+01	-1.09989246e+02	-8.71843810e+01	-1.01270014e+02	-1.09330629e-01	1.05967627e+02
165774714.286	8.40125193e-03	-6.28064226e+00	-8.70605042e+01	-1.11032919e+02	-8.84378837e+01	-8.84249176e+01	-1.11240703e-01	1.05904182e+02
166060285.714	1.81949342e-02	-6.29838905e+00	-8.75681686e+01	-8.29938005e+01	-9.35615222e+01	-1.04706436e+02	-1.16446840e-01	1.05800421e+02
166345857.143	1.77416910e-02	-6.32996168e+00	-9.03434703e+01	-1.25956079e+02	-9.23634191e+01	-8.23331162e+01	-1.15605828e-01	1.05609998e+02
166631428.571	2.17512514e-02	-6.35416319e+00	-8.48054283e+01	-1.33526152e+02	-8.80667891e+01	-1.05669938e+02	-1.11148775e-01	1.05465178e+02
166917000	1.28503904e-02	-6.34817087e+00	-9.04476394e+01	-9.59476023e+01	-8.78282832e+01	-1.10881543e+02	-1.12285005e-01	1.05309291e+02
167202571.429	1.99957622e-02	-6.38198612e+00	-9.12676007e+01	-1.16571596e+02	-9.03077644e+01	-1.27169747e+02	-1.12512126e-01	1.05207308e+02
167488142.857	2.47671384e-02	-6.40791787e+00	-8.61338824e+01	-9.72855362e+01	-8.81997854e+01	-1.20825637e+02	-1.10029284e-01	1.05120176e+02
167773714.286	2.00686652e-02	-6.45149836e+00	-8.72721361e+01	-9.39464774e+01	-9.00076387e+01	-1.23975661e+02	-1.14892196e-01	1.04986162e+02
168059285.714	3.03448884e-02	-6.37941760e+00	-8.78688092e+01	-1.23422966e+02	-8.69162258e+01	-1.23736816e+02	-1.16100255e-01	1.04846638e+02
168344857.143	3.55670704e-02	-6.41469508e+00	-8.42606367e+01	-1.39665074e+02	-8.75086285e+01	-1.17959557e+02	-1.12305684e-01	1.04738430e+02
168630428.571	3.40088206e-02	-6.40294220e+00	-8.59459900e+01	-1.21917119e+02	-8.93128353e+01	-1.21653628e+02	-1.18195712e-01	1.04605661e+02
168916000	2.64630745e-02	-6.45878580e+00	-8.83308018e+01	-1.44434088e+02	-8.75803741e+01	-1.49132703e+02	-1.23949286e-01	1.04506266e+02
169201571.429	3.71480302e-02	-6.48812521e+00	-8.57076826e+01	-1.34937220e+02	-8.67938779e+01	-1.19293517e+02	-1.22602935e-01	1.04387829e+02
169487142.857	3.09233954e-02	-6.49799334e+00	-8.36319742e+01	-1.35241686e+02	-8.72763501e+01	-1.42619306e+02	-1.29475344e-01	1.04198230e+02
169772714.286	3.32862932e-02	-6.49571591e+00	-8.35549847e+01	-1.24114698e+02	-8.71514171e+01	-1.34298682e+02	-1.28468828e-01	1.04045458e+02
170058285.714	2.98557981e-02	-6.52859333e+00	-8.46795397e+01	-1.62212487e+02	-8.69800080e+01	-1.37691951e+02	-1.18076589e-01	1.03945797e+02
170343857.143	2.99923685e-02	-6.53550066e+00	-8.78324470e+01	-1.52944534e+02	-8.88665765e+01	-1.29157970e+02	-1.12259759e-01	1.03907575e+02
170629428.571	3.76725369e-02	-6.55486512e+00	-8.52065287e+01	-1.45580017e+02	-8.84520773e+01	-1.33649751e+02	-1.19913155e-01	1.03855089e+02
170915000	3.31612387e-02	-6.53934232e+00	-8.54023198e+01	-1.54443441e+02	-8.95735731e+01	-1.41445323e+02	-1.20625080e-01	1.03775837e+02
171200571.429	2.25527298e-02	-6.56945474e+00	-8.58320299e+01	-1.51470963e+02	-8.69473843e+01	-1.44718275e+02	-1.27260384e-01	1.03684111e+02
171486142.857	3.14002377e-02	-6.58928239e+00	-8.88849586e+01	-1.45313911e+02	-8.54086016e+01	-1.55558348e+02	-1.34349614e-01	1.03513094e+02
171771714.286	3.58189562e-02	-6.60787685e+00	-8.79156746e+01	-1.64735753e+02	-8.52484817e+01	-1.68415004e+02	-1.40649690e-01	1.03409809e+02
172057285.714	3.77710315e-02	-6.64164925e+00	-8.49084248e+01	-1.63441555e+02	-8.61954621e+01	1.75475545e+02	-1.37509523e-01	1.03264172e+02
172342857.143	3.97295412e-02	-6.64803345e+00	-8.43651527e+01	-1.54648987e+02	-9.16276419e+01	-1.71010822e+02	-1.38463540e-01	1.03170789e+02
172628428.571	3.80159744e-02	-6.71992006e+00	-8.73369574e+01	-1.68989429e+02	-8.59492808e+01	-1.70459437e+02	-1.39542769e-01	1.03077843e+02
172914000	4.10796315e-02	-6.65411834e+00	-8.66965902e+01	1.66346614e+02	-8.70425593e+01	-1.76073311e+02	-1.51027993e-01	1.02966032e+02
173199571.429	3.17452467e-02	-6.75975295e+00	-9.07914552e+01	-1.58102215e+02	-8.30561899e+01	-1.67843663e+02	-1.44772579e-01	1.02792237e+02
173485142.857	3.05592392e-02	-6.71228001e+00	-9.03287475e+01	1.39588014e+02	-8.79067196e+01	1.55465884e+02	-1.42401960e-01	1.02695605e+02
173770714.286	4.04715987e-02	-6.68321176e+00	-8.89808656e+01	1.50447940e+02	-8.70648140e+01	-1.69111141e+02	-1.44888865e-01	1.02590420e+02
174056285.714	3.92642121e-02	-6.73319620e+00	-9.06966279e+01	1.57520487e+02	-8.92099008e+01	1.47402350e+02	-1.57125146e-01	1.02482750e+02
174341857.143	3.76026063e-02	-6.74075759e+00	-8.70508305e+01	1.74723972e+02	-8.83832196e+01	1.58788050e+02	-1.56681216e-01	1.02402562e+02
174627428.571	3.07986247e-02	-6.73824460e+00	-8.91514383e+01	1.77810092e+02	-8.83532667e+01	-1.76200303e+02	-1.50072032e-01	1.02279440e+02
174913000	2.54024184e-02	-6.79064491e+00	-8.90057022e+01	-1.73329604e+02	-8.76939225e+01	1.72375016e+02	-1.54111588e-01	1.02155554e+02
175198571.429	2.30733080e-02	-6.71989719e+00	-9.10832601e+01	1.51112442e+02	-8.84834781e+01	-1.75987092e+02	-1.59258047e-01	1.02048606e+02
175484142.857	3.52134506e-02	-6.73169330e+00	-8.76273995e+01	1.52170515e+02	-8.78069039e+01	1.78879993e+02	-1.53963784e-01	1.01942614e+02
175769714.286	3.53653572e-02	-6.71853326e+00	-9.06285614e+01	1.09308195e+02	-9.12904911e+01	1.58639917e+02	-1.58891177e-01	1.01810745e+02
176055285.714	4.72928427e-02	-6.81269665e+00	-9.49752592e+01	1.55155946e+02	-9.26932843e+01	1.41738235e+02	-1.67291394e-01	1.01703400e+02
176340857.143	3.90478035e-02	-6.84317076e+00	-9.67751227e+01	-1.42189276e+02	-9.18819770e+01	1.69094187e+02	-1.62470326e-01	1.01521725e+02
176626428.571	4.60988054e-02	-6.83115464e+00	-9.12079719e+01	9.97474511e+01	-8.99361497e+01	-1.73078767e+02	-1.68457287e-01	1.01384944e+02
176912000	4.01666660e-02	-6.82135529e+00	-1.09323271e+02	-4.50271807e+01	-8.95416139e+01	1.57955197e+02	-1.61699745e-01	1.01275644e+02
177197571.429	3.94980520e-02	-6.82190145e+00	-8.64177048e+01	1.68123665e+02	-8.84660670e+01	1.31592111e+02	-1.61001367e-01	1.01103215e+02
177483142.857	4.71858733e-02	-6.80319595e+00	-8.78018505e+01	1.31894628e+02	-9.34192366e+01	1.73575107e+02	-1.56273665e-01	1.01003728e+02
177768714.286	4.03381945e-02	-6.81589987e+00	-8.82146824e+01	1.49416470e+02	-8.99314268e+01	1.49794753e+02	-1.68916760e-01	1.00828122e+02
178054285.714	4.61655314e-02	-6.83192827e+00	-9.24199112e+01	-1.73361401e+02	-9.47684085e+01	1.50446222e+02	-1.68045426e-01	1.00648167e+02
178339857.143	3.95073975e-02	-6.84912109e+00	-8.98794572e+01	1.58932617e+02	-9.81180598e+01	1.64615407e+02	-1.66608091e-01	1.00681294e+02
178625428.571	4.64510215e-02	-6.89540939e+00	-9.13962515e+01	1.23814029e+02	-9.83499213e+01	1.23155992e+02	-1.82102451e-01	1.00602990e+02
178911000	3.33935944e-02	-6.89465268e+00	-9.97125440e+01	1.03389045e+02	-9.14300692e+01	1.42826199e+02	-1.84382017e-01	1.00536012e+02
179196571.429	3.27274339e-02	-6.83344501e+00	-9.03662984e+01	1.20139004e+02	-9.33288404e+01	1.76474838e+02	-2.02198217e-01	1.00361806e+02
179482142.857	4.32264122e-02	-6.89454380e+00	-9.00151054e+01	1.29361732e+02	-9.33937600e+01	1.36390352e+02	-2.04641514e-01	1.00216122e+02
179767714.286	3.61194530e-02	-6.87301436e+00	-8.35428068e+01	1.22806221e+02	-8.65079063e+01	1.09233389e+02	-2.04869733e-01	1.00184851e+02
180053285.714	4.58863304e-02	-6.97529150e+00	-8.90095165e+01	1.43772856e+02	-1.01201320e+02	1.53866285e+02	-2.16220418e-01	1.00165557e+02
180338857.143	3.81943318e-02	-6.94392465e+00	-8.85055366e+01	1.29114421e+02	-9.42305263e+01	1.27790502e+02	-2.15391649e-01	9.99993504e+01
180624428.571	4.74834962e-02	-6.98977819e+00	-8.98723798e+01	1.24916989e+02	-9.26166376e+01	7.95633192e+01	-2.10114357e-01	9.98739892e+01
180910000	4.78761054e-02	-6.99917814e+00	-9.08049766e+01	-1.72727666e+02	-8.75137365e+01	1.59912546e+02	-2.15280215e-01	9.97763979e+01
181195571.429	4.43388062e-02	-6.98166933e+00	-9.18723776e+01	1.40237455e+02	-9.71880876e+01	-1.37056725e+02	-2.21073830e-01	9.95774315e+01
181481142.857	4.44786792e-02	-6.97546765e+00	-8.64116557e+01	1.44352056e+02	-9.17061446e+01	1.26939035e+02	-2.29300080e-01	9.94099328e+01
181766714.286	4.55991938e-02	-6.98195018e+00	-9.43680324e+01	1.59535106e+02	-1.07674391e+02	-5.33098589e+01	-2.13514821e-01	9.93431813e+01
182052285.714	4.13291594e-02	-7.00893704e+00	-9.51873340e+01	1.20053831e+02	-8.99141842e+01	9.96182118e+01	-2.30462657e-01	9.91957985e+01
182337857.143	5.15170960e-02	-7.03732712e+00	-9.93253436e+01	9.75575815e+01	-9.21493249e+01	1.33171584e+02	-2.31976359e-01	9.90394720e+01
182623428.571	4.68064401e-02	-7.02039087e+00	-9.29641047e+01	-1.16874259e+02	-9.55082003e+01	1.21334069e+02	-2.50577212e-01	9.89695030e+01
182909000	5.09281813e-02	-7.09130148e+00	-8.96754239e+01	1.26850955e+02	-9.99508044e+01	9.23967397e+01	-2.40255912e-01	9.88390139e+01
183194571.429	4.56583535e-02	-7.02604998e+00	-8.48787242e+01	1.46449873e+02	-9.83625869e+01	9.43593350e+01	-2.40035960e-01	9.87296664e+01
183480142.857	4.84846596e-02	-6.98931451e+00	-8.71038407e+01	9.00009595e+01	-8.79463196e+01	1.17515413e+02	-2.45912689e-01	9.86226782e+01
183765714.286	4.06123031e-02	-7.03992258e+00	-9.77501277e+01	1.45668291e+02	-9.89117278e+01	1.11195409e+02	-2.34267088e-01	9.84935792e+01
184051285.714	4.39511361e-02	-7.05401802e+00	-8.71307082e+01	9.95185544e+01	-9.97328732e+01	8.53505503e+01	-2.31656895e-01	9.84442799e+01
184336857.143	3.90822656e-02	-7.12318904e+00	-8.82857467e+01	-4.67566350e+00	-9.67624026e+01	1.05094943e+02	-2.36285835e-01	9.83432605e+01
184622428.571	4.86127719e-02	-7.11021681e+00	-8.56148085e+01	1.21874078e+02	-9.53354032e+01	9.37706073e+01	-2.29644392e-01	9.81537607e+01
184908000	3.74934922e-02	-7.09658074e+00	-1.02518131e+02	1.13349160e+02	-9.04738862e+01	1.72045716e+02	-2.41011776e-01	9.79411203e+01
185193571.429	4.46638601e-02	-7.12366186e+00	-8.91981488e+01	9.15756021e+01	-8.59397203e+01	1.40789773e+02	-2.37418806e-01	9.78113993e+01
185479142.857	4.22254004e-02	-7.14293497e+00	-8.70398701e+01	1.59763303e+02	-9.49028683e+01	4.18474106e+01	-2.37758763e-01	9.76728395e+01
185764714.286	5.14144184e-02	-7.06926984e+00	-8.99102077e+01	1.10188178e+02	-9.67336880e+01	7.64541379e+01	-2.50433775e-01	9.75537592e+01
186050285.714	5.67322566e-02	-7.11700684e+00	-9.31975041e+01	1.47733355e+02	-9.55570701e+01	1.66575340e+02	-2.39688842e-01	9.75191617e+01
186335857.143	5.33767989e-02	-7.11376796e+00	-9.61633743e+01	8.27290295e+01	-1.00085959e+02	-9.69842712e+01	-2.41496903e-01	9.73578013e+01
186621428.571	3.71013841e-02	-7.12809506e+00	-9.08656281e+01	7.37746017e+01	-9.23384968e+01	9.21437001e+01	-2.48663436e-01	9.72384554e+01
186907000	5.01852614e-02	-7.12518078e+00	-9.82416566e+01	1.28123847e+02	-9.40571496e+01	1.95325292e+01	-2.44609874e-01	9.71128866e+01
187192571.429	4.31272589e-02	-7.21926592e+00	-9.06961280e+01	1.13988973e+02	-9.25835903e+01	5.59803174e+01	-2.44985545e-01	9.69559756e+01
187478142.857	4.17305419e-02	-7.16647037e+00	-9.42569854e+01	9.52523338e+01	-9.49876172e+01	-1.63227866e+02	-2.48603133e-01	9.68439456e+01
187763714.286	4.15605827e-02	-7.18276623e+00	-9.51331583e+01	6.43575056e+01	-9.42707770e+01	8.44404292e+01	-2.51900072e-01	9.67230856e+01
188049285.714	3.94939044e-02	-7.24315186e+00	-9.19703485e+01	1.00509220e+02	-9.30698493e+01	9.61396037e+01	-2.68772891e-01	9.65637013e+01
188334857.143	4.59933635e-02	-7.21208774e+00	-9.19377902e+01	-1.34620043e+02	-9.44645141e+01	9.21370054e+01	-2.59304673e-01	9.64853686e+01
188620428.571	4.42515023e-02	-7.21809208e+00	-9.71785840e+01	-8.95773857e+01	-1.09334500e+02	1.46121449e+02	-2.73894892e-01	9.63126572e+01
188906000	4.41225309e-02	-7.27547715e+00	-9.03783353e+01	-1.47400143e+02	-9.96311284e+01	1.06673189e+02	-2.71348961e-01	9.62317446e+01
189191571.429	3.61719763e-02	-7.24755665e+00	-9.49278041e+01	2.58528823e+01	-1.04856872e+02	1.73702896e+02	-2.82641369e-01	9.60012131e+01
189477142.857	3.32640376e-02	-7.21133049e+00	-9.50688179e+01	5.21154683e+01	-9.65126952e+01	1.02207760e+02	-2.96592611e-01	9.58354863e+01
189762714.286	2.52164517e-02	-7.24499608e+00	-8.80070712e+01	8.47964640e+01	-9.55181341e+01	1.03588043e+02	-2.93011270e-01	9.56569243e+01
190048285.714	2.93709674e-02	-7.20594684e+00	-1.00575028e+02	-8.38378635e+01	-1.07537655e+02	-1.26995162e+02	-2.89032690e-01	9.56567174e+01
190333857.143	2.58700584e-02	-7.21673651e+00	-9.23429737e+01	1.61695189e+01	-9.59643498e+01	4.16526876e+01	-2.80488505e-01	9.55049710e+01
190619428.571	2.66629989e-02	-7.19999799e+00	-1.00581719e+02	-2.18451690e+01	-8.60916500e+01	6.97777781e+01	-2.80584742e-01	9.52994866e+01
190905000	2.87036621e-02	-7.31246395e+00	-8.93439421e+01	1.53716676e+02	-1.03248311e+02	4.53175000e+01	-2.88409347e-01	9.51840077e+01
191190571.429	2.44383538e-02	-7.24187895e+00	-1.04918791e+02	4.27325648e+01	-9.02887884e+01	1.37272400e+02	-2.86598876e-01	9.50676356e+01
191476142.857	3.22979898e-02	-7.25952443e+00	-9.31886382e+01	1.35822828e+02	-9.26634195e+01	1.94758619e+01	-2.86071646e-01	9.49480145e+01
191761714.286	2.19965534e-02	-7.29895327e+00	-9.19446357e+01	7.96683694e+01	-9.85835868e+01	5.03764921e+01	-2.81571424e-01	9.47877476e+01
192047285.714	3.32457521e-02	-7.25709615e+00	-9.59814561e+01	2.76679032e+01	-8.93217124e+01	1.45969327e+01	-2.86669132e-01	9.46438173e+01
192332857.143	2.55031136e-02	-7.27529413e+00	-9.34220008e+01	3.66707996e+01	-1.01693889e+02	-2.37345147e+01	-2.79869846e-01	9.44508526e+01
192618428.571	2.32521344e-02	-7.35039106e+00	-9.05288821e+01	-9.55472104e+00	-9.92985087e+01	6.18242736e+01	-2.75713419e-01	9.43373991e+01
192904000	1.81145679e-02	-7.34339633e+00	-9.54311875e+01	-1.38670836e+01	-9.04111726e+01	1.03773760e+02	-2.77742800e-01	9.42088972e+01
193189571.429	1.56374419e-02	-7.31935246e+00	-8.86491251e+01	6.24175546e+01	-9.03455900e+01	8.38471487e+01	-2.90054250e-01	9.40801736e+01
193475142.857	1.77793620e-02	-7.28400540e+00	-8.94069790e+01	-1.15511651e+01	-9.48730415e+01	1.31566938e+02	-2.78368964e-01	9.38406530e+01
193760714.286	2.17217241e-02	-7.32599507e+00	-8.69753371e+01	1.21006034e+01	-9.37845124e+01	4.47049696e+01	-2.80416106e-01	9.37884377e+01
194046285.714	2.11874411e-02	-7.36658314e+00	-1.05888169e+02	1.74591675e+01	-9.99519291e+01	2.29618248e+01	-2.89197300e-01	9.35776979e+01
194331857.143	1.89254869e-02	-7.35242422e+00	-9.23044403e+01	4.25472538e+01	-9.78387317e+01	-8.70748824e+00	-2.84798378e-01	9.34609159e+01
194617428.571	1.66101255e-02	-7.32648003e+00	-1.02105720e+02	-1.22406905e+02	-9.10546257e+01	-1.50684272e+01	-2.84987919e-01	9.33932210e+01
194903000	1.88218856e-02	-7.36756710e+00	-9.01934718e+01	4.27044984e+01	-9.49274600e+01	6.28720759e+01	-2.83369685e-01	9.32910254e+01
195188571.429	1.42568902e-02	-7.36947217e+00	-9.12605778e+01	4.30024783e+01	-9.94387635e+01	8.62051047e+01	-2.91168927e-01	9.31274578e+01
195474142.857	2.13796567e-02	-7.36729248e+00	-1.05509552e+02	2.20521834e+01	-9.20715028e+01	2.21621697e+01	-2.92290925e-01	9.29254103e+01
195759714.286	1.06570371e-02	-7.41677412e+00	-9.98526809e+01	3.04895435e+01	-9.32126320e+01	6.28649145e+01	-2.86322987e-01	9.28377660e+01
196045285.714	1.73986074e-02	-7.40416641e+00	-9.28374487e+01	3.03385154e+01	-1.00758444e+02	9.90073107e+00	-2.73637458e-01	9.27646500e+01
196330857.143	1.58498196e-02	-7.43147164e+00	-9.26968084e+01	6.29088053e+01	-8.71219686e+01	-1.22103364e+01	-2.71397718e-01	9.25300584e+01
196616428.571	2.45798220e-02	-7.43517405e+00	-8.98984169e+01	-4.89544213e+00	-9.84926824e+01	-4.45460563e+01	-2.72358213e-01	9.22780918e+01
196902000	2.21253389e-02	-7.42646443e+00	-9.41910818e+01	1.14079118e+02	-9.27615784e+01	-2.60292490e+01	-2.71910631e-01	9.22444616e+01
197187571.429	9.20929351e-03	-7.42398357e+00	-1.05978864e+02	-2.40529922e+01	-9.02239632e+01	-3.05115379e+01	-2.80109766e-01	9.21821771e+01
197473142.857	8.22430343e-03	-7.43246286e+00	-9.60268497e+01	1.51628777e+02	-8.96040066e+01	-1.63464029e+01	-2.84439384e-01	9.20850721e+01
197758714.286	7.87274794e-03	-7.45854939e+00	-9.44799235e+01	4.25996554e+01	-1.10633937e+02	-1.46540088e+02	-2.72519103e-01	9.19023545e+01
198044285.714	6.95967119e-03	-7.48317459e+00	-9.19770854e+01	-4.07740064e+01	-9.01121523e+01	7.73514153e+00	-2.69443562e-01	9.16320827e+01
198329857.143	-4.31970627e-04	-7.49029899e+00	-8.69381755e+01	5.13898854e-01	-9.25672353e+01	-1.99463407e+01	-2.63342081e-01	9.16368740e+01
198615428.571	2.70754149e-03	-7.47315962e+00	-9.51082948e+01	8.20148534e+00	-9.75617004e+01	-7.92372543e+00	-2.56192785e-01	9.15625951e+01
198901000	9.07757196e-04	-7.47211935e+00	-9.02767016e+01	8.19132668e+00	-9.30609043e+01	-6.99660176e+00	-2.65400161e-01	9.13128482e+01
199186571.429	2.54073735e-03	-7.47544649e+00	-9.82791245e+01	2.84107917e+01	-9.07085899e+01	-1.55043698e+01	-2.61680908e-01	9.12190335e+01
199472142.857	2.96724878e-03	-7.50301715e+00	-9.72634179e+01	6.73332843e+01	-9.50721958e+01	-3.53590632e+01	-2.50531515e-01	9.09997119e+01
199757714.286	6.11981049e-03	-7.48863535e+00	-9.34107232e+01	-1.45289836e+02	-9.48134001e+01	-8.43266687e+00	-2.51632223e-01	9.09407379e+01
200043285.714	1.31189174e-03	-7.48129441e+00	-9.32080002e+01	7.88946704e+00	-9.91930143e+01	1.20288082e+01	-2.64063252e-01	9.08088219e+01
200328857.143	6.09825469e-04	-7.53352935e+00	-1.04039496e+02	-3.56577970e+01	-9.28271493e+01	-1.84065972e+01	-2.65008531e-01	9.06684070e+01
200614428.571	-1.13040323e-03	-7.54983134e+00	-9.19617831e+01	-2.43173949e+01	-9.58386303e+01	-2.99563159e+01	-2.75979725e-01	9.05492439e+01
200900000	-4.32431528e-03	-7.52296555e+00	-9.44947365e+01	-4.43957367e+01	-9.27769824e+01	-5.23463059e+01	-2.79604393e-01	9.03280818e+01
201185571.429	-1.00012020e-02	-7.53715022e+00	-9.56764427e+01	-1.98409610e+01	-9.75717717e+01	-2.54577181e+01	-2.80043485e-01	9.01710877e+01
201471142.857	-1.33583887e-02	-7.54742276e+00	-8.94877419e+01	-3.52144202e+01	-9.11717708e+01	-3.26865185e+01	-2.75168721e-01	9.01212626e+01
201756714.286	-1.56361481e-02	-7.55018715e+00	-8.83557198e+01	-1.19456592e+01	-8.72249453e+01	-3.31026600e+01	-2.65615884e-01	8.99737437e+01
202042285.714	-1.64196146e-02	-7.59328578e+00	-9.07679299e+01	-7.16127657e+01	-9.28498582e+01	-7.87371269e+01	-2.60455966e-01	8.98928411e+01
202327857.143	-2.46132489e-02	-7.59584293e+00	-8.54540493e+01	-2.67966924e+01	-9.45267560e+01	-3.84552497e+01	-2.61052321e-01	8.97316461e+01
202613428.571	-2.49307724e-02	-7.60905233e+00	-8.58871797e+01	-2.59272389e+01	-9.22994014e+01	-3.65283827e+01	-2.59484982e-01	8.96147887e+01
202899000	-2.50492050e-02	-7.60103703e+00	-8.89958447e+01	-5.99007310e+01	-9.11547949e+01	-5.12858903e+01	-2.44107997e-01	8.94787034e+01
203184571.429	-2.27547205e-02	-7.60349679e+00	-8.75304116e+01	-4.09209580e+01	-8.89381782e+01	-3.49035406e+01	-2.35529547e-01	8.93960739e+01
203470142.857	-2.32593225e-02	-7.58244943e+00	-8.32019861e+01	-2.46161482e+01	-8.84583685e+01	-8.72841695e+01	-2.40140437e-01	8.92806348e+01
203755714.286	-2.66270854e-02	-7.56716441e+00	-8.35376038e+01	-5.39535562e+01	-8.58142788e+01	-4.66628212e+01	-2.39719183e-01	8.91629565e+01
204041285.714	-3.06455637e-02	-7.57984208e+00	-8.45538017e+01	-6.51389970e+01	-8.55772670e+01	-6.02503185e+01	-2.46309966e-01	8.89906516e+01
204326857.143	-3.04583906e-02	-7.60421079e+00	-8.30453926e+01	-6.06569633e+01	-8.49739399e+01	-4.97180527e+01	-2.48195122e-01	8.88068435e+01
204612428.571	-3.26459178e-02	-7.63274436e+00	-8.67319653e+01	-5.84258345e+01	-8.74604033e+01	-7.90029849e+01	-2.55735746e-01	8.87046725e+01
204898000	-2.92065354e-02	-7.61586059e+00	-8.30044457e+01	-6.68558843e+01	-8.42560105e+01	-7.59807264e+01	-2.52910519e-01	8.85663001e+01
205183571.429	-3.30439281e-02	-7.62534416e+00	-8.44429684e+01	-7.64751072e+01	-8.61519358e+01	-7.60981889e+01	-2.41713249e-01	8.84370976e+01
205469142.857	-3.37817948e-02	-7.62745770e+00	-8.46104075e+01	-7.38154527e+01	-8.44871107e+01	-8.30867329e+01	-2.41868397e-01	8.82444472e+01
205754714.286	-3.30458198e-02	-7.62804082e+00	-8.36700078e+01	-8.42346976e+01	-8.42158148e+01	-9.64659271e+01	-2.25815343e-01	8.80700032e+01
206040285.714	-3.55880468e-02	-7.63352269e+00	-8.28770736e+01	-8.54550535e+01	-8.33690765e+01	-8.21495448e+01	-2.15358265e-01	8.79417762e+01
206325857.143	-3.89782201e-02	-7.65590084e+00	-8.52084485e+01	-9.20106766e+01	-8.30613376e+01	-9.69069474e+01	-1.99250955e-01	8.78309248e+01
206611428.571	-4.06121074e-02	-7.64680055e+00	-8.49756822e+01	-1.05743940e+02	-8.40713897e+01	-1.06923867e+02	-2.04056030e-01	8.77119614e+01
206897000	-3.89493971e-02	-7.65757555e+00	-8.44433569e+01	-1.09347726e+02	-8.53528311e+01	-1.08760203e+02	-1.97908516e-01	8.75830614e+01
207182571.429	-4.23030305e-02	-7.65167395e+00	-8.39856032e+01	-9.85347350e+01	-8.42696254e+01	-1.02699709e+02	-1.88581537e-01	8.74879084e+01
207468142.857	-4.18588561e-02	-7.64814410e+00	-8.37865744e+01	-1.04049617e+02	-8.33577556e+01	-1.10879403e+02	-1.79850376e-01	8.73902296e+01
207753714.286	-4.54613852e-02	-7.65816644e+00	-8.43359381e+01	-1.03558052e+02	-8.39858692e+01	-1.07498723e+02	-1.74543634e-01	8.72934587e+01
208039285.714	-4.70053622e-02	-7.64076139e+00	-8.09419620e+01	-9.80382885e+01	-8.40206946e+01	-1.22797351e+02	-1.79129202e-01	8.71122855e+01
208324857.143	-4.80712519e-02	-7.63078805e+00	-8.47438965e+01	-1.06565514e+02	-8.34051138e+01	-1.18748551e+02	-1.86297930e-01	8.69200516e+01
208610428.571	-4.73070465e-02	-7.64013911e+00	-8.30238681e+01	-1.27532533e+02	-8.37390295e+01	-1.17470567e+02	-1.81366202e-01	8.68255782e+01
208896000	-4.74575183e-02	-7.62998187e+00	-8.21948886e+01	-1.21115834e+02	-8.29692495e+01	-1.25423807e+02	-1.85681935e-01	8.66872302e+01
209181571.429	-4.90264353e-02	-7.65625042e+00	-8.16096487e+01	-1.14349277e+02	-8.33808488e+01	-1.18457345e+02	-1.83510828e-01	8.65806392e+01
209467142.857	-4.99143415e-02	-7.66069663e+00	-8.23482355e+01	-1.14477063e+02	-8.21396413e+01	-1.30352611e+02	-1.79759645e-01	8.64562336e+01
209752714.286	-5.15410760e-02	-7.66672311e+00	-8.16903051e+01	-1.30188529e+02	-8.26423286e+01	-1.24030657e+02	-1.83177591e-01	8.63153201e+01
210038285.714	-5.22100417e-02	-7.68304337e+00	-8.28475516e+01	-1.26684677e+02	-8.33695519e+01	-1.31302912e+02	-1.87467657e-01	8.61511063e+01
210323857.143	-5.08467253e-02	-7.67664645e+00	-8.16059207e+01	-1.26709771e+02	-8.27449947e+01	-1.37258921e+02	-1.87812544e-01	8.59527324e+01
210609428.571	-5.02389946e-02	-7.68821096e+00	-8.01193377e+01	-1.35487594e+02	-8.35636366e+01	-1.31313030e+02	-1.79544865e-01	8.58589539e+01
210895000	-5.06813053e-02	-7.68282383e+00	-8.07862847e+01	-1.35401472e+02	-8.32297560e+01	-1.46934919e+02	-1.67526106e-01	8.57728792e+01
211180571.429	-4.75008702e-02	-7.70440198e+00	-8.13089205e+01	-1.45280122e+02	-8.27619161e+01	-1.42245740e+02	-1.61072457e-01	8.56063337e+01
211466142.857	-4.50313983e-02	-7.72798351e+00	-8.10002416e+01	-1.47250328e+02	-8.28446416e+01	-1.44260940e+02	-1.49194357e-01	8.54387710e+01
211751714.286	-4.85624987e-02	-7.72409323e+00	-8.00922956e+01	-1.39640786e+02	-8.21299694e+01	-1.50921696e+02	-1.45309056e-01	8.53908990e+01
212037285.714	-4.68690574e-02	-7.74627609e+00	-8.16439065e+01	-1.49988983e+02	-8.23096698e+01	-1.52333211e+02	-1.44233106e-01	8.52986304e+01
212322857.143	-4.81906654e-02	-7.73689697e+00	-8.26593002e+01	-1.50592523e+02	-8.19321821e+01	-1.47700017e+02	-1.43569153e-01	8.51982867e+01
212608428.571	-4.63428637e-02	-7.76016640e+00	-8.29104255e+01	-1.55533362e+02	-8.41231093e+01	-1.60526426e+02	-1.41073299e-01	8.50219193e+01
212894000	-4.46825588e-02	-7.78747806e+00	-8.19997383e+01	-1.58069540e+02	-8.28014565e+01	-1.57799621e+02	-1.39036974e-01	8.48597383e+01
213179571.429	-4.10743430e-02	-7.81217124e+00	-8.21992160e+01	-1.55625729e+02	-8.25298116e+01	-1.61562813e+02	-1.41969331e-01	8.47521980e+01
213465142.857	-4.08057367e-02	-7.82450273e+00	-8.19267303e+01	-1.65322970e+02	-8.26014830e+01	-1.54462217e+02	-1.41305923e-01	8.46288412e+01
213750714.286	-3.55504085e-02	-7.80479585e+00	-8.37284413e+01	-1.68469197e+02	-8.13903976e+01	-1.66804762e+02	-1.47863999e-01	8.44467737e+01
214036285.714	-3.33153965e-02	-7.81538189e+00	-8.13007556e+01	-1.68917760e+02	-8.33661402e+01	-1.73650366e+02	-1.51785379e-01	8.43032020e+01
214321857.143	-3.35937941e-02	-7.81233402e+00	-8.35844845e+01	-1.61826610e+02	-8.29409476e+01	-1.69318872e+02	-1.45728784e-01	8.41951950e+01
214607428.571	-3.79487052e-02	-7.82730291e+00	-8.23999027e+01	-1.63955263e+02	-8.43221160e+01	1.79611748e+02	-1.42500069e-01	8.41459613e+01
214893000	-3.64396772e-02	-7.88131134e+00	-8.41039864e+01	-1.60980532e+02	-8.22782880e+01	-1.68082171e+02	-1.32303283e-01	8.40792362e+01
215178571.429	-3.76987315e-02	-7.90386165e+00	-8.37218910e+01	-1.66047873e+02	-8.36941706e+01	-1.68271544e+02	-1.22146782e-01	8.39709384e+01
215464142.857	-3.35813248e-02	-7.89388846e+00	-8.41023671e+01	-1.77476035e+02	-8.40629997e+01	-1.77644135e+02	-1.20145115e-01	8.38737011e+01
215749714.286	-3.19563408e-02	-7.90495234e+00	-8.13768981e+01	1.79086777e+02	-8.45103193e+01	-1.73196870e+02	-1.27632820e-01	8.37420881e+01
216035285.714	-3.09117870e-02	-7.91869323e+00	-8.14147261e+01	1.79856690e+02	-8.30855249e+01	-1.66949280e+02	-1.34653456e-01	8.35671515e+01
216320857.143	-3.02627398e-02	-7.96716793e+00	-8.39498623e+01	1.71569047e+02	-8.47938891e+01	1.77749075e+02	-1.31245893e-01	8.34676042e+01
216606428.571	-3.05210449e-02	-8.00951874e+00	-8.43986626e+01	1.72618048e+02	-8.41151137e+01	1.78656480e+02	-1.32998064e-01	8.33280303e+01
216892000	-2.82466551e-02	-8.01116079e+00	-8.28361148e+01	-1.76469929e+02	-8.38887055e+01	1.74842423e+02	-1.37049742e-01	8.32574542e+01
217177571.429	-2.79005445e-02	-8.02808705e+00	-8.28313214e+01	1.63994028e+02	-8.59404343e+01	1.63658420e+02	-1.47427410e-01	8.31465682e+01
217463142.857	-2.87150848e-02	-8.03678196e+00	-8.27669586e+01	1.68692802e+02	-8.48507340e+01	1.73656941e+02	-1.50475675e-01	8.30359329e+01
217748714.286	-2.67322758e-02	-8.04783647e+00	-8.20002963e+01	1.72575419e+02	-8.48178984e+01	1.72041117e+02	-1.50520763e-01	8.29271651e+01
218034285.714	-2.66690067e-02	-8.09386480e+00	-8.26238803e+01	1.73070546e+02	-8.53765407e+01	1.72827199e+02	-1.54328414e-01	8.27876474e+01
218319857.143	-2.41701222e-02	-8.08728031e+00	-8.41432969e+01	1.70871699e+02	-8.42752682e+01	1.69958312e+02	-1.56194219e-01	8.26358150e+01
218605428.571	-1.97675409e-02	-8.13401343e+00	-8.29034583e+01	1.68780714e+02	-8.39727912e+01	1.68456256e+02	-1.59682759e-01	8.25084003e+01
218891000	-2.06192519e-02	-8.14299350e+00	-8.37086426e+01	1.66176067e+02	-8.38562878e+01	1.79478989e+02	-1.61310408e-01	8.23604827e+01
219176571.429	-2.10904745e-02	-8.12657270e+00	-8.28005772e+01	1.59377635e+02	-8.32492505e+01	1.66789904e+02	-1.63610106e-01	8.22466567e+01
219462142.857	-2.08065680e-02	-8.14415386e+00	-8.33290952e+01	-1.77379228e+02	-8.44810508e+01	1.73824960e+02	-1.52714413e-01	8.21081964e+01
219747714.286	-1.88548048e-02	-8.18867830e+00	-8.41346821e+01	1.69832598e+02	-8.48120811e+01	1.57967284e+02	-1.39618201e-01	8.19723309e+01
220033285.714	-1.93529923e-02	-8.18878321e+00	-8.38193670e+01	1.62299305e+02	-8.50306220e+01	1.62475905e+02	-1.38862113e-01	8.19205747e+01
220318857.143	-2.38981474e-02	-8.16814344e+00	-8.48320148e+01	1.56647571e+02	-8.61198284e+01	1.73982630e+02	-1.36989989e-01	8.18087642e+01
220604428.571	-2.40277446e-02	-8.17225994e+00	-8.42805509e+01	1.67875886e+02	-8.38411297e+01	1.68120244e+02	-1.31957646e-01	8.17160780e+01
220890000	-1.80537211e-02	-8.22101948e+00	-8.36064440e+01	-1.78267003e+02	-8.41299430e+01	1.66969337e+02	-1.29453597e-01	8.15743861e+01
221175571.429	-1.25492660e-02	-8.21694539e+00	-8.34437194e+01	1.67919882e+02	-8.51586682e+01	1.60073050e+02	-1.27938963e-01	8.14027877e+01
221461142.857	-1.94246453e-02	-8.20320545e+00	-8.29695529e+01	1.68902320e+02	-8.50646231e+01	1.49316635e+02	-1.26214835e-01	8.12714401e+01
221746714.286	-1.92692588e-02	-8.23892962e+00	-8.34007028e+01	1.69922506e+02	-8.44771608e+01	1.67570647e+02	-1.23531335e-01	8.10698858e+01
222032285.714	-1.49246441e-02	-8.23578529e+00	-8.31672393e+01	1.67706607e+02	-8.27326107e+01	1.67710404e+02	-1.20308833e-01	8.09683928e+01
222317857.143	-1.40060296e-02	-8.26969463e+00	-8.29452918e+01	1.76521714e+02	-8.25284807e+01	1.68233324e+02	-1.13744660e-01	8.08575814e+01
222603428.571	-1.40907009e-02	-8.25118423e+00	-8.31763714e+01	1.78061731e+02	-8.38758685e+01	1.56942994e+02	-1.11521427e-01	8.07221364e+01
222889000	-1.46356432e-02	-8.26537371e+00	-8.32120289e+01	1.71252569e+02	-8.41064125e+01	1.59302344e+02	-1.09713779e-01	8.05654361e+01
223174571.429	-1.18408355e-02	-8.28943446e+00	-8.34172462e+01	1.67736067e+02	-8.47005679e+01	1.61172318e+02	-1.10248059e-01	8.04556825e+01
223460142.857	-1.03881025e-02	-8.29516894e+00	-8.37030508e+01	1.66129351e+02	-8.49265861e+01	1.57215647e+02	-1.10645850e-01	8.03853243e+01
223745714.286	-1.04339908e-02	-8.28227855e+00	-8.25855899e+01	1.64552522e+02	-8.28820932e+01	1.67928387e+02	-1.14778793e-01	8.02632454e+01
224031285.714	-1.40167236e-02	-8.29759266e+00	-8.38141960e+01	1.55566188e+02	-8.19271129e+01	1.50183793e+02	-1.14465253e-01	8.01550907e+01
224316857.143	-1.19981691e-02	-8.29292115e+00	-8.35554447e+01	1.55311636e+02	-8.40746119e+01	1.66847448e+02	-1.17569730e-01	7.99761935e+01
224602428.571	-8.97794502e-03	-8.32001540e+00	-8.37817545e+01	1.74752219e+02	-8.26670591e+01	1.53607983e+02	-1.19616463e-01	7.98014293e+01
224888000	-4.92956375e-03	-8.33888564e+00	-8.33387199e+01	1.59599989e+02	-8.22830236e+01	1.57422041e+02	-1.20576851e-01	7.96071846e+01
225173571.429	-7.67483152e-03	-8.32489860e+00	-8.29452792e+01	1.63991908e+02	-8.48979576e+01	1.45548520e+02	-1.15627954e-01	7.94976643e+01
225459142.857	-4.97063277e-03	-8.32129421e+00	-8.27663387e+01	1.56461795e+02	-8.39971438e+01	1.58120479e+02	-1.14924680e-01	7.94586423e+01
225744714.286	-3.74351915e-03	-8.31327941e+00	-8.24901935e+01	1.57576596e+02	-8.37190035e+01	1.42173063e+02	-1.16833793e-01	7.93895062e+01
226030285.714	-4.51432599e-03	-8.36344945e+00	-8.11020808e+01	1.52909229e+02	-8.24324697e+01	1.53226068e+02	-1.23263439e-01	7.93564902e+01
226315857.143	-1.80118054e-02	-8.39343872e+00	-8.22491944e+01	1.53536410e+02	-8.34838357e+01	1.61254844e+02	-1.28283634e-01	7.92511320e+01
226601428.571	-7.65028035e-03	-8.45155886e+00	-8.30462274e+01	1.62409775e+02	-8.36996690e+01	1.59391077e+02	-1.31978057e-01	7.91834092e+01
226887000	-1.58084040e-03	-8.42835916e+00	-7.91235240e+01	1.55055563e+02	-8.33634176e+01	1.52295769e+02	-1.33039756e-01	7.90554434e+01
227172571.429	-2.96018994e-03	-8.43855702e+00	-8.27872787e+01	1.54542978e+02	-8.13387873e+01	1.36261758e+02	-1.26801365e-01	7.89299474e+01
227458142.857	-8.22686588e-03	-8.42092807e+00	-8.45008789e+01	1.59834067e+02	-8.11809981e+01	1.53691079e+02	-1.38446836e-01	7.88137994e+01
227743714.286	-3.87553313e-03	-8.44690044e+00	-8.32011773e+01	1.46487654e+02	-8.52312779e+01	1.39638516e+02	-1.41461643e-01	7.86089414e+01
228029285.714	6.47059893e-04	-8.49386646e+00	-8.14762950e+01	1.51597933e+02	-8.20300936e+01	1.49141689e+02	-1.43136988e-01	7.84471204e+01
228314857.143	-1.61686969e-03	-8.47716362e+00	-8.78438968e+01	1.28861400e+02	-8.23164690e+01	1.56945390e+02	-1.39784014e-01	7.82684280e+01
228600428.571	-1.88348668e-04	-8.48720337e+00	-8.31318826e+01	1.40638895e+02	-8.24828295e+01	1.46463783e+02	-1.42149915e-01	7.81960589e+01
228886000	2.15481757e-03	-8.52319429e+00	-8.16185875e+01	1.54959292e+02	-8.11144626e+01	1.46976336e+02	-1.35729932e-01	7.81668765e+01
229171571.429	1.19515473e-03	-8.55732315e+00	-8.07004563e+01	1.39715553e+02	-8.12344742e+01	1.48888939e+02	-1.47306551e-01	7.80040213e+01
229457142.857	7.84460159e-03	-8.54127274e+00	-8.26847206e+01	1.53808143e+02	-8.15233809e+01	1.35049963e+02	-1.55507482e-01	7.78660504e+01
229742714.286	8.22214996e-03	-8.59341875e+00	-8.33779414e+01	1.58344806e+02	-8.15234776e+01	1.50471841e+02	-1.54209744e-01	7.77401542e+01
230028285.714	8.25914342e-03	-8.59946209e+00	-8.08901428e+01	1.49185012e+02	-8.19828152e+01	1.45159410e+02	-1.47072241e-01	7.76577190e+01
230313857.143	5.38037825e-03	-8.56862981e+00	-8.10076165e+01	1.38240925e+02	-8.28782558e+01	1.49872102e+02	-1.54774803e-01	7.75160099e+01
230599428.571	6.76650603e-03	-8.59326246e+00	-8.11879308e+01	1.44568814e+02	-8.10603265e+01	1.49391592e+02	-1.47397707e-01	7.73941171e+01
230885000	5.84362033e-03	-8.61293442e+00	-8.09817859e+01	1.38712199e+02	-8.27444897e+01	1.20698051e+02	-1.45293068e-01	7.72524741e+01
231170571.429	1.62471152e-02	-8.64259840e+00	-8.13493718e+01	1.39281633e+02	-8.13327182e+01	1.34667151e+02	-1.48001613e-01	7.71452656e+01
231456142.857	1.66094214e-02	-8.59526583e+00	-8.01010674e+01	1.54279407e+02	-8.15997041e+01	1.52886232e+02	-1.63528106e-01	7.70423873e+01
231741714.286	1.51568243e-02	-8.58568446e+00	-8.09391351e+01	1.29873259e+02	-8.17286184e+01	1.46587728e+02	-1.59983357e-01	7.69106225e+01
232027285.714	1.54272353e-02	-8.65243316e+00	-8.23545738e+01	1.49500912e+02	-8.05411102e+01	1.45492418e+02	-1.47411602e-01	7.67934311e+01
232312857.143	1.36771522e-02	-8.66743642e+00	-8.27482794e+01	1.50812015e+02	-8.14474147e+01	1.32560571e+02	-1.50481725e-01	7.66430842e+01
232598428.571	1.24769081e-02	-8.67660316e+00	-8.17877542e+01	1.30569233e+02	-8.24513797e+01	1.30742693e+02	-1.47654760e-01	7.65277001e+01
232884000	2.03222620e-02	-8.64314970e+00	-8.06613503e+01	1.35585527e+02	-8.21867476e+01	1.41827291e+02	-1.52466569e-01	7.63964625e+01
233169571.429	1.27875749e-02	-8.66776430e+00	-7.90991916e+01	1.50032100e+02	-7.93253200e+01	1.40338070e+02	-1.72959344e-01	7.62896876e+01
233455142.857	6.52271411e-03	-8.67019448e+00	-7.90244282e+01	1.35265381e+02	-8.21825994e+01	1.44520162e+02	-1.80089711e-01	7.61727870e+01
233740714.286	8.94843805e-03	-8.65106675e+00	-7.99770398e+01	1.29050312e+02	-8.12770305e+01	1.36637688e+02	-1.86366536e-01	7.60870751e+01
234026285.714	3.73593811e-04	-8.70351111e+00	-8.22657253e+01	1.44309432e+02	-7.99858250e+01	1.27693605e+02	-1.81296093e-01	7.58903453e+01
234311857.143	7.18412704e-03	-8.71522884e+00	-7.95057661e+01	1.31303917e+02	-8.06895383e+01	1.44667485e+02	-1.85087760e-01	7.58329773e+01
234597428.571	1.19573414e-02	-8.70021334e+00	-8.10884774e+01	1.31512583e+02	-8.01642364e+01	1.30547962e+02	-1.92379885e-01	7.58002665e+01
234883000	1.38430417e-02	-8.79288795e+00	-8.18748408e+01	1.32679872e+02	-7.93727260e+01	1.35801902e+02	-1.88918423e-01	7.57328535e+01
235168571.429	9.27091581e-03	-8.74820856e+00	-8.05091569e+01	1.39857363e+02	-7.98127529e+01	1.36428186e+02	-1.97332247e-01	7.56064674e+01
235454142.857	1.47552951e-02	-8.78641793e+00	-8.07952226e+01	1.38873578e+02	-8.04481207e+01	1.34685601e+02	-1.95007888e-01	7.54938662e+01
235739714.286	2.72022502e-02	-8.83154901e+00	-8.06198864e+01	1.25556261e+02	-7.88200321e+01	1.23170191e+02	-1.99230758e-01	7.53600687e+01
236025285.714	2.89241387e-02	-8.79641810e+00	-8.07889309e+01	1.35648803e+02	-8.16679025e+01	1.34490979e+02	-1.91578602e-01	7.52140442e+01
236310857.143	2.52658682e-02	-8.82787990e+00	-8.08631007e+01	1.35095913e+02	-7.85776985e+01	1.25942277e+02	-2.00540486e-01	7.51345241e+01
236596428.571	2.27019935e-02	-8.82361229e+00	-7.81922239e+01	1.28577561e+02	-7.96597318e+01	1.30242688e+02	-2.03240842e-01	7.49707375e+01
236882000	3.06976403e-02	-8.85625126e+00	-7.79598200e+01	1.29531944e+02	-7.95164947e+01	1.19787962e+02	-2.09262294e-01	7.48892657e+01
237167571.429	3.07610226e-02	-8.84008631e+00	-7.89862543e+01	1.22176938e+02	-7.80552718e+01	1.23788086e+02	-2.15671093e-01	7.47248041e+01
237453142.857	3.33871290e-02	-8.90411252e+00	-8.04525351e+01	1.16255322e+02	-7.99287144e+01	1.30801611e+02	-2.18594104e-01	7.46270183e+01
237738714.286	3.32545576e-02	-8.91431866e+00	-7.91696095e+01	1.25176818e+02	-7.82293430e+01	1.26526525e+02	-2.11589710e-01	7.44333005e+01
238024285.714	2.69425876e-02	-8.92030367e+00	-7.77400332e+01	1.16676976e+02	-8.04073442e+01	1.23176340e+02	-2.12584425e-01	7.43511393e+01
238309857.143	2.91510964e-02	-8.95254586e+00	-7.94128811e+01	1.22449472e+02	-7.86303579e+01	1.20242949e+02	-2.04399709e-01	7.42638168e+01
238595428.571	1.96314243e-02	-8.92963591e+00	-7.93457392e+01	1.23062755e+02	-7.75342035e+01	1.16294578e+02	-2.02499545e-01	7.41905250e+01
238881000	2.77155046e-02	-8.91019743e+00	-7.71422368e+01	1.11424886e+02	-7.78798237e+01	1.21306266e+02	-2.03222793e-01	7.40650837e+01
239166571.429	4.09968125e-02	-8.90609908e+00	-7.86209685e+01	1.28256528e+02	-7.75815760e+01	1.12822964e+02	-2.05961320e-01	7.38577326e+01
239452142.857	3.01886005e-02	-8.98273381e+00	-7.77364289e+01	1.19704553e+02	-7.78672339e+01	1.23035668e+02	-2.15691265e-01	7.38508140e+01
239737714.286	3.27586830e-02	-8.96315669e+00	-7.76133386e+01	1.18156601e+02	-7.76910864e+01	1.18652815e+02	-2.10177384e-01	7.36755679e+01
240023285.714	2.80206486e-02	-8.95362433e+00	-7.88072325e+01	1.19414736e+02	-7.80671598e+01	1.21275482e+02	-2.05194167e-01	7.35357271e+01
240308857.143	3.53110636e-02	-9.02308247e+00	-7.90565670e+01	1.19736159e+02	-7.68790962e+01	1.14188018e+02	-2.16734924e-01	7.34008886e+01
240594428.571	3.11619143e-02	-9.01409181e+00	-7.74882548e+01	1.17117288e+02	-7.95101885e+01	1.17505746e+02	-2.09681050e-01	7.32738509e+01
240880000	3.37911223e-02	-9.02079958e+00	-7.59308249e+01	1.12209641e+02	-7.85070709e+01	1.13294322e+02	-2.17579539e-01	7.31117902e+01
241165571.429	2.60909282e-02	-9.01996967e+00	-7.87173968e+01	1.01136566e+02	-7.83286988e+01	1.18172497e+02	-2.23922592e-01	7.30174354e+01
241451142.857	2.41008422e-02	-9.02237132e+00	-7.65944700e+01	1.17040342e+02	-7.85893221e+01	1.10134128e+02	-2.26977874e-01	7.29570427e+01
241736714.286	3.13740246e-02	-9.02587838e+00	-7.89795672e+01	1.10714799e+02	-7.82578057e+01	1.08742321e+02	-2.28647948e-01	7.28445187e+01
242022285.714	2.71836243e-02	-9.06289480e+00	-7.83978610e+01	1.00360927e+02	-7.70523772e+01	1.05858339e+02	-2.30237477e-01	7.26520181e+01
242307857.143	3.11471177e-02	-9.01073460e+00	-7.52437627e+01	1.11562781e+02	-7.71950396e+01	1.00722791e+02	-2.38037462e-01	7.25132894e+01
242593428.571	2.79593793e-02	-9.05117330e+00	-7.57929884e+01	1.13817589e+02	-7.70376413e+01	1.08635698e+02	-2.34454699e-01	7.24155147e+01
242879000	3.00975440e-02	-9.10006386e+00	-7.60611034e+01	1.06826538e+02	-7.68078724e+01	1.08204584e+02	-2.31942470e-01	7.22574671e+01
243164571.429	1.99814792e-02	-9.04301493e+00	-7.68701740e+01	1.12782029e+02	-7.63465551e+01	1.08783131e+02	-2.28112604e-01	7.21636156e+01
243450142.857	2.32127985e-02	-9.10683222e+00	-7.64010344e+01	1.07795100e+02	-7.64088957e+01	1.01425447e+02	-2.26229022e-01	7.20673249e+01
243735714.286	2.26180649e-02	-9.05142307e+00	-7.53150888e+01	1.00299592e+02	-7.73641486e+01	1.09468643e+02	-2.38747834e-01	7.19534753e+01
244021285.714	2.57865984e-02	-9.06140792e+00	-7.67103062e+01	1.07746232e+02	-7.76155860e+01	9.23455928e+01	-2.43221535e-01	7.18514724e+01
244306857.143	1.63639701e-02	-9.08626871e+00	-7.61686074e+01	9.95888443e+01	-7.61098321e+01	9.64715117e+01	-2.46596691e-01	7.17510809e+01
244592428.571	1.49500282e-02	-9.05991812e+00	-7.43870980e+01	1.05100815e+02	-7.60942369e+01	9.77239773e+01	-2.57365476e-01	7.15842607e+01
244878000	1.67773288e-02	-9.06164118e+00	-7.60916182e+01	1.01524588e+02	-7.57341658e+01	8.72647224e+01	-2.62877248e-01	7.14294937e+01
245163571.429	2.18296158e-02	-9.05189033e+00	-7.53823302e+01	9.30770403e+01	-7.65179548e+01	1.03732985e+02	-2.51748676e-01	7.13149475e+01
245449142.857	2.18415169e-02	-9.09441107e+00	-7.62337029e+01	9.73694883e+01	-7.53126833e+01	9.93366932e+01	-2.62526682e-01	7.12020439e+01
245734714.286	2.02209152e-02	-9.12674221e+00	-7.67857730e+01	9.85112321e+01	-7.75469380e+01	9.48565629e+01	-2.57303891e-01	7.10780791e+01
246020285.714	2.18554662e-02	-9.11607362e+00	-7.43073721e+01	9.99454871e+01	-7.60184194e+01	9.35500552e+01	-2.55752194e-01	7.09009440e+01
246305857.143	2.96791345e-02	-9.15794751e+00	-7.52642601e+01	7.86735786e+01	-7.56178640e+01	8.83740283e+01	-2.59089025e-01	7.07897625e+01
246591428.571	3.85908771e-02	-9.17810576e+00	-7.46357993e+01	8.80698130e+01	-7.56748029e+01	8.64052984e+01	-2.58324534e-01	7.06448925e+01
246877000	2.65037555e-02	-9.17459594e+00	-7.43077328e+01	9.13645164e+01	-7.53821615e+01	8.33520998e+01	-2.54375441e-01	7.05190169e+01
247162571.429	3.83144638e-02	-9.25479365e+00	-7.39013635e+01	7.96507631e+01	-7.44580455e+01	8.61631383e+01	-2.53176687e-01	7.03581332e+01
247448142.857	3.43995487e-02	-9.16122173e+00	-7.47060718e+01	8.97218082e+01	-7.58899011e+01	8.79299092e+01	-2.63789602e-01	7.01974335e+01
247733714.286	2.88238639e-02	-9.22562404e+00	-7.55138110e+01	8.36002200e+01	-7.56890418e+01	8.44245467e+01	-2.67215163e-01	7.00582509e+01
248019285.714	2.84384414e-02	-9.18232673e+00	-7.53257189e+01	7.72743563e+01	-7.39488829e+01	7.81546913e+01	-2.76780755e-01	7.00239419e+01
248304857.143	2.58441501e-02	-9.20517148e+00	-7.65003908e+01	8.00863122e+01	-7.48003821e+01	8.09178746e+01	-2.72865522e-01	6.98299453e+01
248590428.571	3.31267533e-02	-9.22911894e+00	-7.48569182e+01	7.64230898e+01	-7.50375179e+01	7.74292653e+01	-2.72072241e-01	6.97061834e+01
248876000	3.19832329e-02	-9.27158556e+00	-7.36807874e+01	7.66492448e+01	-7.50233164e+01	7.84700410e+01	-2.71141855e-01	6.95229445e+01
249161571.429	2.68486989e-02	-9.32443682e+00	-7.34824842e+01	7.36911031e+01	-7.46012793e+01	7.34426196e+01	-2.72890530e-01	6.93171832e+01
249447142.857	3.22399655e-02	-9.28033400e+00	-7.40891241e+01	7.68194525e+01	-7.45039204e+01	7.51890059e+01	-2.67385948e-01	6.92143224e+01
249732714.286	3.14728630e-02	-9.30751533e+00	-7.51459025e+01	7.78574315e+01	-7.45427843e+01	7.21335416e+01	-2.76775777e-01	6.90974666e+01
250018285.714	3.40754412e-02	-9.25181381e+00	-7.32293621e+01	7.29084529e+01	-7.49325724e+01	7.19145069e+01	-2.72351843e-01	6.89527780e+01
250303857.143	3.06848349e-02	-9.24405509e+00	-7.54405708e+01	6.80864587e+01	-7.44326901e+01	7.67366517e+01	-2.78403329e-01	6.88417692e+01
250589428.571	2.91190877e-02	-9.27580444e+00	-7.50823166e+01	7.43528272e+01	-7.38113960e+01	7.52080787e+01	-2.81961885e-01	6.86760398e+01
250875000	2.22723117e-02	-9.27569806e+00	-7.44442582e+01	6.06639910e+01	-7.42949600e+01	6.95320064e+01	-2.79174480e-01	6.84788474e+01
251160571.429	2.51365995e-02	-9.26426519e+00	-7.37666611e+01	6.61679937e+01	-7.38654837e+01	6.90994377e+01	-2.70662623e-01	6.84913608e+01
251446142.857	1.77611817e-02	-9.34958697e+00	-7.52208645e+01	6.37683548e+01	-7.49008174e+01	6.99280877e+01	-2.78153070e-01	6.83594049e+01
251731714.286	2.34762489e-02	-9.31542458e+00	-7.21640630e+01	7.59953722e+01	-7.32449620e+01	6.98362112e+01	-2.75470656e-01	6.81263412e+01
252017285.714	2.40650885e-02	-9.32938936e+00	-7.44158845e+01	6.09646855e+01	-7.39135031e+01	7.20246633e+01	-2.62931582e-01	6.80186447e+01
252302857.143	2.27401274e-02	-9.31606013e+00	-7.35729682e+01	7.39970983e+01	-7.36794443e+01	7.19681238e+01	-2.66456229e-01	6.79698614e+01
252588428.571	1.19120101e-02	-9.33956162e+00	-7.28638864e+01	6.42150898e+01	-7.35225821e+01	6.36182526e+01	-2.73419246e-01	6.77854705e+01
252874000	2.03627452e-02	-9.34563604e+00	-7.32838405e+01	7.22075844e+01	-7.39413707e+01	6.23037500e+01	-2.70373840e-01	6.76084471e+01
253159571.429	2.02873604e-02	-9.34048839e+00	-7.34795625e+01	6.03879686e+01	-7.38998149e+01	5.62191297e+01	-2.69356807e-01	6.74654749e+01
253445142.857	2.38196739e-02	-9.38972582e+00	-7.34892953e+01	6.62573853e+01	-7.34295729e+01	5.88812647e+01	-2.65083762e-01	6.72921813e+01
253730714.286	1.26811225e-02	-9.34129131e+00	-7.37698614e+01	5.58260317e+01	-7.29952018e+01	5.89743408e+01	-2.49341731e-01	6.71482076e+01
254016285.714	1.29406987e-02	-9.37317824e+00	-7.30924556e+01	6.27730599e+01	-7.35674367e+01	6.02835901e+01	-2.59640285e-01	6.70837422e+01
254301857.143	1.03995084e-02	-9.38092979e+00	-7.17653845e+01	6.16060846e+01	-7.27187208e+01	5.71598604e+01	-2.61607336e-01	6.69096020e+01
254587428.571	1.05106787e-02	-9.44253520e+00	-7.17613116e+01	5.83212357e+01	-7.25738234e+01	5.81592870e+01	-2.67435318e-01	6.67778315e+01
254873000	3.11081644e-03	-9.40245812e+00	-7.27296027e+01	5.10260380e+01	-7.34010533e+01	5.38440554e+01	-2.76162718e-01	6.66657028e+01
255158571.429	8.98354041e-04	-9.38834068e+00	-7.26822650e+01	5.61754144e+01	-7.20675798e+01	5.77840421e+01	-2.81215541e-01	6.65071425e+01
255444142.857	5.01567722e-04	-9.42175313e+00	-7.26922362e+01	5.20821133e+01	-7.19624359e+01	5.60147368e+01	-2.82689761e-01	6.63873782e+01
255729714.286	-7.83838675e-03	-9.40906845e+00	-7.20384348e+01	5.21797490e+01	-7.30465338e+01	5.64339839e+01	-2.79868169e-01	6.62530197e+01
256015285.714	-8.69249657e-03	-9.44168854e+00	-7.25095175e+01	5.15585312e+01	-7.25195310e+01	5.49686659e+01	-2.78803382e-01	6.61328188e+01
256300857.143	-5.24051904e-03	-9.44756164e+00	-7.15295227e+01	5.22970561e+01	-7.20618369e+01	4.95600526e+01	-2.76070252e-01	6.60827737e+01
256586428.571	1.24121335e-03	-9.42830089e+00	-7.21789624e+01	4.84606440e+01	-7.19721044e+01	4.80404869e+01	-2.76659331e-01	6.59085987e+01
256872000	2.03873783e-03	-9.46984794e+00	-7.12741284e+01	4.74079699e+01	-7.15304746e+01	4.55289096e+01	-2.77439260e-01	6.57814451e+01
257157571.429	8.05477473e-03	-9.46879412e+00	-7.13276877e+01	4.74831587e+01	-7.19423256e+01	4.64277003e+01	-2.73422767e-01	6.55971013e+01
257443142.857	3.86003474e-03	-9.46304489e+00	-7.19086581e+01	4.71547271e+01	-7.14859092e+01	4.28839437e+01	-2.65178947e-01	6.54817783e+01
257728714.286	9.63887521e-03	-9.43258069e+00	-7.10834907e+01	4.64715549e+01	-7.15953043e+01	4.25405180e+01	-2.63788015e-01	6.53638052e+01
258014285.714	1.23896969e-02	-9.49757160e+00	-7.13455493e+01	4.19215057e+01	-7.07963020e+01	3.90085094e+01	-2.56436914e-01	6.52067153e+01
258299857.143	5.87677546e-03	-9.51124922e+00	-7.14397480e+01	4.08599021e+01	-7.20633469e+01	4.16072154e+01	-2.70514499e-01	6.50552681e+01
258585428.571	1.28849083e-03	-9.47819221e+00	-7.19364530e+01	3.97266017e+01	-7.14273079e+01	3.44374092e+01	-2.73599143e-01	6.49191321e+01
258871000	3.06239459e-03	-9.46685031e+00	-7.11353248e+01	3.54973433e+01	-7.10625618e+01	3.86601492e+01	-2.66088131e-01	6.48535146e+01
259156571.429	-2.12104117e-03	-9.47682776e+00	-7.05593963e+01	3.97763052e+01	-7.04487484e+01	3.14314162e+01	-2.54359010e-01	6.47453476e+01
259442142.857	-4.23584936e-03	-9.50608782e+00	-7.03795201e+01	3.13445363e+01	-7.08458568e+01	3.05818618e+01	-2.49278382e-01	6.45479869e+01
259727714.286	-9.92483503e-03	-9.49012430e+00	-7.11173245e+01	3.65568764e+01	-7.10121197e+01	3.12127710e+01	-2.50350801e-01	6.44223974e+01
260013285.714	-8.82788696e-03	-9.51323053e+00	-7.01540111e+01	3.30969428e+01	-7.05739351e+01	3.02115675e+01	-2.51948663e-01	6.43441317e+01
260298857.143	-2.47282720e-03	-9.50750722e+00	-7.06053931e+01	3.07280753e+01	-7.05924454e+01	2.80860037e+01	-2.44980387e-01	6.42121077e+01
260584428.571	-3.85605039e-03	-9.48044537e+00	-7.03078561e+01	2.96433152e+01	-7.07124910e+01	2.29064268e+01	-2.40367728e-01	6.40478207e+01
260870000	-8.02616654e-03	-9.50532798e+00	-7.10023994e+01	2.83897312e+01	-7.06442976e+01	2.41522373e+01	-2.27604497e-01	6.38828928e+01
261155571.429	-9.99159579e-03	-9.51367730e+00	-7.01752117e+01	2.56930148e+01	-7.15399276e+01	2.05284150e+01	-2.15099757e-01	6.37881187e+01
261441142.857	-8.81405813e-03	-9.55962883e+00	-7.07721068e+01	2.32627476e+01	-7.04622677e+01	2.21951191e+01	-2.05030317e-01	6.37139857e+01
261726714.286	-9.70199273e-03	-9.51021213e+00	-7.05261584e+01	2.04466220e+01	-7.02948898e+01	1.88070313e+01	-2.11561550e-01	6.35865100e+01
262012285.714	-1.08223095e-02	-9.53446409e+00	-7.04761178e+01	2.23554162e+01	-7.05170842e+01	1.78442807e+01	-2.08843058e-01	6.34847280e+01
262297857.143	-8.00557102e-03	-9.54258882e+00	-6.99528752e+01	2.00383017e+01	-7.03412292e+01	1.21130533e+01	-2.15368245e-01	6.33580832e+01
262583428.571	-1.66581131e-02	-9.54431209e+00	-7.07610817e+01	1.52154521e+01	-7.03239365e+01	1.15943568e+01	-2.04601917e-01	6.32339275e+01
262869000	-1.81057166e-02	-9.55812955e+00	-7.01893159e+01	1.25088627e+01	-7.07887834e+01	1.11608907e+01	-2.10209938e-01	6.31366400e+01
263154571.429	-2.30615645e-02	-9.55481301e+00	-7.03777133e+01	1.52368765e+01	-7.07486366e+01	1.04800127e+01	-2.07218201e-01	6.29527640e+01
263440142.857	-2.06079490e-02	-9.56724303e+00	-7.02475670e+01	7.46011555e+00	-7.10896016e+01	6.40525689e+00	-1.96931868e-01	6.27650542e+01
263725714.286	-2.30107817e-02	-9.56336535e+00	-7.05445006e+01	1.08156143e+01	-7.03659175e+01	6.38600959e+00	-2.00346711e-01	6.26548961e+01
264011285.714	-1.73428248e-02	-9.58142492e+00	-7.07288761e+01	8.44943880e+00	-7.05950272e+01	3.16078074e+00	-2.05008525e-01	6.24925776e+01
264296857.143	-1.90166406e-02	-9.59733242e+00	-7.05226792e+01	4.89695526e+00	-7.08488967e+01	3.64452244e+00	-2.08870895e-01	6.23749868e+01
264582428.571	-2.00340313e-02	-9.60137469e+00	-7.08557793e+01	3.24291443e+00	-7.07866785e+01	2.27132818e+00	-2.01012285e-01	6.22567469e+01
264868000	-2.22833699e-02	-9.60760738e+00	-7.06708748e+01	4.25246521e+00	-7.08188466e+01	-2.00452659e+00	-1.93107128e-01	6.21586734e+01
265153571.429	-2.46065781e-02	-9.61982992e+00	-7.08692024e+01	1.90613888e+00	-7.10292089e+01	2.35589014e-01	-1.95546646e-01	6.20443432e+01
265439142.857	-2.47512219e-02	-9.62023993e+00	-7.10861814e+01	2.71647196e+00	-7.14069020e+01	-1.23112071e+00	-1.94450401e-01	6.19271850e+01
265724714.286	-2.52857602e-02	-9.65037193e+00	-7.07189392e+01	9.21247504e-01	-7.10135223e+01	-4.34436359e+00	-1.92712961e-01	6.18145488e+01
266010285.714	-2.83035765e-02	-9.64629007e+00	-7.12430944e+01	-3.69592322e+00	-7.13947040e+01	-5.72066535e+00	-1.88144017e-01	6.17564622e+01
266295857.143	-2.68796965e-02	-9.64971373e+00	-7.10466149e+01	-1.32716247e+00	-7.12717193e+01	-8.94421028e+00	-1.78014645e-01	6.16831845e+01
266581428.571	-2.73222767e-02	-9.65472201e+00	-7.11897017e+01	-4.26838635e+00	-7.10845183e+01	-6.21662350e+00	-1.75896251e-01	6.15406017e+01
266867000	-2.53486194e-02	-9.65076498e+00	-7.14970358e+01	-4.69947475e+00	-7.16052726e+01	-9.28653803e+00	-1.76028114e-01	6.14205450e+01
267152571.429	-2.52181938e-02	-9.66293862e+00	-7.10254739e+01	-6.43946851e+00	-7.12142703e+01	-7.77111616e+00	-1.72878274e-01	6.12427219e+01
267438142.857	-3.07907749e-02	-9.65371320e+00	-7.09787413e+01	-6.85222076e+00	-7.10294388e+01	-9.59921876e+00	-1.70883453e-01	6.10610215e+01
267723714.286	-2.81783603e-02	-9.66346556e+00	-7.11680826e+01	-5.26251793e+00	-7.13762580e+01	-1.17255085e+01	-1.69527695e-01	6.09598972e+01
268009285.714	-3.11704636e-02	-9.67607720e+00	-7.11255499e+01	-6.37971949e+00	-7.12985837e+01	-1.20687047e+01	-1.68892333e-01	6.08636018e+01
268294857.143	-2.65932405e-02	-9.67077997e+00	-7.17354024e+01	-5.32369590e+00	-7.09842310e+01	-1.18828339e+01	-1.65275074e-01	6.07585725e+01
268580428.571	-2.77200009e-02	-9.67978003e+00	-7.08540170e+01	-1.08919532e+01	-7.13632691e+01	-1.37245112e+01	-1.68521640e-01	6.06857555e+01
268866000	-2.72880983e-02	-9.68759465e+00	-7.13759837e+01	-9.81959469e+00	-7.12029175e+01	-1.25903394e+01	-1.61545764e-01	6.05755630e+01
269151571.429	-3.03361330e-02	-9.70438648e+00	-7.13654238e+01	-9.51209522e+00	-7.13085638e+01	-1.64916862e+01	-1.58778964e-01	6.04481332e+01
269437142.857	-3.20296682e-02	-9.71373958e+00	-7.11934483e+01	-9.73000466e+00	-7.12890215e+01	-1.93943361e+01	-1.58707496e-01	6.02999554e+01
269722714.286	-3.08250091e-02	-9.70789620e+00	-7.10492248e+01	-1.65516316e+01	-7.16660422e+01	-1.93502292e+01	-1.55650948e-01	6.02489053e+01
270008285.714	-3.16890165e-02	-9.70871219e+00	-7.12717721e+01	-1.44778322e+01	-7.16197951e+01	-1.95279505e+01	-1.58508350e-01	6.01687501e+01
270293857.143	-3.29172015e-02	-9.72658473e+00	-7.11720079e+01	-1.61193265e+01	-7.17290657e+01	-2.29852174e+01	-1.44991567e-01	6.00856845e+01
270579428.571	-3.60154328e-02	-9.74184266e+00	-7.11884294e+01	-1.70300934e+01	-7.11802237e+01	-1.97443581e+01	-1.41000817e-01	5.99674974e+01
270865000	-3.41077619e-02	-9.76419959e+00	-7.07858987e+01	-1.52973976e+01	-7.15896276e+01	-2.41642116e+01	-1.39499810e-01	5.97995838e+01
271150571.429	-3.58621101e-02	-9.78912015e+00	-7.10246419e+01	-1.78985786e+01	-7.15624912e+01	-2.43167782e+01	-1.42527277e-01	5.96290709e+01
271436142.857	-3.61671051e-02	-9.79439648e+00	-7.12096498e+01	-1.64852689e+01	-7.17145693e+01	-2.44741957e+01	-1.41018158e-01	5.95009198e+01
271721714.286	-3.61735410e-02	-9.78446388e+00	-7.12885655e+01	-2.22131846e+01	-7.16473603e+01	-2.63609425e+01	-1.39550560e-01	5.94102589e+01
272007285.714	-3.63397165e-02	-9.80913158e+00	-7.09574776e+01	-2.04749224e+01	-7.17439261e+01	-2.61317076e+01	-1.30897038e-01	5.93049751e+01
272292857.143	-3.75973001e-02	-9.81598900e+00	-7.06723867e+01	-2.22551601e+01	-7.18201116e+01	-2.80647544e+01	-1.33197689e-01	5.91772776e+01
272578428.571	-3.73283423e-02	-9.85311076e+00	-7.08696007e+01	-2.26930189e+01	-7.18250026e+01	-2.85592111e+01	-1.35436718e-01	5.90342856e+01
272864000	-3.91072297e-02	-9.85081062e+00	-7.08551327e+01	-2.08284210e+01	-7.13216148e+01	-2.95051271e+01	-1.31421034e-01	5.89871288e+01
273149571.429	-4.01656138e-02	-9.86491368e+00	-7.10780488e+01	-2.39057956e+01	-7.15274619e+01	-3.30848179e+01	-1.30565135e-01	5.89401133e+01
273435142.857	-4.11542318e-02	-9.86573646e+00	-7.14625945e+01	-2.43294725e+01	-7.10413111e+01	-3.26313577e+01	-1.29221253e-01	5.88003423e+01
273720714.286	-3.78060110e-02	-9.86127746e+00	-7.06016133e+01	-2.87094747e+01	-7.13056223e+01	-3.13043769e+01	-1.36011952e-01	5.86209863e+01
274006285.714	-3.83927503e-02	-9.88997156e+00	-7.08222973e+01	-2.82786949e+01	-7.11799154e+01	-3.49801752e+01	-1.34287616e-01	5.84812082e+01
274291857.143	-3.82004849e-02	-9.91258350e+00	-7.08314739e+01	-2.83063954e+01	-7.13748707e+01	-3.26960064e+01	-1.24746612e-01	5.83579088e+01
274577428.571	-3.86496038e-02	-9.92550851e+00	-7.10064462e+01	-3.05332233e+01	-7.12319183e+01	-3.58585551e+01	-1.19546228e-01	5.82450525e+01
274863000	-3.72314196e-02	-9.91376883e+00	-7.10164100e+01	-3.15161256e+01	-7.14239388e+01	-3.75517754e+01	-1.30233894e-01	5.81106749e+01
275148571.429	-3.37845668e-02	-9.91319731e+00	-7.10274384e+01	-3.17784026e+01	-7.14099705e+01	-3.73838826e+01	-1.35376964e-01	5.79511582e+01
275434142.857	-3.64810325e-02	-9.93065899e+00	-7.06048427e+01	-3.19321378e+01	-7.16504501e+01	-3.87349907e+01	-1.37157421e-01	5.78930105e+01
275719714.286	-3.40314415e-02	-9.93597583e+00	-7.07348850e+01	-3.48737166e+01	-7.14248249e+01	-3.77017889e+01	-1.31348628e-01	5.78290245e+01
276005285.714	-3.78675339e-02	-9.94147320e+00	-7.07535180e+01	-3.80285257e+01	-7.12243478e+01	-4.08763953e+01	-1.32725542e-01	5.77400570e+01
276290857.143	-3.67264110e-02	-9.96595792e+00	-7.10137236e+01	-3.61596844e+01	-7.17914378e+01	-4.12654438e+01	-1.34833934e-01	5.76212395e+01
276576428.571	-3.84673647e-02	-9.96195671e+00	-7.11968281e+01	-4.00910314e+01	-7.16807940e+01	-4.43607240e+01	-1.41918910e-01	5.74790509e+01
276862000	-3.93451439e-02	-9.93817671e+00	-7.08128313e+01	-3.88662531e+01	-7.15646503e+01	-4.28430447e+01	-1.44006677e-01	5.73627395e+01
277147571.429	-3.80368058e-02	-9.94904759e+00	-7.11977047e+01	-4.27035235e+01	-7.14609747e+01	-4.42965866e+01	-1.44401931e-01	5.72393597e+01
277433142.857	-3.82759530e-02	-9.98809160e+00	-7.10536290e+01	-4.15943296e+01	-7.19388270e+01	-4.55725855e+01	-1.48009209e-01	5.70809746e+01
277718714.286	-3.50350628e-02	-1.00254479e+01	-7.13632232e+01	-4.33820593e+01	-7.14632716e+01	-4.53711602e+01	-1.46167315e-01	5.69673251e+01
278004285.714	-3.71903702e-02	-1.00373205e+01	-7.09614490e+01	-4.12351347e+01	-7.11566812e+01	-4.63324783e+01	-1.42235591e-01	5.68521059e+01
278289857.143	-3.57431956e-02	-1.00761944e+01	-7.06882122e+01	-4.55648029e+01	-7.16232464e+01	-4.93604042e+01	-1.36520168e-01	5.67793515e+01
278575428.571	-3.65912779e-02	-1.00891787e+01	-7.09002186e+01	-4.46790918e+01	-7.15704494e+01	-4.76863810e+01	-1.31936998e-01	5.66404845e+01
278861000	-3.63888026e-02	-1.00760689e+01	-7.12844147e+01	-4.90312483e+01	-7.13758872e+01	-4.92934535e+01	-1.24706169e-01	5.65409946e+01
279146571.429	-3.48387360e-02	-1.00835686e+01	-7.14146526e+01	-4.97452565e+01	-7.16347497e+01	-4.94036574e+01	-1.21102053e-01	5.64058900e+01
279432142.857	-3.39844629e-02	-1.00997703e+01	-7.10085182e+01	-4.94554667e+01	-7.12577452e+01	-5.37924216e+01	-1.22338627e-01	5.62635796e+01
279717714.286	-3.12369927e-02	-1.00956773e+01	-7.06351618e+01	-4.90606655e+01	-7.13004879e+01	-5.37533679e+01	-1.17808313e-01	5.61197068e+01
280003285.714	-3.21102505e-02	-1.01083784e+01	-7.10503727e+01	-4.99571578e+01	-7.15086912e+01	-5.39503315e+01	-1.20675865e-01	5.59248236e+01
280288857.143	-3.24011099e-02	-1.01099902e+01	-7.06170729e+01	-5.13305846e+01	-7.10759964e+01	-5.63278323e+01	-1.17896455e-01	5.57076070e+01
280574428.571	-3.02621302e-02	-1.01297850e+01	-7.10509663e+01	-5.52938788e+01	-7.14841316e+01	-5.76106243e+01	-1.15249869e-01	5.56260203e+01
280860000	-3.01228893e-02	-1.01087573e+01	-7.06303882e+01	-5.34300752e+01	-7.13539343e+01	-5.98757786e+01	-1.16535921e-01	5.55356192e+01
281145571.429	-2.79454655e-02	-1.01367603e+01	-7.10019548e+01	-5.98057245e+01	-7.13071822e+01	-6.05625983e+01	-1.12641526e-01	5.54961897e+01
281431142.857	-2.75766547e-02	-1.01911151e+01	-7.06544971e+01	-5.77166581e+01	-7.11720574e+01	-5.92176205e+01	-1.11043517e-01	5.54482428e+01
281716714.286	-2.65238506e-02	-1.01736829e+01	-7.08481176e+01	-5.94919679e+01	-7.09371838e+01	-6.10033563e+01	-1.17148297e-01	5.54018357e+01
282002285.714	-2.82380141e-02	-1.01732582e+01	-7.10238224e+01	-6.13975967e+01	-7.15377298e+01	-6.32420323e+01	-1.17725296e-01	5.52703349e+01
282287857.143	-2.47390516e-02	-1.02167989e+01	-7.10121710e+01	-6.09856276e+01	-7.15118606e+01	-6.30870741e+01	-1.20122734e-01	5.51843598e+01
282573428.571	-2.31553810e-02	-1.02081742e+01	-7.11869045e+01	-6.19811665e+01	-7.16809062e+01	-6.44574773e+01	-1.25173503e-01	5.50346465e+01
282859000	-2.72192172e-02	-1.01939266e+01	-7.12795642e+01	-6.53154318e+01	-7.16171358e+01	-6.65509900e+01	-1.26180234e-01	5.48775145e+01
283144571.429	-2.53342580e-02	-1.01931242e+01	-7.10508683e+01	-6.49368012e+01	-7.15732900e+01	-6.91806184e+01	-1.24287858e-01	5.47770809e+01
283430142.857	-2.41020693e-02	-1.01733350e+01	-7.14016083e+01	-6.39464643e+01	-7.17377536e+01	-6.68775803e+01	-1.25713053e-01	5.47314105e+01
283715714.286	-2.23642177e-02	-1.02037307e+01	-7.14496978e+01	-6.66657157e+01	-7.17431217e+01	-6.92470716e+01	-1.22021492e-01	5.46021900e+01
284001285.714	-2.52599625e-02	-1.01917826e+01	-7.15160368e+01	-6.57909835e+01	-7.12439523e+01	-7.18909144e+01	-1.23794748e-01	5.44780233e+01
284286857.143	-2.49918958e-02	-1.02146505e+01	-7.16883869e+01	-6.83022463e+01	-7.23190408e+01	-7.12034472e+01	-1.22698478e-01	5.44093472e+01
284572428.571	-2.43847565e-02	-1.02319151e+01	-7.21501249e+01	-6.82595296e+01	-7.20345462e+01	-7.48171208e+01	-1.20504563e-01	5.42238861e+01
284858000	-1.77625598e-02	-1.02315183e+01	-7.19278326e+01	-7.32475580e+01	-7.17823578e+01	-7.31351762e+01	-1.25356245e-01	5.41093384e+01
285143571.429	-2.57483054e-02	-1.02354444e+01	-7.20222563e+01	-7.18976665e+01	-7.18658554e+01	-7.56722003e+01	-1.31068028e-01	5.40385543e+01
285429142.857	-2.33969973e-02	-1.02090482e+01	-7.17055988e+01	-7.06283522e+01	-7.22940312e+01	-7.58089396e+01	-1.37691311e-01	5.38614262e+01
285714714.286	-2.04558899e-02	-1.02025554e+01	-7.15510203e+01	-7.21768723e+01	-7.22268281e+01	-7.67821847e+01	-1.34591696e-01	5.37693845e+01
286000285.714	-2.17834937e-02	-1.02194509e+01	-7.19948814e+01	-7.45949937e+01	-7.19900553e+01	-7.63814322e+01	-1.24322353e-01	5.36628605e+01
286285857.143	-2.31622993e-02	-1.02225438e+01	-7.13194598e+01	-7.63891033e+01	-7.18155481e+01	-7.85397339e+01	-1.27915498e-01	5.35384203e+01
286571428.571	-2.16326818e-02	-1.02551735e+01	-7.15799445e+01	-7.90784414e+01	-7.22627322e+01	-8.36328991e+01	-1.31349424e-01	5.33868721e+01
286857000	-2.09363440e-02	-1.02422088e+01	-7.19945654e+01	-7.05744489e+01	-7.20896578e+01	-8.07845255e+01	-1.37579509e-01	5.33041027e+01
287142571.429	-1.92136530e-02	-1.02446619e+01	-7.20485214e+01	-7.51047578e+01	-7.22944135e+01	-7.93798501e+01	-1.32383378e-01	5.31884791e+01
287428142.857	-2.29529476e-02	-1.02499753e+01	-7.15019555e+01	-7.60076780e+01	-7.17140226e+01	-8.11788264e+01	-1.32527124e-01	5.30347390e+01
287713714.286	-2.04602435e-02	-1.02712577e+01	-7.20535477e+01	-7.50023376e+01	-7.19239389e+01	-8.16586122e+01	-1.31842480e-01	5.28742752e+01
287999285.714	-1.93704897e-02	-1.02900612e+01	-7.20687552e+01	-7.94880749e+01	-7.24303573e+01	-8.12124516e+01	-1.30161744e-01	5.27664212e+01
288284857.143	-1.31560946e-02	-1.03253323e+01	-7.14222378e+01	-7.51456619e+01	-7.27321656e+01	-8.44863283e+01	-1.31344137e-01	5.26013169e+01
288570428.571	-1.66902265e-02	-1.03004019e+01	-7.17421358e+01	-7.59786100e+01	-7.21054291e+01	-8.51145337e+01	-1.35921755e-01	5.25735000e+01
288856000	-2.10813134e-02	-1.03079475e+01	-7.15902399e+01	-7.97457971e+01	-7.19373320e+01	-8.48184629e+01	-1.44308118e-01	5.24637618e+01
289141571.429	-2.39434075e-02	-1.03246084e+01	-7.15252488e+01	-8.25242687e+01	-7.21689750e+01	-8.36323312e+01	-1.49705983e-01	5.23317458e+01
289427142.857	-2.37979948e-02	-1.03370267e+01	-7.20389862e+01	-8.40691495e+01	-7.24148059e+01	-8.51358633e+01	-1.53603740e-01	5.22606333e+01
289712714.286	-2.04532903e-02	-1.02877040e+01	-7.14008770e+01	-7.93148199e+01	-7.25198417e+01	-8.86979350e+01	-1.62719936e-01	5.22065834e+01
289998285.714	-2.17010115e-02	-1.02991226e+01	-7.15682747e+01	-8.44507443e+01	-7.14491380e+01	-8.49906799e+01	-1.70216650e-01	5.21180483e+01
290283857.143	-1.98386765e-02	-1.03170429e+01	-7.21271646e+01	-8.87859968e+01	-7.22759360e+01	-8.82214903e+01	-1.64283604e-01	5.20219403e+01
290569428.571	-1.71132603e-02	-1.03040045e+01	-7.22180269e+01	-8.49473486e+01	-7.25055560e+01	-9.27956656e+01	-1.61485611e-01	5.19390810e+01
290855000	-1.49335782e-02	-1.03326921e+01	-7.15721785e+01	-8.69014747e+01	-7.20718243e+01	-9.21874627e+01	-1.66209755e-01	5.18401378e+01
291140571.429	-1.84003913e-02	-1.03343684e+01	-7.22810289e+01	-8.95862847e+01	-7.21462127e+01	-8.88106136e+01	-1.67793285e-01	5.16844258e+01
291426142.857	-1.84251868e-02	-1.03289265e+01	-7.12811603e+01	-8.90005347e+01	-7.18037196e+01	-9.75707633e+01	-1.70025012e-01	5.15387920e+01
291711714.286	-1.90183850e-02	-1.03248087e+01	-7.17117147e+01	-8.95857835e+01	-7.17448885e+01	-9.32076104e+01	-1.71041243e-01	5.14102650e+01
291997285.714	-2.40004648e-02	-1.03526954e+01	-7.13338988e+01	-9.23674093e+01	-7.19560080e+01	-9.72898929e+01	-1.69865708e-01	5.13411504e+01
292282857.143	-1.82812533e-02	-1.03342291e+01	-7.18958533e+01	-9.56012499e+01	-7.17942591e+01	-1.00735342e+02	-1.66450180e-01	5.12006201e+01
292568428.571	-1.28447050e-02	-1.03608851e+01	-7.24434303e+01	-9.59161181e+01	-7.22064774e+01	-9.87020698e+01	-1.74677221e-01	5.10118558e+01
292854000	-7.20364981e-03	-1.03938043e+01	-7.16285477e+01	-9.56896566e+01	-7.18575993e+01	-1.02593658e+02	-1.84402400e-01	5.09709320e+01
293139571.429	-4.21831249e-03	-1.03883598e+01	-7.20714792e+01	-9.87691671e+01	-7.22515085e+01	-1.06119666e+02	-1.82154198e-01	5.08811553e+01
293425142.857	-5.99653448e-03	-1.03775761e+01	-7.15860431e+01	-1.02669366e+02	-7.25599127e+01	-1.03146033e+02	-1.82084186e-01	5.06945241e+01
293710714.286	-8.04007167e-03	-1.03562573e+01	-7.20661206e+01	-1.03064740e+02	-7.21844037e+01	-1.09710698e+02	-1.83892619e-01	5.05794712e+01
293996285.714	-7.82037374e-03	-1.04135286e+01	-7.20523642e+01	-1.02622660e+02	-7.24388724e+01	-1.09439269e+02	-1.79832933e-01	5.04836961e+01
294281857.143	-1.15636412e-02	-1.04211649e+01	-7.15364130e+01	-1.02524394e+02	-7.24040359e+01	-1.08538024e+02	-1.87227146e-01	5.03030467e+01
294567428.571	-6.71539232e-03	-1.04434261e+01	-7.18990338e+01	-1.02846620e+02	-7.23422965e+01	-1.06935717e+02	-1.86723131e-01	5.01742615e+01
294853000	-1.01601441e-02	-1.04546180e+01	-7.19090843e+01	-1.09793077e+02	-7.24526250e+01	-1.08580585e+02	-1.82134061e-01	5.01603649e+01
295138571.429	-1.04494591e-02	-1.04056013e+01	-7.26130079e+01	-1.13008778e+02	-7.30510549e+01	-1.09812626e+02	-1.85396449e-01	5.00447375e+01
295424142.857	-1.16720160e-02	-1.04478872e+01	-7.26028649e+01	-1.11194969e+02	-7.35350418e+01	-1.15096982e+02	-1.88589701e-01	4.98463945e+01
295709714.286	-8.58415979e-03	-1.03823417e+01	-7.19271514e+01	-1.11946599e+02	-7.25715389e+01	-1.17228832e+02	-1.86219694e-01	4.96645796e+01
295995285.714	-5.73395836e-03	-1.04119849e+01	-7.20874541e+01	-1.14343633e+02	-7.33213866e+01	-1.13041346e+02	-1.94568751e-01	4.95742305e+01
296280857.143	-2.71439115e-03	-1.04351453e+01	-7.23984098e+01	-1.11444851e+02	-7.32199730e+01	-1.21829980e+02	-2.00025775e-01	4.94354114e+01
296566428.571	-4.13215121e-03	-1.04769220e+01	-7.40505244e+01	-1.11994818e+02	-7.41617921e+01	-1.19687315e+02	-1.95634853e-01	4.93436810e+01
296852000	4.08461742e-04	-1.04935874e+01	-7.34046902e+01	-1.20134377e+02	-7.44807200e+01	-1.18043262e+02	-1.87067137e-01	4.92645785e+01
297137571.429	-5.30072369e-03	-1.05109292e+01	-7.30182514e+01	-1.17030693e+02	-7.41198041e+01	-1.25521735e+02	-1.80542416e-01	4.91160970e+01
297423142.857	3.09181612e-03	-1.04902179e+01	-7.35144032e+01	-1.16026896e+02	-7.46062917e+01	-1.22078041e+02	-1.85030796e-01	4.89492461e+01
297708714.286	-2.04392272e-03	-1.05056536e+01	-7.35548967e+01	-1.16847445e+02	-7.44020855e+01	-1.17826210e+02	-1.78505221e-01	4.88871848e+01
297994285.714	5.62043844e-03	-1.05247373e+01	-7.46542247e+01	-1.15465192e+02	-7.45601212e+01	-1.21224982e+02	-1.97511366e-01	4.86669546e+01
298279857.143	1.02259166e-03	-1.04897320e+01	-7.46057310e+01	-1.12812049e+02	-7.37690919e+01	-1.21539402e+02	-1.97852975e-01	4.85772687e+01
298565428.571	3.17375455e-03	-1.05672566e+01	-7.47347364e+01	-1.19756396e+02	-7.48060600e+01	-1.24195813e+02	-2.01837282e-01	4.84263988e+01
298851000	1.27404824e-02	-1.05573185e+01	-7.59309486e+01	-1.16908633e+02	-7.52890183e+01	-1.21922236e+02	-2.11184644e-01	4.83485548e+01
299136571.429	1.35757325e-02	-1.05741990e+01	-7.49037210e+01	-1.20312785e+02	-7.55548683e+01	-1.22620792e+02	-2.06209380e-01	4.81736219e+01
299422142.857	1.32340739e-02	-1.05531527e+01	-7.47140050e+01	-1.12198266e+02	-7.63826448e+01	-1.25181326e+02	-2.01301799e-01	4.79968218e+01
299707714.286	8.55513297e-03	-1.05358003e+01	-7.51703901e+01	-1.17526389e+02	-7.50777619e+01	-1.25158113e+02	-2.02718687e-01	4.79488676e+01
299993285.714	1.38966844e-02	-1.05532678e+01	-7.47706939e+01	-1.06331482e+02	-7.62084635e+01	-1.21336831e+02	-2.10254722e-01	4.78116991e+01
300278857.143	1.56900077e-02	-1.06027620e+01	-7.56244696e+01	-1.06304379e+02	-7.54936015e+01	-1.19794098e+02	-2.20459307e-01	4.77973911e+01
300564428.571	5.71465065e-03	-1.05751721e+01	-7.48859497e+01	-1.13305491e+02	-7.58742748e+01	-1.26756426e+02	-2.22355503e-01	4.76177908e+01
300850000	-3.84897426e-03	-1.05484644e+01	-7.51641284e+01	-1.18917168e+02	-7.53483245e+01	-1.18998136e+02	-2.16591561e-01	4.74211484e+01
301135571.429	7.25472519e-04	-1.05717683e+01	-7.57523077e+01	-1.05714042e+02	-7.56230478e+01	-1.24516198e+02	-2.32211486e-01	4.73185686e+01
301421142.857	-2.56833334e-03	-1.05149949e+01	-7.57712219e+01	-1.13841912e+02	-7.55541252e+01	-1.19678620e+02	-2.18636701e-01	4.72146204e+01
301706714.286	8.14912056e-03	-1.05051167e+01	-7.48442073e+01	-1.06939567e+02	-7.58025531e+01	-1.17254345e+02	-2.22950918e-01	4.71029364e+01
301992285.714	2.41330508e-03	-1.05368257e+01	-7.50672949e+01	-1.07293470e+02	-7.63172373e+01	-1.19911604e+02	-2.27861944e-01	4.68823843e+01
302277857.143	-6.54815145e-03	-1.04926375e+01	-7.47778581e+01	-1.10928220e+02	-7.64342351e+01	-1.18125728e+02	-2.30436495e-01	4.67516870e+01
302563428.571	-5.25189281e-04	-1.05134609e+01	-7.46934742e+01	-1.07462495e+02	-7.59493393e+01	-1.23238795e+02	-2.20910840e-01	4.66445164e+01
302849000	-9.49331705e-03	-1.04998759e+01	-7.47985279e+01	-1.11003834e+02	-7.58332020e+01	-1.18335830e+02	-2.23317191e-01	4.65173277e+01
303134571.429	-7.94786376e-04	-1.05602580e+01	-7.52510408e+01	-1.06186915e+02	-7.53522468e+01	-1.22690910e+02	-2.22850548e-01	4.63541282e+01
303420142.857	-3.04696631e-03	-1.06412242e+01	-7.49060529e+01	-1.10926580e+02	-7.58925494e+01	-1.21267606e+02	-2.24801533e-01	4.62087932e+01
303705714.286	-5.97371321e-03	-1.05658544e+01	-7.75767838e+01	-1.15348250e+02	-7.49165117e+01	-1.24953220e+02	-2.31768522e-01	4.61087205e+01
303991285.714	3.95715044e-03	-1.06045783e+01	-7.40190200e+01	-1.09142034e+02	-7.57023453e+01	-1.18418371e+02	-2.34033733e-01	4.59597684e+01
304276857.143	1.53107049e-04	-1.05894510e+01	-7.38808350e+01	-1.09050279e+02	-7.54894313e+01	-1.25636093e+02	-2.36487510e-01	4.58345970e+01
304562428.571	5.19459819e-03	-1.05997749e+01	-7.39219165e+01	-1.13099533e+02	-7.60840552e+01	-1.13332076e+02	-2.39832014e-01	4.56022920e+01
304848000	-1.41363478e-04	-1.05949004e+01	-7.44924037e+01	-1.10530345e+02	-7.59140966e+01	-1.18026653e+02	-2.44492902e-01	4.54835937e+01
305133571.429	9.81540216e-03	-1.06597225e+01	-7.36239443e+01	-1.12070076e+02	-7.46014739e+01	-1.26029552e+02	-2.48006225e-01	4.53405172e+01
305419142.857	1.16960600e-02	-1.06223995e+01	-7.42155759e+01	-1.18068663e+02	-7.47239745e+01	-1.24747619e+02	-2.38579397e-01	4.51985623e+01
305704714.286	3.32739995e-03	-1.06311182e+01	-7.40857537e+01	-1.19446887e+02	-7.64856047e+01	-1.22377399e+02	-2.44678820e-01	4.50169320e+01
305990285.714	-2.97817034e-03	-1.06328480e+01	-7.47868564e+01	-1.17437976e+02	-7.42423383e+01	-1.23875142e+02	-2.58976518e-01	4.49409650e+01
306275857.143	-1.08237650e-03	-1.05920893e+01	-7.37554111e+01	-1.18814577e+02	-7.42659829e+01	-1.20702358e+02	-2.57205957e-01	4.47565312e+01
306561428.571	1.12099691e-02	-1.06500024e+01	-7.42895830e+01	-1.13954448e+02	-7.49505700e+01	-1.17459134e+02	-2.58905253e-01	4.47029220e+01
306847000	9.28484672e-03	-1.06506552e+01	-7.47956212e+01	-1.16098647e+02	-7.47390383e+01	-1.29154418e+02	-2.60804258e-01	4.45374866e+01
307132571.429	5.39327931e-03	-1.06495288e+01	-7.42326900e+01	-1.14649001e+02	-7.45138829e+01	-1.25804437e+02	-2.58846970e-01	4.44140900e+01
307418142.857	-5.04567444e-04	-1.06767510e+01	-7.37951227e+01	-1.24066875e+02	-7.46014428e+01	-1.26443485e+02	-2.59422354e-01	4.42528454e+01
307703714.286	5.96053459e-03	-1.06659298e+01	-7.36154869e+01	-1.20687297e+02	-7.55494341e+01	-1.30511595e+02	-2.69064468e-01	4.41408883e+01
307989285.714	8.46429362e-03	-1.06522180e+01	-7.34090064e+01	-1.17797164e+02	-7.40556736e+01	-1.27523435e+02	-2.73575111e-01	4.39372819e+01
308274857.143	5.14788995e-03	-1.06577368e+01	-7.32484107e+01	-1.17448678e+02	-7.36034587e+01	-1.26967881e+02	-2.67910337e-01	4.38080413e+01
308560428.571	1.18907141e-02	-1.06964850e+01	-7.30398414e+01	-1.18301908e+02	-7.38371856e+01	-1.26560336e+02	-2.78481408e-01	4.36797415e+01
308846000	1.54120512e-03	-1.06360832e+01	-7.25515915e+01	-1.26662741e+02	-7.40285848e+01	-1.34121134e+02	-2.65333972e-01	4.35324217e+01
309131571.429	8.29549983e-04	-1.06775942e+01	-7.36879191e+01	-1.19081818e+02	-7.45157238e+01	-1.28344580e+02	-2.65896770e-01	4.34242090e+01
309417142.857	4.61494514e-03	-1.06539827e+01	-7.36690302e+01	-1.21085786e+02	-7.38510594e+01	-1.26054468e+02	-2.71603850e-01	4.32783335e+01
309702714.286	6.02042427e-03	-1.06930709e+01	-7.26760048e+01	-1.24671348e+02	-7.35612599e+01	-1.35263246e+02	-2.66032206e-01	4.31154687e+01
309988285.714	-1.28478319e-03	-1.07347815e+01	-7.27658605e+01	-1.24403677e+02	-7.39636782e+01	-1.31463652e+02	-2.71491932e-01	4.29842636e+01
310273857.143	-1.85684250e-03	-1.06939341e+01	-7.30924573e+01	-1.20524803e+02	-7.34196302e+01	-1.38751531e+02	-2.61038716e-01	4.28341445e+01
310559428.571	4.96397069e-03	-1.07381090e+01	-7.29804706e+01	-1.27070102e+02	-7.34831349e+01	-1.40494629e+02	-2.62402178e-01	4.26209752e+01
310845000	4.11414181e-03	-1.06964428e+01	-7.23213806e+01	-1.30968530e+02	-7.35050585e+01	-1.38602643e+02	-2.53579346e-01	4.24199345e+01
311130571.429	4.73389900e-04	-1.07287170e+01	-7.22390335e+01	-1.27589107e+02	-7.33046860e+01	-1.38061671e+02	-2.69879474e-01	4.22830024e+01
311416142.857	4.26585673e-03	-1.07433208e+01	-7.23154101e+01	-1.29103398e+02	-7.38652195e+01	-1.44238162e+02	-2.72467340e-01	4.22028514e+01
311701714.286	-3.30987924e-03	-1.07687424e+01	-7.24843544e+01	-1.31342060e+02	-7.27340521e+01	-1.43301963e+02	-2.77653557e-01	4.20893069e+01
311987285.714	3.43978473e-03	-1.07149306e+01	-7.23341565e+01	-1.36579693e+02	-7.33024354e+01	-1.43828433e+02	-2.71392959e-01	4.19370032e+01
312272857.143	-3.66182514e-04	-1.07702441e+01	-7.27186085e+01	-1.40198795e+02	-7.32175902e+01	-1.45868161e+02	-2.72552448e-01	4.17825662e+01
312558428.571	-7.79617116e-03	-1.07679653e+01	-7.24958262e+01	-1.35791901e+02	-7.27296560e+01	-1.50020017e+02	-2.67676771e-01	4.16623639e+01
312844000	-1.55357458e-03	-1.07608313e+01	-7.17030110e+01	-1.33958048e+02	-7.32198849e+01	-1.54876367e+02	-2.59510430e-01	4.14984352e+01
313129571.429	-1.05210158e-02	-1.07676111e+01	-7.23149600e+01	-1.35601780e+02	-7.27632720e+01	-1.48917867e+02	-2.71481776e-01	4.13965121e+01
313415142.857	-4.41985798e-03	-1.07696335e+01	-7.22589865e+01	-1.40051950e+02	-7.29688368e+01	-1.54619759e+02	-2.58914172e-01	4.12102498e+01
313700714.286	-5.91696288e-03	-1.07825731e+01	-7.16662384e+01	-1.41684037e+02	-7.28636524e+01	-1.54503758e+02	-2.57564848e-01	4.11260673e+01
313986285.714	-1.00153333e-02	-1.07557914e+01	-7.19092006e+01	-1.46728573e+02	-7.25369911e+01	-1.54740436e+02	-2.48184301e-01	4.09922035e+01
314271857.143	-1.57677282e-02	-1.07934357e+01	-7.13512407e+01	-1.46580972e+02	-7.22090316e+01	-1.58988774e+02	-2.59412360e-01	4.08478475e+01
314557428.571	-2.10563022e-02	-1.07720491e+01	-7.26966266e+01	-1.48303707e+02	-7.25591181e+01	-1.58734488e+02	-2.68191728e-01	4.07536053e+01
314843000	-2.23770386e-02	-1.07940835e+01	-7.23588817e+01	-1.48128815e+02	-7.32427379e+01	-1.60398248e+02	-2.48932545e-01	4.05804943e+01
315128571.429	-1.79304364e-02	-1.07923409e+01	-7.26406756e+01	-1.49948412e+02	-7.28076498e+01	-1.61688602e+02	-2.48514427e-01	4.04542302e+01
315414142.857	-1.61238528e-02	-1.07922338e+01	-7.22998161e+01	-1.54107527e+02	-7.25521815e+01	-1.63787994e+02	-2.42529819e-01	4.02454539e+01
315699714.286	-1.22678276e-02	-1.08350366e+01	-7.26844503e+01	-1.55229147e+02	-7.29854669e+01	-1.68692350e+02	-2.34108660e-01	4.01097047e+01
315985285.714	-1.03139208e-02	-1.08253921e+01	-7.21812132e+01	-1.54425756e+02	-7.23216585e+01	-1.66547529e+02	-2.25414633e-01	3.99608112e+01
316270857.143	-1.34639899e-02	-1.07978455e+01	-7.12517846e+01	-1.55184941e+02	-7.28174369e+01	-1.68971912e+02	-2.16864365e-01	3.97856311e+01
316556428.571	-1.20890018e-02	-1.08142107e+01	-7.23644461e+01	-1.56405895e+02	-7.27066680e+01	-1.72769942e+02	-2.05388386e-01	3.97171194e+01
316842000	-1.27143848e-02	-1.08343125e+01	-7.27959021e+01	-1.59168943e+02	-7.23974490e+01	-1.75998880e+02	-2.06652199e-01	3.95747506e+01
317127571.429	-1.30234718e-02	-1.08635522e+01	-7.21353242e+01	-1.60436117e+02	-7.28079592e+01	-1.76665334e+02	-2.12270672e-01	3.94573585e+01
317413142.857	-1.08609388e-02	-1.08718498e+01	-7.22537531e+01	-1.63216150e+02	-7.32938046e+01	-1.73868367e+02	-2.25066297e-01	3.93338298e+01
317698714.286	-8.71222042e-03	-1.08766209e+01	-7.28426027e+01	-1.67507445e+02	-7.22626782e+01	-1.76145731e+02	-2.29961075e-01	3.91862666e+01
317984285.714	-1.25248092e-02	-1.08698370e+01	-7.20829912e+01	-1.65947255e+02	-7.29178977e+01	-1.75943205e+02	-2.12622587e-01	3.91236551e+01
318269857.143	-1.35011114e-02	-1.08780326e+01	-7.23741146e+01	-1.65129543e+02	-7.28976625e+01	1.79310161e+02	-2.11172132e-01	3.89619096e+01
318555428.571	-1.55405550e-02	-1.08777990e+01	-7.28081205e+01	-1.66790029e+02	-7.32691137e+01	-1.77948118e+02	-2.08836153e-01	3.88096928e+01
318841000	-1.59741813e-02	-1.09187637e+01	-7.18749564e+01	-1.62828853e+02	-7.28265818e+01	1.78919481e+02	-2.07263783e-01	3.86583458e+01
319126571.429	-1.56348047e-02	-1.09104229e+01	-7.29335072e+01	-1.70207698e+02	-7.33055126e+01	1.76470581e+02	-2.07893765e-01	3.85141353e+01
319412142.857	-2.16594852e-02	-1.09130418e+01	-7.21864974e+01	-1.70194844e+02	-7.29725872e+01	1.72830175e+02	-2.05330066e-01	3.83655440e+01
319697714.286	-2.62363392e-02	-1.08986373e+01	-7.20743315e+01	-1.71620536e+02	-7.29269498e+01	1.72372736e+02	-2.09438190e-01	3.82415761e+01
319983285.714	-2.15525217e-02	-1.09099334e+01	-7.19545408e+01	-1.76762350e+02	-7.25922053e+01	1.71133343e+02	-2.08349730e-01	3.81305273e+01
320268857.143	-2.33048596e-02	-1.09034596e+01	-7.22528408e+01	-1.73416813e+02	-7.31106794e+01	1.67274918e+02	-2.10550232e-01	3.80342720e+01
320554428.571	-2.51804902e-02	-1.09115671e+01	-7.29736934e+01	-1.77947462e+02	-7.32231881e+01	1.69517310e+02	-2.09542681e-01	3.79261064e+01
320840000	-2.65930372e-02	-1.09243967e+01	-7.21579928e+01	1.79340580e+02	-7.37085633e+01	1.66454494e+02	-2.10295273e-01	3.78094801e+01
321125571.429	-2.58517065e-02	-1.09431502e+01	-7.21366611e+01	-1.79044356e+02	-7.32908432e+01	1.59761743e+02	-2.01245065e-01	3.76751897e+01
321411142.857	-3.01754853e-02	-1.09779993e+01	-7.27863159e+01	1.73102093e+02	-7.36100872e+01	1.61122221e+02	-1.95220063e-01	3.75375213e+01
321696714.286	-2.69011420e-02	-1.09342941e+01	-7.23712411e+01	1.77988297e+02	-7.34362999e+01	1.57586319e+02	-1.95153745e-01	3.73780079e+01
321982285.714	-3.25834455e-02	-1.09518390e+01	-7.20286849e+01	1.75404280e+02	-7.28456071e+01	1.55809966e+02	-1.93322225e-01	3.71986411e+01
322267857.143	-3.50351477e-02	-1.09614638e+01	-7.24042227e+01	1.71837664e+02	-7.33909995e+01	1.53827856e+02	-1.96159551e-01	3.70615805e+01
322553428.571	-3.85011869e-02	-1.09841392e+01	-7.22679290e+01	1.69973655e+02	-7.35196063e+01	1.54825011e+02	-1.91240215e-01	3.69793997e+01
322839000	-4.34243700e-02	-1.10290525e+01	-7.31283761e+01	1.70215552e+02	-7.29048883e+01	1.50999158e+02	-1.86275216e-01	3.68350524e+01
323124571.429	-4.11402565e-02	-1.09801094e+01	-7.36268355e+01	1.63686708e+02	-7.34347320e+01	1.46622886e+02	-1.83896548e-01	3.67139034e+01
323410142.857	-4.46275797e-02	-1.10030661e+01	-7.25810514e+01	1.61038333e+02	-7.37832967e+01	1.46550517e+02	-1.78662684e-01	3.65785910e+01
323695714.286	-4.21804867e-02	-1.09987848e+01	-7.33156551e+01	1.62902694e+02	-7.33705233e+01	1.44869603e+02	-1.72636249e-01	3.65221823e+01
323981285.714	-4.75310429e-02	-1.10186911e+01	-7.32654201e+01	1.62271717e+02	-7.37612656e+01	1.43824944e+02	-1.69333268e-01	3.64598008e+01
324266857.143	-4.46915147e-02	-1.10172135e+01	-7.36548524e+01	1.59766830e+02	-7.40643717e+01	1.44912404e+02	-1.66883481e-01	3.63616044e+01
324552428.571	-4.63430499e-02	-1.10338197e+01	-7.34330965e+01	1.59517786e+02	-7.44576172e+01	1.41898648e+02	-1.65497136e-01	3.62781741e+01
324838000	-4.47464736e-02	-1.10441290e+01	-7.30428942e+01	1.60895801e+02	-7.37544272e+01	1.40291847e+02	-1.61839102e-01	3.61706913e+01
325123571.429	-4.42277564e-02	-1.10383792e+01	-7.35436414e+01	1.50867960e+02	-7.45881463e+01	1.36150737e+02	-1.63243505e-01	3.60716532e+01
325409142.857	-4.56340853e-02	-1.10455668e+01	-7.37166074e+01	1.52858956e+02	-7.41207924e+01	1.34601021e+02	-1.60825030e-01	3.59382845e+01
325694714.286	-4.35356183e-02	-1.10487692e+01	-7.36900552e+01	1.52875511e+02	-7.43962000e+01	1.31692420e+02	-1.62040640e-01	3.57852022e+01
325980285.714	-4.69927543e-02	-1.10521162e+01	-7.42540614e+01	1.49863318e+02	-7.43538015e+01	1.27176529e+02	-1.58923305e-01	3.56307349e+01
326265857.143	-4.80619808e-02	-1.10696892e+01	-7.41417097e+01	1.47353731e+02	-7.42182683e+01	1.28650421e+02	-1.62095957e-01	3.55054282e+01
326551428.571	-5.29540011e-02	-1.11048827e+01	-7.39319756e+01	1.47690626e+02	-7.43563866e+01	1.26613046e+02	-1.59650573e-01	3.53905862e+01
326837000	-5.55299382e-02	-1.10965269e+01	-7.43952490e+01	1.43768737e+02	-7.48278737e+01	1.20630640e+02	-1.60504482e-01	3.52735596e+01
327122571.429	-5.16026730e-02	-1.10985937e+01	-7.49351219e+01	1.43378630e+02	-7.46479306e+01	1.21513890e+02	-1.58421562e-01	3.51906121e+01
327408142.857	-5.17420567e-02	-1.10984102e+01	-7.43501265e+01	1.38880141e+02	-7.51809788e+01	1.19183379e+02	-1.57180489e-01	3.50389329e+01
327693714.286	-5.44443194e-02	-1.11095610e+01	-7.46176026e+01	1.37430072e+02	-7.50697641e+01	1.15413720e+02	-1.55093844e-01	3.49735606e+01
327979285.714	-5.12848566e-02	-1.11106751e+01	-7.50263983e+01	1.35163335e+02	-7.53175565e+01	1.16281447e+02	-1.52258605e-01	3.48721003e+01
328264857.143	-5.16817373e-02	-1.11269465e+01	-7.49264362e+01	1.36846526e+02	-7.50777130e+01	1.10671380e+02	-1.49048342e-01	3.47246198e+01
328550428.571	-4.93895414e-02	-1.11254322e+01	-7.44249365e+01	1.33177595e+02	-7.52053531e+01	1.07885967e+02	-1.50773494e-01	3.45866860e+01
328836000	-5.24027264e-02	-1.11335930e+01	-7.53571870e+01	1.32176013e+02	-7.54662149e+01	1.09201144e+02	-1.52820849e-01	3.44013643e+01
329121571.429	-5.28705642e-02	-1.11565396e+01	-7.52684084e+01	1.35979403e+02	-7.55784232e+01	1.05529992e+02	-1.56474086e-01	3.42159369e+01
329407142.857	-5.43624978e-02	-1.11618845e+01	-7.54029928e+01	1.29822129e+02	-7.55049574e+01	1.04270982e+02	-1.52995638e-01	3.41075584e+01
329692714.286	-5.49086007e-02	-1.11552250e+01	-7.44541766e+01	1.26140694e+02	-7.63692387e+01	1.03854085e+02	-1.44914226e-01	3.39836325e+01
329978285.714	-5.26847157e-02	-1.11492503e+01	-7.57611612e+01	1.27224623e+02	-7.57565963e+01	9.60440863e+01	-1.43729863e-01	3.38861455e+01
330263857.143	-5.35267741e-02	-1.11565867e+01	-7.48999691e+01	1.20955144e+02	-7.62509538e+01	9.69884741e+01	-1.38294881e-01	3.37977151e+01
330549428.571	-5.22271083e-02	-1.11853987e+01	-7.56474010e+01	1.24700631e+02	-7.62506033e+01	9.21000355e+01	-1.35863929e-01	3.37024017e+01
330835000	-5.50244914e-02	-1.11878986e+01	-7.56648422e+01	1.26867959e+02	-7.61694832e+01	9.19410555e+01	-1.41161923e-01	3.36375664e+01
331120571.429	-5.66639339e-02	-1.12124350e+01	-7.52509711e+01	1.13240364e+02	-7.66989684e+01	8.98639293e+01	-1.42608928e-01	3.35273761e+01
331406142.857	-5.85140135e-02	-1.12311662e+01	-7.61602021e+01	1.10006174e+02	-7.66893833e+01	9.19617958e+01	-1.49644320e-01	3.33605306e+01
331691714.286	-5.89339547e-02	-1.12553919e+01	-7.63003375e+01	1.11001720e+02	-7.61129004e+01	8.70742860e+01	-1.56422159e-01	3.31933618e+01
331977285.714	-5.91252185e-02	-1.12520434e+01	-7.57924758e+01	1.08689822e+02	-7.68796542e+01	8.40618861e+01	-1.56168496e-01	3.30007266e+01
332262857.143	-5.89699358e-02	-1.12734301e+01	-7.61336786e+01	1.07115196e+02	-7.68825778e+01	8.13288989e+01	-1.44445403e-01	3.28978434e+01
332548428.571	-6.05271441e-02	-1.12786109e+01	-7.61653033e+01	1.07418791e+02	-7.73930204e+01	8.15429916e+01	-1.46805887e-01	3.27434542e+01
332834000	-5.83877327e-02	-1.12993266e+01	-7.59549019e+01	1.05212671e+02	-7.74078230e+01	7.71227086e+01	-1.47176992e-01	3.25920510e+01
333119571.429	-5.92911573e-02	-1.13093016e+01	-7.70438178e+01	9.73570477e+01	-7.69468834e+01	7.41896211e+01	-1.50418720e-01	3.24977768e+01
333405142.857	-6.00746484e-02	-1.13136646e+01	-7.76207944e+01	1.01631014e+02	-7.74738757e+01	6.93591074e+01	-1.51916163e-01	3.24466456e+01
333690714.286	-5.76214696e-02	-1.13469978e+01	-7.75477047e+01	9.60407786e+01	-7.82060354e+01	7.43476757e+01	-1.51843786e-01	3.23699658e+01
333976285.714	-5.75163805e-02	-1.13569190e+01	-7.79800101e+01	9.96140349e+01	-7.80681265e+01	6.40998433e+01	-1.50408232e-01	3.22663370e+01
334261857.143	-5.71812464e-02	-1.13935465e+01	-7.74869631e+01	8.78825851e+01	-7.79974731e+01	5.96296041e+01	-1.55254145e-01	3.21260943e+01
334547428.571	-5.65835289e-02	-1.14108011e+01	-7.78876795e+01	9.42556448e+01	-7.88895104e+01	6.17665725e+01	-1.56901287e-01	3.19828996e+01
334833000	-5.78787525e-02	-1.14011142e+01	-7.85339281e+01	9.26073016e+01	-7.92673303e+01	6.35742924e+01	-1.69996320e-01	3.18824298e+01
335118571.429	-5.81333496e-02	-1.14128251e+01	-7.94358394e+01	8.78286870e+01	-7.95562973e+01	5.73877950e+01	-1.64040431e-01	3.16982678e+01
335404142.857	-5.64746126e-02	-1.14302609e+01	-7.87185212e+01	8.87293106e+01	-7.95012397e+01	5.39887595e+01	-1.67144023e-01	3.15142162e+01
335689714.286	-5.64336342e-02	-1.14492307e+01	-8.03773718e+01	9.23893756e+01	-8.00122797e+01	5.20574932e+01	-1.64211971e-01	3.13785114e+01
335975285.714	-5.44582016e-02	-1.14684245e+01	-7.98836722e+01	8.72196221e+01	-8.05117420e+01	4.71133286e+01	-1.65790912e-01	3.13157268e+01
336260857.143	-5.45615130e-02	-1.14606863e+01	-8.10818617e+01	8.27164869e+01	-8.00644762e+01	4.55368564e+01	-1.67596561e-01	3.12824060e+01
336546428.571	-5.35688639e-02	-1.14693390e+01	-8.01711629e+01	8.54735731e+01	-8.00252287e+01	4.24106220e+01	-1.66208342e-01	3.12294364e+01
336832000	-5.15414791e-02	-1.14976793e+01	-8.23972547e+01	8.11670685e+01	-7.97714880e+01	4.29387491e+01	-1.70435309e-01	3.12035729e+01
337117571.429	-5.04676562e-02	-1.15026376e+01	-8.10575089e+01	8.59715545e+01	-8.03785559e+01	4.16725858e+01	-1.65193817e-01	3.10582383e+01
337403142.857	-5.15534315e-02	-1.15054395e+01	-8.12178696e+01	8.41920534e+01	-8.04760613e+01	4.64021820e+01	-1.64577545e-01	3.09332589e+01
337688714.286	-5.01192961e-02	-1.15309608e+01	-8.13380633e+01	8.33714370e+01	-8.19554232e+01	3.49794989e+01	-1.61208657e-01	3.07925139e+01
337974285.714	-5.17494819e-02	-1.15572292e+01	-8.19276762e+01	8.33503938e+01	-8.15449314e+01	4.09119349e+01	-1.54111142e-01	3.06033030e+01
338259857.143	-5.22414968e-02	-1.15728739e+01	-8.31486351e+01	8.33973947e+01	-8.21320563e+01	3.92275326e+01	-1.47837129e-01	3.04696768e+01
338545428.571	-4.97282260e-02	-1.15995852e+01	-8.28959034e+01	7.74997401e+01	-8.18781857e+01	3.93964546e+01	-1.47014967e-01	3.03442065e+01
338831000	-5.13383512e-02	-1.16269580e+01	-8.07541782e+01	7.42916994e+01	-8.20335561e+01	3.39100744e+01	-1.41776403e-01	3.02599002e+01
339116571.429	-4.93050609e-02	-1.16527455e+01	-8.16825288e+01	7.86467747e+01	-8.13102748e+01	4.20861652e+01	-1.44223248e-01	3.00938115e+01
339402142.857	-4.70664990e-02	-1.16827237e+01	-8.20932387e+01	7.86595111e+01	-8.18900200e+01	3.71784749e+01	-1.39847699e-01	3.00040018e+01
339687714.286	-4.89456541e-02	-1.16986051e+01	-8.25539718e+01	7.75670445e+01	-8.19165492e+01	4.05098785e+01	-1.39004150e-01	2.98827606e+01
339973285.714	-4.69574093e-02	-1.17185056e+01	-8.19039938e+01	7.25875808e+01	-8.22745990e+01	4.07960605e+01	-1.36805423e-01	2.97327295e+01
340258857.143	-4.74504351e-02	-1.17071134e+01	-8.16336712e+01	7.47724052e+01	-8.22082902e+01	3.17159430e+01	-1.35871153e-01	2.96698836e+01
340544428.571	-4.72588238e-02	-1.17324691e+01	-8.21446151e+01	5.68896209e+01	-8.12951328e+01	2.76636958e+01	-1.45104500e-01	2.95571473e+01
340830000	-4.37301214e-02	-1.17702136e+01	-8.25145570e+01	6.87710614e+01	-8.10596773e+01	2.23384316e+01	-1.47977927e-01	2.94720327e+01
341115571.429	-4.65981677e-02	-1.17717189e+01	-8.22519787e+01	6.30178712e+01	-8.18377907e+01	3.80935771e+01	-1.42801195e-01	2.93567659e+01
341401142.857	-4.42742248e-02	-1.17877417e+01	-8.20453565e+01	5.61377000e+01	-8.30237350e+01	2.58000703e+01	-1.45713906e-01	2.92154317e+01
341686714.286	-4.22799676e-02	-1.18254672e+01	-8.20410056e+01	6.53169736e+01	-8.17725663e+01	1.89316790e+01	-1.50959044e-01	2.91094720e+01
341972285.714	-4.24824786e-02	-1.18236751e+01	-8.07715198e+01	5.69283827e+01	-8.10054394e+01	1.22769704e+01	-1.53097190e-01	2.90490444e+01
342257857.143	-4.29189397e-02	-1.18116928e+01	-8.44787350e+01	5.87651261e+01	-8.12882658e+01	1.72147277e+01	-1.50644001e-01	2.88892218e+01
342543428.571	-4.15065417e-02	-1.18254084e+01	-8.15929688e+01	5.00311106e+01	-8.32070703e+01	1.37645434e+01	-1.40031789e-01	2.87428441e+01
342829000	-4.04320623e-02	-1.18429567e+01	-8.31678059e+01	4.98959564e+01	-8.25850824e+01	1.34043689e+01	-1.35341952e-01	2.85769656e+01
343114571.429	-4.04337179e-02	-1.18744712e+01	-8.39979841e+01	3.79368273e+01	-8.09935014e+01	1.51735043e+01	-1.38127232e-01	2.84050968e+01
343400142.857	-3.90327991e-02	-1.18912192e+01	-8.17943123e+01	4.55345895e+01	-8.14637265e+01	1.57720355e+00	-1.30275882e-01	2.82817824e+01
343685714.286	-4.05392178e-02	-1.19284560e+01	-8.34000928e+01	2.54012022e+01	-8.21687750e+01	2.02645421e+00	-1.34819306e-01	2.82301916e+01
343971285.714	-4.06587715e-02	-1.19512038e+01	-8.55574760e+01	5.39838182e+01	-8.17496633e+01	-1.70641431e+00	-1.32551815e-01	2.81517807e+01
344256857.143	-3.78583141e-02	-1.19237392e+01	-8.41538541e+01	3.71388277e+01	-8.23107541e+01	-3.54353862e+00	-1.34806352e-01	2.79747416e+01
344542428.571	-4.06321055e-02	-1.19341387e+01	-8.23395439e+01	2.42095324e+01	-8.12239286e+01	-5.21096702e+00	-1.37325120e-01	2.78268125e+01
344828000	-3.62068548e-02	-1.19418251e+01	-8.62990906e+01	1.20319406e+01	-8.18095143e+01	-5.34020986e+00	-1.43546170e-01	2.77617983e+01
345113571.429	-3.42883254e-02	-1.19741919e+01	-8.45648233e+01	3.46607218e+01	-8.18082496e+01	-9.42944971e+00	-1.51517438e-01	2.76713686e+01
345399142.857	-3.38442738e-02	-1.19433800e+01	-8.38320720e+01	2.71659060e+01	-8.20748851e+01	-8.03854984e+00	-1.50497250e-01	2.76278189e+01
345684714.286	-3.18315691e-02	-1.19756562e+01	-8.47693853e+01	1.93968800e+01	-8.04152119e+01	-1.31533775e+01	-1.65168551e-01	2.75144960e+01
345970285.714	-2.85726868e-02	-1.20304095e+01	-8.33728316e+01	3.36654833e+01	-8.18403187e+01	-8.96900054e+00	-1.65402424e-01	2.74133774e+01
346255857.143	-3.23187910e-02	-1.20429546e+01	-8.45463975e+01	9.73247415e+00	-8.07558779e+01	-1.41160826e+01	-1.73584068e-01	2.73567677e+01
346541428.571	-3.09522709e-02	-1.20737197e+01	-8.38587206e+01	1.39420536e+01	-8.34686451e+01	-1.24881368e+01	-1.59305477e-01	2.72723857e+01
346827000	-3.25760764e-02	-1.20654843e+01	-8.63971051e+01	9.05246771e+00	-8.27221488e+01	-8.15913078e+00	-1.57634427e-01	2.71019856e+01
347112571.429	-3.49220192e-02	-1.20763684e+01	-8.46648785e+01	1.63510233e+01	-8.18258945e+01	-1.87290610e+01	-1.62540462e-01	2.69871077e+01
347398142.857	-3.44409002e-02	-1.20959634e+01	-8.52600490e+01	3.79633378e+00	-8.20320345e+01	-1.75140616e+01	-1.63744393e-01	2.69192244e+01
347683714.286	-3.12348884e-02	-1.20669188e+01	-8.62999273e+01	1.73050751e+01	-8.27000587e+01	-2.94394094e+01	-1.78944434e-01	2.67791314e+01
347969285.714	-3.12155563e-02	-1.20677710e+01	-8.54110277e+01	1.61525392e+01	-8.13363752e+01	-2.38414138e+01	-1.74024877e-01	2.66281296e+01
348254857.143	-2.93217944e-02	-1.21121251e+01	-8.86124352e+01	5.07958217e+00	-8.29711567e+01	-2.59166133e+01	-1.78581323e-01	2.65906528e+01
348540428.571	-3.24966285e-02	-1.21105362e+01	-8.49541485e+01	9.09221840e+00	-8.35985534e+01	-2.20802650e+01	-1.75690077e-01	2.63815284e+01
348826000	-2.87805742e-02	-1.21439973e+01	-8.54325643e+01	1.78143903e+01	-8.18981519e+01	-3.19745313e+01	-1.78430315e-01	2.63051375e+01
349111571.429	-2.53058704e-02	-1.21976236e+01	-8.68937656e+01	7.22958004e+00	-8.40379039e+01	-3.25387312e+01	-1.72291922e-01	2.62015730e+01
349397142.857	-2.05206531e-02	-1.21721035e+01	-8.49490362e+01	-2.67194318e+01	-8.12598538e+01	-2.39447034e+01	-1.73471013e-01	2.60247053e+01
349682714.286	-2.45749187e-02	-1.21919658e+01	-8.79192812e+01	-1.94903838e+01	-8.27019656e+01	-2.86253590e+01	-1.72740545e-01	2.59284854e+01
349968285.714	-2.78749748e-02	-1.22042147e+01	-8.64176921e+01	-1.52257390e+01	-8.06741093e+01	-3.29601923e+01	-1.70470371e-01	2.58107688e+01
350253857.143	-2.07393446e-02	-1.22158086e+01	-8.90499053e+01	-1.20695712e+01	-8.15216634e+01	-3.25373090e+01	-1.70973594e-01	2.57062099e+01
350539428.571	-2.62245657e-02	-1.22361424e+01	-8.38480835e+01	3.67826257e+00	-8.13818264e+01	-3.67615281e+01	-1.80849117e-01	2.55828890e+01
350825000	-2.03757084e-02	-1.22569464e+01	-8.52514691e+01	-1.28434948e+00	-8.21239887e+01	-3.92340122e+01	-1.78568423e-01	2.54162174e+01
351110571.429	-1.57802935e-02	-1.22418398e+01	-8.74363109e+01	-7.40462687e+00	-8.18423411e+01	-3.43527523e+01	-1.71197126e-01	2.52647500e+01
351396142.857	-2.13886940e-02	-1.22472396e+01	-8.70599186e+01	-1.08068273e+01	-8.32157255e+01	-3.04980164e+01	-1.71942720e-01	2.51517847e+01
351681714.286	-2.84933124e-02	-1.22958493e+01	-8.53421641e+01	-1.81691454e+01	-8.26142393e+01	-5.01336636e+01	-1.77146986e-01	2.50522586e+01
351967285.714	-2.67405917e-02	-1.22840608e+01	-8.72312011e+01	-3.14915754e+01	-8.14194893e+01	-3.76414980e+01	-1.66437867e-01	2.49366878e+01
352252857.143	-2.72454404e-02	-1.22985309e+01	-8.65021131e+01	-7.79128315e+00	-8.30073491e+01	-4.40352736e+01	-1.73588614e-01	2.47861374e+01
352538428.571	-1.97089844e-02	-1.23033746e+01	-8.47314432e+01	1.36583426e+00	-8.23114775e+01	-4.34890574e+01	-1.79753569e-01	2.46492245e+01
352824000	-2.01793363e-02	-1.23267182e+01	-9.38685757e+01	-1.84666117e+01	-8.33660943e+01	-5.70876195e+01	-1.88682670e-01	2.45943296e+01
353109571.429	-1.83375803e-02	-1.23693429e+01	-8.59499890e+01	2.05572590e+01	-8.12033122e+01	-4.32949929e+01	-1.80434411e-01	2.43988059e+01
353395142.857	-1.72234675e-02	-1.23741128e+01	-8.78146057e+01	-2.78423011e+01	-8.26331253e+01	-5.17489382e+01	-1.73859631e-01	2.42359678e+01
353680714.286	-1.76013178e-02	-1.23884332e+01	-8.71237482e+01	-2.20898621e+01	-8.25533308e+01	-5.09361304e+01	-1.71809882e-01	2.41916275e+01
353966285.714	-1.60227248e-02	-1.23979271e+01	-8.70225630e+01	1.27895598e+01	-8.28178309e+01	-4.83831514e+01	-1.72308162e-01	2.40877529e+01
354251857.143	-1.67514290e-02	-1.24088600e+01	-8.82950854e+01	2.02492211e+00	-8.79760751e+01	-4.85965847e+01	-1.89071110e-01	2.39754987e+01
354537428.571	-1.69797416e-02	-1.24060138e+01	-8.42185492e+01	-2.68732427e+01	-8.06186554e+01	-4.38367508e+01	-1.90480181e-01	2.38351150e+01
354823000	-1.22994055e-02	-1.24304434e+01	-8.69752546e+01	2.08543311e+01	-8.23924904e+01	-3.14276221e+01	-1.84865771e-01	2.36986031e+01
355108571.429	-1.71118702e-02	-1.24436946e+01	-8.35789623e+01	1.76567698e+00	-8.29841098e+01	-5.06401553e+01	-1.79562752e-01	2.36500142e+01
355394142.857	-1.56199471e-02	-1.24419854e+01	-8.53577520e+01	2.93001778e+01	-8.20834217e+01	-5.99425097e+01	-1.84035720e-01	2.35515463e+01
355679714.286	-1.79810931e-02	-1.24766805e+01	-8.61310381e+01	-2.50802142e+00	-8.18152684e+01	-4.28990255e+01	-1.83991108e-01	2.34557596e+01
355965285.714	-1.69731975e-02	-1.24907506e+01	-9.02142166e+01	-7.64886868e+00	-8.24163210e+01	-5.18251478e+01	-1.95977076e-01	2.32656593e+01
356250857.143	-1.58686150e-02	-1.24762080e+01	-8.52616772e+01	-9.48946348e+00	-8.23075769e+01	-4.58798822e+01	-1.97884096e-01	2.31470783e+01
356536428.571	-1.03967732e-02	-1.25016361e+01	-8.31106447e+01	-1.25242357e+01	-8.24096074e+01	-4.68602371e+01	-1.88953962e-01	2.30298406e+01
356822000	-1.20957436e-02	-1.24992150e+01	-8.46407826e+01	-1.92388555e+01	-8.56841440e+01	-6.40343920e+01	-1.92612103e-01	2.28751953e+01
357107571.429	-5.75593342e-03	-1.25343152e+01	-8.65424353e+01	-9.50077317e+00	-8.29965902e+01	-5.31464723e+01	-1.89262251e-01	2.27991685e+01
357393142.857	-4.85518346e-03	-1.25935351e+01	-8.53097412e+01	-2.33216091e+01	-8.17295438e+01	-5.19403339e+01	-1.90491270e-01	2.26142157e+01
357678714.286	-3.80285985e-03	-1.25542272e+01	-8.31459530e+01	-1.77650513e+01	-8.38007926e+01	-5.04852724e+01	-1.90159905e-01	2.24772279e+01
357964285.714	-6.34056413e-03	-1.25405672e+01	-8.30862234e+01	1.49763261e+01	-8.24548381e+01	-4.46467135e+01	-1.93874196e-01	2.23659143e+01
358249857.143	-1.98428381e-03	-1.26095279e+01	-8.70286010e+01	-3.70773428e+01	-8.09868782e+01	-5.26684106e+01	-1.95449441e-01	2.22196785e+01
358535428.571	-7.88118435e-03	-1.26625036e+01	-8.50833736e+01	-1.41298494e+01	-8.33528052e+01	-3.72604048e+01	-2.02251977e-01	2.20646432e+01
358821000	-1.77041232e-03	-1.26714849e+01	-8.32512665e+01	-4.21765304e+01	-8.20729543e+01	-3.09504392e+01	-1.95797046e-01	2.19656604e+01
359106571.429	5.13101015e-04	-1.26494804e+01	-8.36265474e+01	-2.85373319e+01	-8.12286055e+01	-4.20805534e+01	-1.88887998e-01	2.18965133e+01
359392142.857	1.98844852e-03	-1.27226013e+01	-8.68256368e+01	-5.11160361e+01	-8.22516169e+01	-5.26052220e+01	-1.94369705e-01	2.16864095e+01
359677714.286	4.38222177e-03	-1.26724925e+01	-8.15384777e+01	-1.34395319e+01	-8.07948813e+01	-5.29764566e+01	-1.98776846e-01	2.16634275e+01
359963285.714	-1.70652719e-03	-1.26926501e+01	-8.19090470e+01	-2.68449114e+01	-8.10697585e+01	-4.73909330e+01	-2.06608554e-01	2.15844190e+01
360248857.143	-6.78892322e-03	-1.27022540e+01	-8.10767298e+01	-7.82633161e+00	-8.14171505e+01	-4.06170184e+01	-2.00122399e-01	2.13985732e+01
360534428.571	6.79255728e-03	-1.27033095e+01	-8.21594821e+01	-2.55306102e+01	-8.04360879e+01	-5.12583206e+01	-1.99542110e-01	2.12391761e+01
360820000	1.17821454e-03	-1.27459196e+01	-8.20069756e+01	-2.95590122e+01	-8.10015746e+01	-3.97600979e+01	-2.01750246e-01	2.10621741e+01
361105571.429	3.17473672e-03	-1.27725683e+01	-8.46356882e+01	-1.22543349e+01	-8.09248756e+01	-5.31663245e+01	-1.97273595e-01	2.09571477e+01
361391142.857	2.44618702e-03	-1.27670924e+01	-8.23648657e+01	-2.03584108e+01	-8.22313654e+01	-3.70077214e+01	-2.00857270e-01	2.07650598e+01
361676714.286	-2.42906252e-04	-1.27705786e+01	-7.90427507e+01	-3.47063453e+01	-8.02878876e+01	-4.51464785e+01	-2.05603511e-01	2.06272440e+01
361962285.714	-6.82636737e-03	-1.28172172e+01	-8.31839137e+01	-1.49827601e+01	-7.94167185e+01	-4.14667272e+01	-2.03361018e-01	2.05275720e+01
362247857.143	3.57816551e-03	-1.27796272e+01	-8.15160682e+01	-2.47934399e+01	-7.99719358e+01	-5.14813712e+01	-2.06540321e-01	2.03803751e+01
362533428.571	-3.45904093e-04	-1.28013107e+01	-8.13815796e+01	-5.37122310e+00	-8.08402765e+01	-5.39423497e+01	-2.17100150e-01	2.02473484e+01
362819000	6.60507940e-04	-1.28058812e+01	-8.03588595e+01	-2.04267520e+01	-7.92277667e+01	-4.99675490e+01	-2.11270459e-01	2.01262262e+01
363104571.429	-7.05486995e-04	-1.28474231e+01	-8.22924478e+01	-1.04132031e+01	-7.91812525e+01	-4.65325272e+01	-2.22008259e-01	1.99787711e+01
363390142.857	-3.41680499e-03	-1.28386891e+01	-7.91296021e+01	-3.23505898e+01	-7.82634376e+01	-4.35009774e+01	-2.25469487e-01	1.99092904e+01
363675714.286	-3.01191475e-03	-1.28797880e+01	-8.29310814e+01	-2.93467861e+01	-7.90537706e+01	-4.90222444e+01	-2.32829856e-01	1.98007350e+01
363961285.714	-3.82464379e-03	-1.28654768e+01	-7.84594774e+01	-2.76858128e+01	-7.91962903e+01	-5.10690454e+01	-2.24483466e-01	1.96006889e+01
364246857.143	-2.15185553e-03	-1.28923308e+01	-8.00069782e+01	-2.19934040e+01	-7.80875089e+01	-4.41865975e+01	-2.27322424e-01	1.95072228e+01
364532428.571	3.20987825e-03	-1.29077056e+01	-7.95013651e+01	-2.94804555e+01	-7.87985258e+01	-5.01627385e+01	-2.28009741e-01	1.93850658e+01
364818000	-5.17949504e-04	-1.29153193e+01	-8.00935213e+01	-3.56174040e+01	-7.77789900e+01	-5.42999892e+01	-2.28120060e-01	1.92151401e+01
365103571.429	-5.90181242e-04	-1.28618706e+01	-7.88122347e+01	-3.76743517e+01	-7.80838562e+01	-5.02775921e+01	-2.35765012e-01	1.90742649e+01
365389142.857	5.74263171e-03	-1.29058747e+01	-7.78892198e+01	-3.81314191e+01	-7.97306638e+01	-5.44830137e+01	-2.41850342e-01	1.89218680e+01
365674714.286	1.20394438e-02	-1.29158862e+01	-8.11783644e+01	-4.00098661e+01	-7.81879652e+01	-6.06568520e+01	-2.42061880e-01	1.88487187e+01
365960285.714	6.23706390e-03	-1.29604065e+01	-7.92822867e+01	-3.64804949e+01	-7.82546423e+01	-4.69155147e+01	-2.39558119e-01	1.86891363e+01
366245857.143	5.78079758e-03	-1.29670776e+01	-7.87515680e+01	-3.97747319e+01	-7.84818807e+01	-5.26614677e+01	-2.39446513e-01	1.85552964e+01
366531428.571	1.04445539e-02	-1.29785951e+01	-7.76435257e+01	-4.69476799e+01	-7.72675170e+01	-5.77141780e+01	-2.33275913e-01	1.84609974e+01
366817000	2.04468635e-02	-1.29934892e+01	-7.88886098e+01	-4.46708072e+01	-7.68807763e+01	-5.64292946e+01	-2.40764894e-01	1.82790760e+01
367102571.429	1.85174379e-02	-1.30296928e+01	-7.76570701e+01	-4.94202454e+01	-7.80070927e+01	-7.16796154e+01	-2.36276894e-01	1.81479575e+01
367388142.857	1.95841735e-02	-1.30624573e+01	-7.77474008e+01	-4.38239314e+01	-7.65007176e+01	-6.42017879e+01	-2.41860963e-01	1.80071165e+01
367673714.286	9.61085654e-03	-1.30356801e+01	-7.75866194e+01	-5.47272222e+01	-7.63446322e+01	-6.46671479e+01	-2.39221165e-01	1.78773289e+01
367959285.714	1.14041394e-02	-1.30350745e+01	-7.73102658e+01	-4.92080728e+01	-7.67959460e+01	-6.26825844e+01	-2.34727720e-01	1.77603404e+01
368244857.143	1.46326131e-02	-1.30488257e+01	-7.83019261e+01	-4.60703308e+01	-7.91558737e+01	-6.73913039e+01	-2.31574525e-01	1.76278820e+01
368530428.571	1.71808171e-02	-1.30467388e+01	-7.78420909e+01	-5.35318118e+01	-7.69907865e+01	-7.16506725e+01	-2.31146692e-01	1.74315122e+01
368816000	1.18934382e-02	-1.30475331e+01	-7.67986384e+01	-4.32923798e+01	-7.63588904e+01	-6.91009447e+01	-2.35005751e-01	1.72727656e+01
369101571.429	1.29557138e-02	-1.30324188e+01	-7.68646357e+01	-5.26401513e+01	-7.71383834e+01	-6.29160703e+01	-2.38313630e-01	1.71795861e+01
369387142.857	9.57003013e-03	-1.30817448e+01	-7.77392575e+01	-4.81799815e+01	-7.62786423e+01	-6.94408881e+01	-2.29880671e-01	1.69966227e+01
369672714.286	9.46748191e-03	-1.31060551e+01	-7.69047559e+01	-5.74220570e+01	-7.67340426e+01	-6.79495634e+01	-2.28468207e-01	1.69180454e+01
369958285.714	7.87711109e-03	-1.30704929e+01	-7.73812896e+01	-6.21237374e+01	-7.61520615e+01	-6.46132100e+01	-2.29813423e-01	1.67364109e+01
370243857.143	1.10824188e-02	-1.30262658e+01	-7.86576218e+01	-5.94324021e+01	-7.62371869e+01	-6.60543818e+01	-2.25947648e-01	1.65866474e+01
370529428.571	7.41085687e-03	-1.30659285e+01	-7.69121745e+01	-5.16861071e+01	-7.59757945e+01	-7.15667931e+01	-2.23657844e-01	1.64400303e+01
370815000	1.11956953e-02	-1.31217427e+01	-7.61646549e+01	-5.86258396e+01	-7.64565209e+01	-7.42723179e+01	-2.15640621e-01	1.63053341e+01
371100571.429	6.65034020e-03	-1.31207105e+01	-7.65301557e+01	-5.11308569e+01	-7.61665638e+01	-7.70492851e+01	-2.06419468e-01	1.62028890e+01
371386142.857	1.21963733e-02	-1.30766259e+01	-7.64060686e+01	-5.60404418e+01	-7.59880624e+01	-7.53148187e+01	-2.09042080e-01	1.61252700e+01
371671714.286	1.29794941e-02	-1.30758985e+01	-7.59449507e+01	-5.72030308e+01	-7.60712638e+01	-7.18740558e+01	-2.06244331e-01	1.59806292e+01
371957285.714	5.20738587e-03	-1.31171405e+01	-7.73804097e+01	-5.21097998e+01	-7.52938123e+01	-7.57748818e+01	-2.05306704e-01	1.58413810e+01
372242857.143	6.79881029e-03	-1.31402552e+01	-7.59447870e+01	-7.38340483e+01	-7.62367194e+01	-7.01878086e+01	-2.02356019e-01	1.57220374e+01
372528428.571	1.23183798e-02	-1.31458233e+01	-7.52333013e+01	-6.28575572e+01	-7.55204442e+01	-7.58947978e+01	-1.99888909e-01	1.55474594e+01
372814000	7.33235767e-03	-1.31924761e+01	-7.68950752e+01	-5.99788455e+01	-7.47405215e+01	-7.46878013e+01	-2.02448168e-01	1.53830894e+01
373099571.429	6.09875892e-03	-1.31917840e+01	-7.61971586e+01	-5.92143166e+01	-7.54714189e+01	-7.63684368e+01	-2.03355673e-01	1.53116214e+01
373385142.857	-1.32930918e-03	-1.31418844e+01	-7.69240602e+01	-6.88972884e+01	-7.54479637e+01	-8.47370047e+01	-2.03342269e-01	1.51920592e+01
373670714.286	-7.57887560e-03	-1.31636764e+01	-7.76183273e+01	-5.66317899e+01	-7.59514558e+01	-7.47581399e+01	-2.04191833e-01	1.50686403e+01
373956285.714	-7.44310533e-03	-1.31670645e+01	-7.59776540e+01	-6.83187942e+01	-7.57884836e+01	-7.31269990e+01	-2.05119941e-01	1.49187999e+01
374241857.143	-1.20377883e-02	-1.31761958e+01	-7.69786796e+01	-6.16249953e+01	-7.48580825e+01	-8.22647173e+01	-1.99435453e-01	1.47437227e+01
374527428.571	-1.42487641e-02	-1.32188144e+01	-7.63139752e+01	-6.93397613e+01	-7.50288234e+01	-8.08765424e+01	-2.02355378e-01	1.45915177e+01
374813000	-7.92670200e-03	-1.31913700e+01	-7.63517445e+01	-7.54607658e+01	-7.47947375e+01	-7.97137422e+01	-2.06495288e-01	1.44546174e+01
375098571.429	-6.83574637e-03	-1.32105957e+01	-7.51281894e+01	-6.58720056e+01	-7.54441561e+01	-8.19431061e+01	-1.98495899e-01	1.43505125e+01
375384142.857	-6.62527531e-03	-1.32636057e+01	-7.65236957e+01	-6.86909316e+01	-7.52308129e+01	-8.45370001e+01	-1.98920618e-01	1.42572577e+01
375669714.286	-1.05941361e-02	-1.32372589e+01	-7.55940829e+01	-6.33307409e+01	-7.50441288e+01	-8.15882656e+01	-1.97919355e-01	1.41674479e+01
375955285.714	-5.01092436e-04	-1.32443769e+01	-7.59421276e+01	-7.33382405e+01	-7.47400636e+01	-8.27821891e+01	-1.98533990e-01	1.40525992e+01
376240857.143	-4.80276271e-03	-1.32375431e+01	-7.55335042e+01	-7.48043794e+01	-7.46432968e+01	-7.73059928e+01	-1.96645264e-01	1.39053680e+01
376526428.571	-9.59136806e-04	-1.32758238e+01	-7.58699848e+01	-6.88093575e+01	-7.45658800e+01	-8.36318054e+01	-1.87781387e-01	1.37579758e+01
376812000	-9.42240770e-03	-1.32946513e+01	-7.48964347e+01	-7.54047391e+01	-7.49362072e+01	-7.96982789e+01	-1.86053599e-01	1.36160629e+01
377097571.429	-2.53829892e-04	-1.32725203e+01	-7.52298781e+01	-7.36074538e+01	-7.41581772e+01	-8.31041521e+01	-1.83993529e-01	1.34942736e+01
377383142.857	-3.97043395e-03	-1.32868555e+01	-7.52045467e+01	-7.33683409e+01	-7.42688041e+01	-7.90376893e+01	-1.78378414e-01	1.33498866e+01
377668714.286	1.57110151e-03	-1.32990560e+01	-7.54556806e+01	-7.03157346e+01	-7.40839588e+01	-7.95120993e+01	-1.84672484e-01	1.32111769e+01
377954285.714	4.79120916e-03	-1.33159072e+01	-7.64587280e+01	-7.05894769e+01	-7.45510323e+01	-8.40842329e+01	-1.88948184e-01	1.30961493e+01
378239857.143	-2.14737937e-03	-1.33309289e+01	-7.46980680e+01	-6.99924249e+01	-7.42265921e+01	-8.13085407e+01	-1.86322346e-01	1.30124456e+01
378525428.571	1.51925400e-03	-1.33090880e+01	-7.56321637e+01	-7.82321063e+01	-7.37859325e+01	-8.19149079e+01	-1.82764698e-01	1.29259415e+01
378811000	-2.44485168e-03	-1.33490561e+01	-7.42535267e+01	-7.11168015e+01	-7.37742530e+01	-8.62077998e+01	-1.76569071e-01	1.28039194e+01
379096571.429	-1.80649697e-03	-1.33366833e+01	-7.49494226e+01	-7.85661398e+01	-7.43097408e+01	-8.49538163e+01	-1.74889206e-01	1.26888888e+01
379382142.857	4.36043873e-03	-1.33206058e+01	-7.42710513e+01	-7.40612940e+01	-7.44043822e+01	-8.79024096e+01	-1.70083483e-01	1.25788782e+01
379667714.286	-6.10927136e-05	-1.33231077e+01	-7.41942425e+01	-7.54486294e+01	-7.41265852e+01	-8.77198762e+01	-1.71389341e-01	1.24786246e+01
379953285.714	-3.06317872e-03	-1.33607936e+01	-7.34688293e+01	-7.58659329e+01	-7.31102322e+01	-8.95993032e+01	-1.69239493e-01	1.23713340e+01
380238857.143	-3.76759200e-03	-1.33783958e+01	-7.38816832e+01	-8.09519650e+01	-7.30101305e+01	-8.88967806e+01	-1.66476195e-01	1.22670069e+01
380524428.571	-5.81158159e-03	-1.33848213e+01	-7.32945011e+01	-8.51411702e+01	-7.32519002e+01	-8.76576858e+01	-1.66033320e-01	1.21279860e+01
380810000	-6.85625810e-03	-1.34027759e+01	-7.41419142e+01	-8.17297078e+01	-7.32466701e+01	-8.94924682e+01	-1.62835812e-01	1.19898533e+01
381095571.429	-1.11561133e-02	-1.34196458e+01	-7.42892389e+01	-8.54312634e+01	-7.29496423e+01	-9.43604083e+01	-1.59429050e-01	1.18771036e+01
381381142.857	-1.16296072e-02	-1.34288408e+01	-7.36767033e+01	-8.17322707e+01	-7.28781440e+01	-9.12443534e+01	-1.63841903e-01	1.17451038e+01
381666714.286	-8.93832227e-03	-1.34211611e+01	-7.42397000e+01	-8.29256723e+01	-7.31308320e+01	-9.25131878e+01	-1.60862975e-01	1.16172990e+01
381952285.714	-1.29464388e-02	-1.34379776e+01	-7.38560480e+01	-8.45353596e+01	-7.28774931e+01	-9.34268200e+01	-1.66815157e-01	1.15010402e+01
382237857.143	-1.55742003e-02	-1.34492466e+01	-7.33565832e+01	-8.25243370e+01	-7.24133433e+01	-9.19689277e+01	-1.60627288e-01	1.13954663e+01
382523428.571	-1.85593863e-02	-1.34382590e+01	-7.30565592e+01	-8.69124469e+01	-7.27619673e+01	-9.47686842e+01	-1.62004126e-01	1.13148568e+01
382809000	-1.86257292e-02	-1.34543969e+01	-7.36503627e+01	-8.47431550e+01	-7.26740311e+01	-9.18832293e+01	-1.62810719e-01	1.11746332e+01
383094571.429	-1.56670141e-02	-1.34762291e+01	-7.35808664e+01	-8.12689378e+01	-7.23524203e+01	-9.40351804e+01	-1.65905142e-01	1.10554905e+01
383380142.857	-1.96479436e-02	-1.34698507e+01	-7.32040271e+01	-8.49090339e+01	-7.23261988e+01	-9.10929437e+01	-1.64661915e-01	1.08875748e+01
383665714.286	-1.76290174e-02	-1.35070791e+01	-7.25062598e+01	-8.76499054e+01	-7.17358326e+01	-9.51325175e+01	-1.61494519e-01	1.07793002e+01
383951285.714	-2.34238484e-02	-1.35011626e+01	-7.24491630e+01	-8.90649936e+01	-7.15967954e+01	-9.60828524e+01	-1.57453870e-01	1.06210664e+01
384236857.143	-2.34872969e-02	-1.34985105e+01	-7.20402878e+01	-8.83527385e+01	-7.22135336e+01	-9.70212500e+01	-1.56026361e-01	1.05286210e+01
384522428.571	-2.46260311e-02	-1.35372957e+01	-7.22381560e+01	-8.96111993e+01	-7.16266601e+01	-9.70432903e+01	-1.59846299e-01	1.03947220e+01
384808000	-2.17458833e-02	-1.35221113e+01	-7.19903732e+01	-8.82127437e+01	-7.19305584e+01	-1.01633391e+02	-1.55301334e-01	1.02760860e+01
385093571.429	-3.00791616e-02	-1.35223373e+01	-7.24674614e+01	-9.15560341e+01	-7.13092868e+01	-1.00447057e+02	-1.56904013e-01	1.01857990e+01
385379142.857	-2.78859559e-02	-1.35557944e+01	-7.17323532e+01	-8.96467262e+01	-7.16577905e+01	-1.01871654e+02	-1.52336202e-01	1.00609960e+01
385664714.286	-2.84337578e-02	-1.35615909e+01	-7.16945316e+01	-9.04742446e+01	-7.14556039e+01	-1.01633473e+02	-1.50517575e-01	1.00060983e+01
385950285.714	-2.73955669e-02	-1.35845661e+01	-7.19353977e+01	-9.33695986e+01	-7.08138876e+01	-1.01276644e+02	-1.51140256e-01	9.83947727e+00
386235857.143	-2.89667468e-02	-1.36081867e+01	-7.15586618e+01	-9.59010496e+01	-7.12210750e+01	-1.04425417e+02	-1.50753677e-01	9.70512108e+00
386521428.571	-2.73909928e-02	-1.36255093e+01	-7.20970481e+01	-9.59999958e+01	-7.10335949e+01	-1.01349687e+02	-1.52440204e-01	9.56167377e+00
386807000	-2.79463804e-02	-1.36304271e+01	-7.17008291e+01	-9.67275984e+01	-7.08831498e+01	-1.04603231e+02	-1.50414523e-01	9.41338279e+00
387092571.429	-3.10433982e-02	-1.36437229e+01	-7.13849951e+01	-9.79073278e+01	-7.06094945e+01	-1.04072740e+02	-1.57874089e-01	9.23485195e+00
387378142.857	-2.77987359e-02	-1.36442681e+01	-7.15979248e+01	-9.74573596e+01	-7.02796519e+01	-1.05695912e+02	-1.59229424e-01	9.04311155e+00
387663714.286	-2.84790576e-02	-1.36760012e+01	-7.13517624e+01	-9.69375057e+01	-7.05159386e+01	-1.05919848e+02	-1.60342396e-01	8.86262049e+00
387949285.714	-3.12693619e-02	-1.36571791e+01	-7.10609966e+01	-9.89680496e+01	-7.05022750e+01	-1.08924752e+02	-1.60301737e-01	8.86131112e+00
388234857.143	-3.26139957e-02	-1.36827806e+01	-7.13737079e+01	-1.00705339e+02	-7.01347691e+01	-1.09118322e+02	-1.61639882e-01	8.82368905e+00
388520428.571	-3.41930509e-02	-1.36854666e+01	-7.07650818e+01	-1.03832059e+02	-6.99940129e+01	-1.09389930e+02	-1.60107969e-01	8.72826757e+00
388806000	-3.12747210e-02	-1.37189150e+01	-7.07292231e+01	-1.01804898e+02	-7.03357162e+01	-1.10587332e+02	-1.59414449e-01	8.59116023e+00
389091571.429	-3.31746233e-02	-1.36969364e+01	-7.10708180e+01	-1.01390946e+02	-7.03209025e+01	-1.11814427e+02	-1.61484753e-01	8.41766536e+00
389377142.857	-3.07977636e-02	-1.37237867e+01	-7.12337491e+01	-1.05895797e+02	-7.03425914e+01	-1.13042086e+02	-1.62470124e-01	8.29184860e+00
389662714.286	-3.11850744e-02	-1.37218825e+01	-7.08199807e+01	-1.06177284e+02	-7.02276105e+01	-1.13237392e+02	-1.62454206e-01	8.11981502e+00
389948285.714	-3.13198924e-02	-1.37373090e+01	-7.10409937e+01	-1.04338272e+02	-7.00275720e+01	-1.15469559e+02	-1.51490890e-01	7.98442217e+00
390233857.143	-3.10285278e-02	-1.37491312e+01	-7.08020059e+01	-1.03582377e+02	-6.99969618e+01	-1.14894048e+02	-1.45590588e-01	7.79283388e+00
390519428.571	-2.93817492e-02	-1.37423242e+01	-7.07003003e+01	-1.08449740e+02	-6.99563788e+01	-1.15545261e+02	-1.48134410e-01	7.64828229e+00
390805000	-3.18125294e-02	-1.37634599e+01	-7.05679866e+01	-1.09927634e+02	-7.00012559e+01	-1.16269064e+02	-1.48210368e-01	7.55172562e+00
391090571.429	-3.51695778e-02	-1.37842319e+01	-7.04432811e+01	-1.08791308e+02	-6.96663794e+01	-1.18096186e+02	-1.51356814e-01	7.50663866e+00
391376142.857	-3.47461747e-02	-1.37975310e+01	-7.04299538e+01	-1.11499223e+02	-6.98655308e+01	-1.18083587e+02	-1.51690612e-01	7.44761097e+00
391661714.286	-3.56118888e-02	-1.38033159e+01	-7.02002941e+01	-1.12946594e+02	-6.93705548e+01	-1.21868332e+02	-1.55127627e-01	7.39717011e+00
391947285.714	-3.66156323e-02	-1.38346982e+01	-7.04884521e+01	-1.11217938e+02	-6.95806268e+01	-1.19762828e+02	-1.58358326e-01	7.36172431e+00
392232857.143	-3.69875901e-02	-1.38518452e+01	-7.05547739e+01	-1.10632411e+02	-6.96628181e+01	-1.21196700e+02	-1.66280399e-01	7.27460673e+00
392518428.571	-3.75820725e-02	-1.38934271e+01	-7.01170080e+01	-1.11672812e+02	-6.94746545e+01	-1.18438195e+02	-1.69429466e-01	7.10914853e+00
392804000	-3.90250546e-02	-1.39025852e+01	-7.04563091e+01	-1.13991265e+02	-6.96788363e+01	-1.22493044e+02	-1.66779383e-01	7.03511467e+00
393089571.429	-3.89652762e-02	-1.39120877e+01	-7.01671390e+01	-1.15805171e+02	-6.95912060e+01	-1.23106367e+02	-1.68691931e-01	6.90431284e+00
393375142.857	-3.79959081e-02	-1.39297674e+01	-7.02631293e+01	-1.13553653e+02	-6.94524649e+01	-1.22645295e+02	-1.71749016e-01	6.75774938e+00
393660714.286	-4.02757280e-02	-1.39402116e+01	-6.99077638e+01	-1.13513120e+02	-6.94624829e+01	-1.24370779e+02	-1.79431823e-01	6.60444185e+00
393946285.714	-3.88911390e-02	-1.39611147e+01	-7.02487266e+01	-1.16413158e+02	-6.92500032e+01	-1.23833690e+02	-1.81153219e-01	6.49271189e+00
394231857.143	-4.03025757e-02	-1.39857028e+01	-6.98394296e+01	-1.17081914e+02	-6.94756619e+01	-1.23931699e+02	-1.79557929e-01	6.41056058e+00
394517428.571	-4.39950356e-02	-1.40129724e+01	-7.00552131e+01	-1.17691753e+02	-6.95446915e+01	-1.25116417e+02	-1.75856663e-01	6.26765545e+00
394803000	-4.41586051e-02	-1.40130520e+01	-6.94519129e+01	-1.18259223e+02	-6.91630482e+01	-1.24541850e+02	-1.79619707e-01	6.22124549e+00
395088571.429	-4.37550162e-02	-1.40422450e+01	-6.97134854e+01	-1.18166717e+02	-6.92516665e+01	-1.26470361e+02	-1.78927727e-01	6.11616754e+00
395374142.857	-4.16304460e-02	-1.40687517e+01	-6.94621886e+01	-1.18968508e+02	-6.90256916e+01	-1.26777738e+02	-1.74820187e-01	5.93433274e+00
395659714.286	-4.27831940e-02	-1.40879748e+01	-6.93873518e+01	-1.20740099e+02	-6.91089631e+01	-1.28092336e+02	-1.74693910e-01	5.81999461e+00
395945285.714	-4.26905593e-02	-1.41037395e+01	-6.97700631e+01	-1.20168693e+02	-6.87996091e+01	-1.30315883e+02	-1.70291108e-01	5.64957477e+00
396230857.143	-4.18349843e-02	-1.41123147e+01	-6.92121575e+01	-1.21537424e+02	-6.89867419e+01	-1.30922242e+02	-1.56792739e-01	5.48084210e+00
396516428.571	-4.16907272e-02	-1.41379523e+01	-6.89608714e+01	-1.20779448e+02	-6.88499351e+01	-1.29574786e+02	-1.57531510e-01	5.41069010e+00
396802000	-4.16562452e-02	-1.41501213e+01	-6.92829486e+01	-1.24903418e+02	-6.87449699e+01	-1.33201523e+02	-1.55567709e-01	5.25316077e+00
397087571.429	-4.32524743e-02	-1.41779802e+01	-6.90029715e+01	-1.22611146e+02	-6.84746301e+01	-1.35252585e+02	-1.51344017e-01	5.11309994e+00
397373142.857	-4.16048005e-02	-1.41812166e+01	-6.94825071e+01	-1.26510868e+02	-6.87766627e+01	-1.33038547e+02	-1.53048022e-01	4.91876655e+00
397658714.286	-4.18234829e-02	-1.41913378e+01	-6.94030241e+01	-1.25100829e+02	-6.83333886e+01	-1.33965936e+02	-1.48405730e-01	4.82740346e+00
397944285.714	-4.31979824e-02	-1.42069941e+01	-6.91157763e+01	-1.25340533e+02	-6.87305646e+01	-1.35491908e+02	-1.51271284e-01	4.64733593e+00
398229857.143	-4.29140861e-02	-1.42167475e+01	-6.91705862e+01	-1.24942920e+02	-6.84298721e+01	-1.35566893e+02	-1.48848367e-01	4.55620575e+00
398515428.571	-4.04577082e-02	-1.42660425e+01	-6.93801414e+01	-1.27752731e+02	-6.85518924e+01	-1.39291705e+02	-1.53654253e-01	4.40294924e+00
398801000	-4.46602081e-02	-1.42851650e+01	-6.87474812e+01	-1.31747899e+02	-6.85080100e+01	-1.39019454e+02	-1.50135524e-01	4.29845319e+00
399086571.429	-4.60490200e-02	-1.42800624e+01	-6.88436030e+01	-1.28578568e+02	-6.85330782e+01	-1.39639040e+02	-1.45076692e-01	4.20190655e+00
399372142.857	-4.62501941e-02	-1.42628002e+01	-6.91836811e+01	-1.30629815e+02	-6.81431021e+01	-1.38991699e+02	-1.45475223e-01	4.04774836e+00
399657714.286	-4.40818652e-02	-1.42924661e+01	-6.90173093e+01	-1.30918990e+02	-6.83733249e+01	-1.40159913e+02	-1.39214992e-01	3.98450221e+00
399943285.714	-4.34282884e-02	-1.43157051e+01	-6.88458843e+01	-1.32281283e+02	-6.81628702e+01	-1.41659581e+02	-1.46038249e-01	3.88088926e+00
400228857.143	-4.37185680e-02	-1.43386356e+01	-6.87311042e+01	-1.33847779e+02	-6.80923160e+01	-1.40776672e+02	-1.55416175e-01	3.81019355e+00
400514428.571	-4.45638603e-02	-1.43603148e+01	-6.86073951e+01	-1.33707212e+02	-6.83692608e+01	-1.41237714e+02	-1.57041940e-01	3.66271514e+00
400800000	-4.43941168e-02	-1.43933390e+01	-6.86740398e+01	-1.33214029e+02	-6.81007032e+01	-1.42758722e+02	-1.54939123e-01	3.61732814e+00
401085571.429	-4.05800909e-02	-1.44251493e+01	-6.89938706e+01	-1.36159116e+02	-6.81744627e+01	-1.43475859e+02	-1.59066494e-01	3.51024363e+00
401371142.857	-4.37189272e-02	-1.44176907e+01	-6.87312627e+01	-1.37360957e+02	-6.79545950e+01	-1.45193648e+02	-1.60341312e-01	3.39760944e+00
401656714.286	-3.95266561e-02	-1.44407215e+01	-6.87334929e+01	-1.36242290e+02	-6.81654944e+01	-1.45768056e+02	-1.82490843e-01	3.22847005e+00
401942285.714	-3.81404624e-02	-1.44572554e+01	-6.87111648e+01	-1.34004358e+02	-6.82091305e+01	-1.47815455e+02	-1.62059004e-01	3.13103851e+00
402227857.143	-4.21118821e-02	-1.44885156e+01	-6.82922402e+01	-1.39896042e+02	-6.84593465e+01	-1.45315725e+02	-1.66488678e-01	3.02698762e+00
402513428.571	-4.30993636e-02	-1.45173780e+01	-6.82364464e+01	-1.38745055e+02	-6.82562685e+01	-1.47504844e+02	-1.68856811e-01	2.93425149e+00
402799000	-4.27804481e-02	-1.45224117e+01	-6.84335618e+01	-1.38550153e+02	-6.81183384e+01	-1.48465809e+02	-1.69474589e-01	2.71641183e+00
403084571.429	-3.99131189e-02	-1.45503903e+01	-6.87368815e+01	-1.38906500e+02	-6.81334525e+01	-1.46863144e+02	-1.69324189e-01	2.58503633e+00
403370142.857	-3.96919774e-02	-1.45442255e+01	-6.87286920e+01	-1.39883017e+02	-6.82571298e+01	-1.47408223e+02	-1.81682622e-01	2.48644651e+00
403655714.286	-3.76991819e-02	-1.45836613e+01	-6.89149687e+01	-1.41576452e+02	-6.80322395e+01	-1.48832753e+02	-1.76596288e-01	2.32895542e+00
403941285.714	-3.66769397e-02	-1.45911260e+01	-6.83463813e+01	-1.42659685e+02	-6.80649023e+01	-1.49437519e+02	-1.77961171e-01	2.23975514e+00
404226857.143	-3.44503764e-02	-1.46261435e+01	-6.83348531e+01	-1.41759375e+02	-6.81208644e+01	-1.49926306e+02	-1.82237061e-01	2.08430284e+00
404512428.571	-3.99092375e-02	-1.46344956e+01	-6.80761648e+01	-1.43425127e+02	-6.80568223e+01	-1.51619375e+02	-1.85302776e-01	1.95518819e+00
404798000	-4.04384068e-02	-1.46642786e+01	-6.84551367e+01	-1.41681811e+02	-6.78401227e+01	-1.53321317e+02	-1.74956465e-01	1.79875663e+00
405083571.429	-3.64938367e-02	-1.46693645e+01	-6.84434978e+01	-1.44556263e+02	-6.80722782e+01	-1.52283536e+02	-1.79872867e-01	1.71274510e+00
405369142.857	-3.80990986e-02	-1.46826084e+01	-6.84120666e+01	-1.43876269e+02	-6.81359386e+01	-1.53181433e+02	-1.71333386e-01	1.49179373e+00
405654714.286	-4.15510114e-02	-1.46861959e+01	-6.84527951e+01	-1.44654305e+02	-6.80777066e+01	-1.49456268e+02	-1.73796685e-01	1.43791088e+00
405940285.714	-3.90135222e-02	-1.46945591e+01	-6.80261614e+01	-1.42900896e+02	-6.78448270e+01	-1.53774722e+02	-1.70897303e-01	1.28325517e+00
406225857.143	-3.63778708e-02	-1.47108201e+01	-6.78127159e+01	-1.43457003e+02	-6.82336680e+01	-1.55016615e+02	-1.76402732e-01	1.26261513e+00
406511428.571	-3.75925516e-02	-1.47395890e+01	-6.81951898e+01	-1.46379204e+02	-6.79373800e+01	-1.54577424e+02	-1.79229101e-01	1.07677612e+00
406797000	-3.24121526e-02	-1.47440464e+01	-6.85230696e+01	-1.41631677e+02	-6.78459987e+01	-1.56760351e+02	-1.82363180e-01	9.25198563e-01
407082571.429	-3.72999263e-02	-1.47852888e+01	-6.81668300e+01	-1.46544402e+02	-6.75742034e+01	-1.56058442e+02	-1.83511273e-01	6.99903376e-01
407368142.857	-3.72179965e-02	-1.47804659e+01	-6.80120049e+01	-1.46041579e+02	-6.77201119e+01	-1.57666151e+02	-1.72416503e-01	5.88091320e-01
407653714.286	-3.32260079e-02	-1.47984835e+01	-6.81089032e+01	-1.44942917e+02	-6.78016453e+01	-1.56045022e+02	-1.80865061e-01	4.94861282e-01
407939285.714	-3.48625839e-02	-1.48131023e+01	-6.76002099e+01	-1.48154894e+02	-6.75364172e+01	-1.59321103e+02	-1.79714050e-01	4.20729347e-01
408224857.143	-3.53619115e-02	-1.48417704e+01	-6.76508396e+01	-1.48927972e+02	-6.75611971e+01	-1.57131299e+02	-1.83705547e-01	3.32864400e-01
408510428.571	-3.54613657e-02	-1.48070149e+01	-6.78264550e+01	-1.50792051e+02	-6.75599706e+01	-1.60098906e+02	-1.82247535e-01	1.56747785e-01
408796000	-3.49231299e-02	-1.48293105e+01	-6.77392968e+01	-1.49104482e+02	-6.77941443e+01	-1.58249090e+02	-1.90036370e-01	6.87586034e-04
409081571.429	-3.54766522e-02	-1.48281667e+01	-6.74656534e+01	-1.49665141e+02	-6.73767401e+01	-1.59049724e+02	-1.90980171e-01	-1.75212040e-01
409367142.857	-3.43371745e-02	-1.48555504e+01	-6.76604934e+01	-1.51384330e+02	-6.74879591e+01	-1.59179772e+02	-1.82781485e-01	-2.94696732e-01
409652714.286	-3.15384378e-02	-1.48509203e+01	-6.82549255e+01	-1.51773286e+02	-6.73502865e+01	-1.60177197e+02	-1.84096765e-01	-4.39384323e-01
409938285.714	-3.36805899e-02	-1.48669053e+01	-6.73545389e+01	-1.50124866e+02	-6.72883589e+01	-1.59876048e+02	-1.89325364e-01	-5.61959377e-01
410223857.143	-3.70549160e-02	-1.48922013e+01	-6.73282934e+01	-1.52520139e+02	-6.74329353e+01	-1.61849770e+02	-1.94338680e-01	-6.64473608e-01
410509428.571	-2.75949609e-02	-1.49242407e+01	-6.74693686e+01	-1.54012267e+02	-6.75795701e+01	-1.64685812e+02	-1.88411216e-01	-8.18881381e-01
410795000	-3.21584675e-02	-1.49391832e+01	-6.75542844e+01	-1.54642862e+02	-6.70107962e+01	-1.63040857e+02	-1.92125062e-01	-9.17486209e-01
411080571.429	-2.68058607e-02	-1.49507540e+01	-6.70702974e+01	-1.54479811e+02	-6.68545890e+01	-1.65996440e+02	-1.93593086e-01	-1.07479892e+00
411366142.857	-2.62327817e-02	-1.49734101e+01	-6.69526593e+01	-1.53202573e+02	-6.70661558e+01	-1.65733989e+02	-2.08009232e-01	-1.21863237e+00
411651714.286	-2.87830777e-02	-1.49796074e+01	-6.75250700e+01	-1.54931319e+02	-6.72676120e+01	-1.65347692e+02	-1.98898025e-01	-1.30986340e+00
411937285.714	-3.10914398e-02	-1.49964083e+01	-6.73052434e+01	-1.56581027e+02	-6.67458775e+01	-1.66831166e+02	-1.87530649e-01	-1.47786541e+00
412222857.143	-3.48153016e-02	-1.50130001e+01	-6.67688434e+01	-1.57594988e+02	-6.68309396e+01	-1.70314109e+02	-1.85706901e-01	-1.57327355e+00
412508428.571	-3.30295034e-02	-1.49943437e+01	-6.71118141e+01	-1.55576805e+02	-6.70445806e+01	-1.67811121e+02	-1.90641859e-01	-1.74427477e+00
412794000	-2.81968528e-02	-1.50101281e+01	-6.71079702e+01	-1.58502779e+02	-6.70309245e+01	-1.67391564e+02	-1.96220097e-01	-1.84180707e+00
413079571.429	-3.22058540e-02	-1.50574370e+01	-6.68921520e+01	-1.61105060e+02	-6.69093386e+01	-1.69831185e+02	-1.93198867e-01	-1.98560001e+00
413365142.857	-3.31540280e-02	-1.50692367e+01	-6.68909166e+01	-1.61499757e+02	-6.69589412e+01	-1.69163267e+02	-1.96737319e-01	-2.09232073e+00
413650714.286	-3.25686100e-02	-1.50732006e+01	-6.67194348e+01	-1.59371417e+02	-6.69177359e+01	-1.71522059e+02	-1.91954644e-01	-2.26311019e+00
413936285.714	-3.16975784e-02	-1.50865504e+01	-6.68247653e+01	-1.61087984e+02	-6.74024430e+01	-1.72177079e+02	-1.93483190e-01	-2.36750445e+00
414221857.143	-3.78599397e-02	-1.50841124e+01	-6.68817158e+01	-1.62130698e+02	-6.67390220e+01	-1.71939452e+02	-1.92728101e-01	-2.49086360e+00
414507428.571	-3.00177777e-02	-1.51043346e+01	-6.65582753e+01	-1.61821424e+02	-6.69368518e+01	-1.71302589e+02	-1.88166011e-01	-2.63550237e+00
414793000	-3.05109085e-02	-1.51552395e+01	-6.69171107e+01	-1.63375554e+02	-6.67597842e+01	-1.75305466e+02	-2.02854922e-01	-2.77513803e+00
415078571.429	-3.05885443e-02	-1.51750771e+01	-6.66463676e+01	-1.62969846e+02	-6.71551651e+01	-1.72542785e+02	-1.91156429e-01	-2.94035729e+00
415364142.857	-2.70782067e-02	-1.51958079e+01	-6.67627386e+01	-1.63502350e+02	-6.72877810e+01	-1.74365784e+02	-2.00307719e-01	-3.01403900e+00
415649714.286	-2.21504887e-02	-1.52415132e+01	-6.67319215e+01	-1.67447002e+02	-6.68899566e+01	-1.76649712e+02	-1.99297192e-01	-3.24567811e+00
415935285.714	-2.91393430e-02	-1.52312276e+01	-6.69737820e+01	-1.63036650e+02	-6.68168331e+01	-1.77379337e+02	-1.95032759e-01	-3.31324655e+00
416220857.143	-2.95699333e-02	-1.52592029e+01	-6.63469574e+01	-1.66126376e+02	-6.65084886e+01	-1.77831505e+02	-1.86216031e-01	-3.44485202e+00
416506428.571	-2.43874633e-02	-1.52613845e+01	-6.67290995e+01	-1.67817229e+02	-6.69525303e+01	-1.73925330e+02	-1.87250721e-01	-3.54409319e+00
416792000	-2.45537780e-02	-1.52718685e+01	-6.62605669e+01	-1.65357026e+02	-6.68248129e+01	-1.76506429e+02	-1.96060489e-01	-3.71859942e+00
417077571.429	-2.40587014e-02	-1.53155296e+01	-6.69450341e+01	-1.67942027e+02	-6.67223837e+01	1.79396590e+02	-1.99602957e-01	-3.86690778e+00
417363142.857	-1.97040992e-02	-1.53375509e+01	-6.62019436e+01	-1.69019709e+02	-6.65735499e+01	-1.79122396e+02	-2.02891357e-01	-3.97423861e+00
417648714.286	-2.46912704e-02	-1.53656444e+01	-6.62334928e+01	-1.69425692e+02	-6.64704831e+01	-1.79141863e+02	-1.98464553e-01	-4.13031660e+00
417934285.714	-2.37554816e-02	-1.53939802e+01	-6.61772410e+01	-1.66937392e+02	-6.68483049e+01	-1.79067559e+02	-1.99036570e-01	-4.23120795e+00
418219857.143	-1.86490422e-02	-1.53861353e+01	-6.63653376e+01	-1.69684157e+02	-6.65560354e+01	-1.79842448e+02	-1.97159721e-01	-4.40768351e+00
418505428.571	-9.25796354e-03	-1.53988171e+01	-6.65314707e+01	-1.71731628e+02	-6.66900424e+01	1.79899164e+02	-1.88488584e-01	-4.53679565e+00
418791000	-1.18884866e-02	-1.54263492e+01	-6.62580056e+01	-1.70282226e+02	-6.65785300e+01	1.78913474e+02	-1.88557590e-01	-4.67704046e+00
419076571.429	-1.65388068e-02	-1.54496597e+01	-6.61384303e+01	-1.72065581e+02	-6.67169924e+01	1.76238894e+02	-1.92864974e-01	-4.83780511e+00
419362142.857	-1.72878469e-02	-1.54237614e+01	-6.62807425e+01	-1.75612678e+02	-6.65880319e+01	1.78669932e+02	-1.95230573e-01	-4.98914501e+00
419647714.286	-8.86091896e-03	-1.54379874e+01	-6.57691601e+01	-1.73433667e+02	-6.67929459e+01	1.76416796e+02	-1.89701839e-01	-5.06670994e+00
419933285.714	-1.07765083e-02	-1.54740826e+01	-6.62119777e+01	-1.75435795e+02	-6.67955204e+01	1.75166175e+02	-1.95407078e-01	-5.20512727e+00
420218857.143	-1.20992572e-02	-1.54664753e+01	-6.59324196e+01	-1.74397298e+02	-6.65481320e+01	1.73923986e+02	-1.98704063e-01	-5.30915483e+00
420504428.571	-1.74729206e-02	-1.54757348e+01	-6.56085509e+01	-1.75990191e+02	-6.65220389e+01	1.73801813e+02	-1.97777341e-01	-5.47494550e+00
420790000	-1.11045049e-02	-1.55186416e+01	-6.58409831e+01	-1.72706132e+02	-6.68386471e+01	1.72749551e+02	-2.06872619e-01	-5.61782507e+00
421075571.429	-1.44600679e-02	-1.55619039e+01	-6.63544398e+01	-1.76221635e+02	-6.65463866e+01	1.72968428e+02	-2.04182589e-01	-5.73695855e+00
421361142.857	-1.52170829e-02	-1.55696568e+01	-6.59557881e+01	-1.75649972e+02	-6.63384419e+01	1.72957663e+02	-2.09144864e-01	-5.86799792e+00
421646714.286	-1.37269568e-02	-1.55544091e+01	-6.61533408e+01	-1.79070247e+02	-6.68635434e+01	1.73242411e+02	-2.11233409e-01	-6.03265778e+00
421932285.714	-1.39492202e-02	-1.56048442e+01	-6.58524706e+01	-1.79833028e+02	-6.62640716e+01	1.70164658e+02	-2.12992358e-01	-6.18596219e+00
422217857.143	-1.47171718e-02	-1.55831541e+01	-6.58520082e+01	-1.79529885e+02	-6.67051195e+01	1.70800712e+02	-2.14741569e-01	-6.29286484e+00
422503428.571	-1.35607871e-02	-1.56230819e+01	-6.59990158e+01	1.77323021e+02	-6.61927407e+01	1.70783106e+02	-2.15295482e-01	-6.45704027e+00
422789000	-1.53040705e-02	-1.56424660e+01	-6.59895287e+01	1.79504355e+02	-6.67238208e+01	1.68038252e+02	-2.17772454e-01	-6.58759813e+00
423074571.429	-1.89969940e-02	-1.56220603e+01	-6.57605874e+01	1.77989467e+02	-6.64638042e+01	1.68480950e+02	-2.22031952e-01	-6.73951670e+00
423360142.857	-2.02155427e-02	-1.56352678e+01	-6.58303618e+01	1.75701134e+02	-6.66451301e+01	1.66886856e+02	-2.22892444e-01	-6.87860508e+00
423645714.286	-2.17587727e-02	-1.56167026e+01	-6.57370700e+01	1.77015830e+02	-6.66810814e+01	1.67571390e+02	-2.27228055e-01	-6.99574693e+00
423931285.714	-2.13784393e-02	-1.56455482e+01	-6.55749099e+01	1.73359561e+02	-6.63790378e+01	1.67105840e+02	-2.25844407e-01	-7.16612151e+00
424216857.143	-2.40799418e-02	-1.56838927e+01	-6.55048023e+01	1.74522421e+02	-6.65478290e+01	1.68399841e+02	-2.25616310e-01	-7.28103387e+00
424502428.571	-1.57767405e-02	-1.57103475e+01	-6.55304145e+01	1.73327154e+02	-6.65940531e+01	1.69141056e+02	-2.26123005e-01	-7.43095719e+00
424788000	-1.72238381e-02	-1.57066540e+01	-6.59203985e+01	1.75341309e+02	-6.66464450e+01	1.65489481e+02	-2.23949978e-01	-7.55422707e+00
425073571.429	-1.80815692e-02	-1.57346939e+01	-6.58957643e+01	1.70784869e+02	-6.65470390e+01	1.65883064e+02	-2.11864445e-01	-7.69575019e+00
425359142.857	-1.58732070e-02	-1.57460875e+01	-6.57359192e+01	1.73734608e+02	-6.63080460e+01	1.64067325e+02	-2.08551294e-01	-7.80976914e+00
425644714.286	-1.01998078e-02	-1.57542404e+01	-6.61088200e+01	1.70698714e+02	-6.67580946e+01	1.64684457e+02	-2.04455361e-01	-7.95815998e+00
425930285.714	-1.12741072e-02	-1.58059030e+01	-6.57440754e+01	1.72086386e+02	-6.63533209e+01	1.64124829e+02	-1.98610046e-01	-8.10916347e+00
426215857.143	-5.64192974e-03	-1.57664340e+01	-6.58224473e+01	1.69228096e+02	-6.61755413e+01	1.62980098e+02	-1.91581159e-01	-8.23619405e+00
426501428.571	-1.38627394e-02	-1.58127685e+01	-6.61173202e+01	1.69467152e+02	-6.64890274e+01	1.63214582e+02	-1.91774297e-01	-8.37134009e+00
426787000	-7.58372286e-03	-1.58572473e+01	-6.60071546e+01	1.70107681e+02	-6.65931658e+01	1.64399793e+02	-1.84900773e-01	-8.48248208e+00
427072571.429	-8.47548636e-03	-1.58700326e+01	-6.57560970e+01	1.68721100e+02	-6.66145807e+01	1.62754182e+02	-1.91258886e-01	-8.63517194e+00
427358142.857	-1.32255424e-02	-1.57944562e+01	-6.57122130e+01	1.69149947e+02	-6.65202846e+01	1.58974876e+02	-1.88745405e-01	-8.77813225e+00
427643714.286	-7.53480970e-03	-1.58612538e+01	-6.61452923e+01	1.68437278e+02	-6.64080632e+01	1.59744990e+02	-1.83865120e-01	-8.90997471e+00
427929285.714	-1.04186535e-02	-1.58164507e+01	-6.59701738e+01	1.65739622e+02	-6.63019067e+01	1.58089507e+02	-1.84069524e-01	-9.01317224e+00
428214857.143	-4.08799982e-03	-1.58385384e+01	-6.57886081e+01	1.64716678e+02	-6.66153528e+01	1.59878453e+02	-1.79971826e-01	-9.14563404e+00
428500428.571	-1.45827016e-02	-1.58809369e+01	-6.63181517e+01	1.66518421e+02	-6.65165961e+01	1.57790277e+02	-1.88410115e-01	-9.31184479e+00
428786000	-1.19189360e-02	-1.58564684e+01	-6.58115131e+01	1.65091856e+02	-6.63407023e+01	1.58708478e+02	-1.91223139e-01	-9.45030194e+00
429071571.429	-1.68587863e-02	-1.58685900e+01	-6.57330342e+01	1.66008189e+02	-6.68001274e+01	1.60614213e+02	-1.88476010e-01	-9.58675194e+00
429357142.857	-1.75326417e-02	-1.58662079e+01	-6.61004207e+01	1.67091257e+02	-6.63921152e+01	1.57348042e+02	-1.89387069e-01	-9.71605199e+00
429642714.286	-1.92977715e-02	-1.59159644e+01	-6.61946401e+01	1.63142425e+02	-6.63275894e+01	1.57868433e+02	-1.89585676e-01	-9.86423462e+00
429928285.714	-1.12893458e-02	-1.59063649e+01	-6.60296919e+01	1.62341400e+02	-6.65771776e+01	1.60421569e+02	-1.93592131e-01	-1.00323434e+01
430213857.143	-1.13723497e-02	-1.59074807e+01	-6.61557356e+01	1.62342193e+02	-6.64257500e+01	1.55374726e+02	-1.93064876e-01	-1.01210354e+01
430499428.571	-8.13330581e-03	-1.59378325e+01	-6.59879992e+01	1.64507057e+02	-6.65332721e+01	1.55731338e+02	-1.90676670e-01	-1.02376278e+01
430785000	-1.08889285e-02	-1.59681533e+01	-6.61261851e+01	1.64905445e+02	-6.67768510e+01	1.54717273e+02	-1.87299534e-01	-1.03623918e+01
431070571.429	-1.26289604e-02	-1.59629381e+01	-6.57825965e+01	1.62821125e+02	-6.65703641e+01	1.54769291e+02	-1.84616285e-01	-1.04643239e+01
431356142.857	-1.96990016e-02	-1.59639032e+01	-6.59282369e+01	1.62413537e+02	-6.67157670e+01	1.53907522e+02	-1.78651501e-01	-1.05788010e+01
431641714.286	-1.83479420e-02	-1.59442758e+01	-6.59763320e+01	1.60803615e+02	-6.65766411e+01	1.53576773e+02	-1.77639316e-01	-1.07074889e+01
431927285.714	-1.89123769e-02	-1.59725366e+01	-6.58986120e+01	1.60874645e+02	-6.67563352e+01	1.52120628e+02	-1.75239861e-01	-1.08289259e+01
432212857.143	-1.75746958e-02	-1.59983761e+01	-6.61019344e+01	1.62660425e+02	-6.66969833e+01	1.53681125e+02	-1.76186650e-01	-1.10035077e+01
432498428.571	-2.09404146e-02	-1.59696454e+01	-6.58202430e+01	1.63294774e+02	-6.67401477e+01	1.54275489e+02	-1.75545136e-01	-1.11381825e+01
432784000	-1.90106260e-02	-1.59848988e+01	-6.60841331e+01	1.60925522e+02	-6.69434649e+01	1.51141755e+02	-1.75637361e-01	-1.12865398e+01
433069571.429	-2.18283166e-02	-1.59886242e+01	-6.60302540e+01	1.61805090e+02	-6.68661953e+01	1.52544610e+02	-1.74339034e-01	-1.14114651e+01
433355142.857	-2.18456784e-02	-1.60244245e+01	-6.58883449e+01	1.60575374e+02	-6.67438338e+01	1.52172719e+02	-1.76454794e-01	-1.15587634e+01
433640714.286	-2.21796456e-02	-1.60170843e+01	-6.58915546e+01	1.61200800e+02	-6.65430668e+01	1.52645353e+02	-1.73270874e-01	-1.16679916e+01
433926285.714	-2.15830311e-02	-1.60769843e+01	-6.54989396e+01	1.62137600e+02	-6.65555242e+01	1.52908436e+02	-1.75323798e-01	-1.17615134e+01
434211857.143	-2.30962602e-02	-1.60206296e+01	-6.59821862e+01	1.59701525e+02	-6.64898867e+01	1.51126222e+02	-1.70746266e-01	-1.18793637e+01
434497428.571	-2.39788949e-02	-1.60462111e+01	-6.62496259e+01	1.60570757e+02	-6.64887070e+01	1.53163320e+02	-1.64747715e-01	-1.19708237e+01
434783000	-1.90288382e-02	-1.61062086e+01	-6.59424040e+01	1.59959032e+02	-6.63943731e+01	1.51452727e+02	-1.64540521e-01	-1.20427427e+01
435068571.429	-1.98599194e-02	-1.61084364e+01	-6.58830710e+01	1.58874715e+02	-6.67366061e+01	1.50265245e+02	-1.62981472e-01	-1.21241565e+01
435354142.857	-2.11941985e-02	-1.61273693e+01	-6.59452348e+01	1.58605482e+02	-6.64289990e+01	1.51873663e+02	-1.61834188e-01	-1.22479262e+01
435639714.286	-2.30292739e-02	-1.60950180e+01	-6.55782299e+01	1.60694129e+02	-6.65237276e+01	1.51471366e+02	-1.60437951e-01	-1.24156118e+01
435925285.714	-1.84454434e-02	-1.61081565e+01	-6.56395362e+01	1.59094093e+02	-6.66777281e+01	1.50157662e+02	-1.61233101e-01	-1.25604076e+01
436210857.143	-2.62958786e-02	-1.61157495e+01	-6.54412049e+01	1.55744426e+02	-6.62688692e+01	1.50165190e+02	-1.59610414e-01	-1.26834381e+01
436496428.571	-2.29686425e-02	-1.61499193e+01	-6.56075077e+01	1.57413927e+02	-6.62866967e+01	1.52009617e+02	-1.58584274e-01	-1.27903221e+01
436782000	-2.37484002e-02	-1.61473726e+01	-6.55250562e+01	1.57797242e+02	-6.67051750e+01	1.50071425e+02	-1.61378262e-01	-1.29014680e+01
437067571.429	-2.56332369e-02	-1.61657669e+01	-6.56054417e+01	1.56344506e+02	-6.64570527e+01	1.50050840e+02	-1.63279580e-01	-1.30069288e+01
437353142.857	-1.84949538e-02	-1.61453734e+01	-6.54811126e+01	1.57738878e+02	-6.62712480e+01	1.48833377e+02	-1.66187925e-01	-1.31584853e+01
437638714.286	-2.61899919e-02	-1.61712663e+01	-6.55528953e+01	1.55213929e+02	-6.61962029e+01	1.48089714e+02	-1.64939641e-01	-1.32600483e+01
437924285.714	-2.90720070e-02	-1.61616897e+01	-6.52280933e+01	1.56097556e+02	-6.61512553e+01	1.47583416e+02	-1.69720232e-01	-1.33435240e+01
438209857.143	-2.72115044e-02	-1.61566747e+01	-6.51275463e+01	1.56565087e+02	-6.62571209e+01	1.48147928e+02	-1.70870644e-01	-1.34761756e+01
438495428.571	-2.19927299e-02	-1.61775674e+01	-6.53123942e+01	1.53475567e+02	-6.58964534e+01	1.48972261e+02	-1.73389665e-01	-1.36017271e+01
438781000	-2.37339660e-02	-1.61731041e+01	-6.53959330e+01	1.54232444e+02	-6.60718526e+01	1.48386889e+02	-1.73326428e-01	-1.37569244e+01
439066571.429	-2.38945203e-02	-1.61692972e+01	-6.48882240e+01	1.53138453e+02	-6.61216850e+01	1.48372507e+02	-1.71794052e-01	-1.38853490e+01
439352142.857	-2.22586821e-02	-1.62078946e+01	-6.51022415e+01	1.53639843e+02	-6.60193081e+01	1.46685258e+02	-1.62081699e-01	-1.40212176e+01
439637714.286	-1.80915418e-02	-1.61845436e+01	-6.50046405e+01	1.52356219e+02	-6.59650622e+01	1.47365054e+02	-1.58689023e-01	-1.41512140e+01
439923285.714	-1.76367414e-02	-1.62092492e+01	-6.50647509e+01	1.53763003e+02	-6.59364345e+01	1.46678945e+02	-1.57150758e-01	-1.42606340e+01
440208857.143	-2.39330648e-02	-1.62280323e+01	-6.50311969e+01	1.52023813e+02	-6.60315228e+01	1.46458810e+02	-1.57696500e-01	-1.43633505e+01
440494428.571	-2.66436980e-02	-1.62306279e+01	-6.51622915e+01	1.52651196e+02	-6.58531412e+01	1.45410223e+02	-1.52368017e-01	-1.44461358e+01
440780000	-2.57001911e-02	-1.62200264e+01	-6.47531632e+01	1.50678764e+02	-6.57920929e+01	1.46483697e+02	-1.56867533e-01	-1.45546142e+01
441065571.429	-2.78187596e-02	-1.62465311e+01	-6.46586689e+01	1.51090850e+02	-6.56113794e+01	1.45018377e+02	-1.56095634e-01	-1.46897882e+01
441351142.857	-3.28844150e-02	-1.62427321e+01	-6.46950074e+01	1.49045540e+02	-6.55718143e+01	1.44662895e+02	-1.60894522e-01	-1.48273836e+01
441636714.286	-3.68919401e-02	-1.62251514e+01	-6.51930218e+01	1.49927695e+02	-6.56331553e+01	1.44390800e+02	-1.65002282e-01	-1.49820079e+01
441922285.714	-3.65809631e-02	-1.62371281e+01	-6.50683200e+01	1.49111606e+02	-6.56858534e+01	1.43298125e+02	-1.66574133e-01	-1.51161314e+01
442207857.143	-3.46295186e-02	-1.62517268e+01	-6.47381692e+01	1.50863589e+02	-6.55054835e+01	1.43500159e+02	-1.70125998e-01	-1.52578212e+01
442493428.571	-3.83763378e-02	-1.62609834e+01	-6.47197002e+01	1.49539290e+02	-6.57111040e+01	1.45016543e+02	-1.70148885e-01	-1.53755210e+01
442779000	-4.25464999e-02	-1.62776316e+01	-6.47057191e+01	1.46906839e+02	-6.55901913e+01	1.42125221e+02	-1.68860706e-01	-1.54940607e+01
443064571.429	-4.19405369e-02	-1.62846613e+01	-6.45369462e+01	1.50578865e+02	-6.56899195e+01	1.43566838e+02	-1.64744743e-01	-1.55321127e+01
443350142.857	-4.18516917e-02	-1.62867116e+01	-6.48375666e+01	1.50806037e+02	-6.56028460e+01	1.42699597e+02	-1.69880539e-01	-1.56128874e+01
443635714.286	-4.31370430e-02	-1.62798443e+01	-6.45039572e+01	1.49470153e+02	-6.55719929e+01	1.43069636e+02	-1.71721303e-01	-1.56997770e+01
443921285.714	-4.07571045e-02	-1.62985065e+01	-6.46678240e+01	1.47510499e+02	-6.53821290e+01	1.42141138e+02	-1.69702655e-01	-1.58691781e+01
444206857.143	-4.31487451e-02	-1.62813028e+01	-6.42817571e+01	1.46459407e+02	-6.55405029e+01	1.42706384e+02	-1.71087532e-01	-1.59818714e+01
444492428.571	-4.36624364e-02	-1.62881627e+01	-6.45511545e+01	1.48651276e+02	-6.52918658e+01	1.40771797e+02	-1.68550287e-01	-1.61535940e+01
444778000	-4.66605945e-02	-1.63197849e+01	-6.42285043e+01	1.47205343e+02	-6.52967116e+01	1.41634283e+02	-1.61189551e-01	-1.63721035e+01
445063571.429	-5.04389351e-02	-1.62980328e+01	-6.42738904e+01	1.46710962e+02	-6.50981167e+01	1.41587744e+02	-1.60936847e-01	-1.65097379e+01
445349142.857	-4.94270809e-02	-1.63379605e+01	-6.40171832e+01	1.46500743e+02	-6.52991645e+01	1.40662943e+02	-1.62638957e-01	-1.66559961e+01
445634714.286	-5.42856273e-02	-1.63278230e+01	-6.39146875e+01	1.46561205e+02	-6.51921116e+01	1.40526756e+02	-1.64501252e-01	-1.67444182e+01
445920285.714	-4.77625782e-02	-1.63493465e+01	-6.40743837e+01	1.46530025e+02	-6.50090085e+01	1.41106838e+02	-1.65121667e-01	-1.68787117e+01
446205857.143	-5.15206204e-02	-1.63480001e+01	-6.40870657e+01	1.44708422e+02	-6.48423657e+01	1.40045329e+02	-1.74511695e-01	-1.68956035e+01
446491428.571	-5.00551881e-02	-1.63668529e+01	-6.42159696e+01	1.45251967e+02	-6.49759822e+01	1.40035286e+02	-1.68008156e-01	-1.69478899e+01
446777000	-5.54448425e-02	-1.63490440e+01	-6.38071522e+01	1.44703341e+02	-6.47348464e+01	1.39820082e+02	-1.68498595e-01	-1.70076788e+01
447062571.429	-5.36437893e-02	-1.63682459e+01	-6.38366813e+01	1.43943081e+02	-6.45986058e+01	1.39591585e+02	-1.75746378e-01	-1.70515659e+01
447348142.857	-5.57873593e-02	-1.63666568e+01	-6.36524896e+01	1.44201278e+02	-6.46177584e+01	1.38869331e+02	-1.74895632e-01	-1.72023325e+01
447633714.286	-5.35159502e-02	-1.63848506e+01	-6.36122241e+01	1.43574645e+02	-6.46203344e+01	1.39321333e+02	-1.76385970e-01	-1.73358303e+01
447919285.714	-5.34234206e-02	-1.63929751e+01	-6.34223392e+01	1.43690365e+02	-6.45269583e+01	1.38475670e+02	-1.73271229e-01	-1.74621796e+01
448204857.143	-5.70506567e-02	-1.64004541e+01	-6.35168951e+01	1.42683311e+02	-6.43414856e+01	1.37821495e+02	-1.71247921e-01	-1.76417729e+01
448490428.571	-5.30224196e-02	-1.63968910e+01	-6.33099567e+01	1.41534719e+02	-6.42957297e+01	1.37736158e+02	-1.70183243e-01	-1.77460568e+01
448776000	-5.06830952e-02	-1.63909244e+01	-6.32616383e+01	1.40963297e+02	-6.41092503e+01	1.37332824e+02	-1.67905207e-01	-1.78502591e+01
449061571.429	-5.32939592e-02	-1.64108254e+01	-6.31581383e+01	1.41725477e+02	-6.40899851e+01	1.36775671e+02	-1.70032370e-01	-1.79967549e+01
449347142.857	-5.37509095e-02	-1.64115189e+01	-6.32371272e+01	1.39388636e+02	-6.39641538e+01	1.34771004e+02	-1.68690806e-01	-1.80509681e+01
449632714.286	-5.54793453e-02	-1.64003103e+01	-6.30530810e+01	1.39626140e+02	-6.39234442e+01	1.34098423e+02	-1.72713535e-01	-1.81550070e+01
449918285.714	-5.35671470e-02	-1.64078914e+01	-6.28559165e+01	1.38437348e+02	-6.38177694e+01	1.33841118e+02	-1.83435876e-01	-1.82223340e+01
450203857.143	-5.61454566e-02	-1.64167788e+01	-6.29225452e+01	1.39152030e+02	-6.40196259e+01	1.33468744e+02	-1.82849103e-01	-1.83471268e+01
450489428.571	-5.75494654e-02	-1.64348620e+01	-6.28340326e+01	1.37218311e+02	-6.37053459e+01	1.33025215e+02	-1.87915619e-01	-1.84851980e+01
450775000	-5.60953632e-02	-1.64328576e+01	-6.28239695e+01	1.36191640e+02	-6.37137502e+01	1.32557792e+02	-1.84953646e-01	-1.85908874e+01
451060571.429	-5.76899986e-02	-1.64268114e+01	-6.25052831e+01	1.35664266e+02	-6.35327370e+01	1.32058794e+02	-1.90037208e-01	-1.87500153e+01
451346142.857	-5.49255453e-02	-1.64255953e+01	-6.24026210e+01	1.35029698e+02	-6.34434559e+01	1.30830657e+02	-1.86894499e-01	-1.88317407e+01
451631714.286	-5.92198053e-02	-1.64365973e+01	-6.27162627e+01	1.34002926e+02	-6.32991019e+01	1.29681604e+02	-1.89139849e-01	-1.89072186e+01
451917285.714	-6.06418988e-02	-1.64356750e+01	-6.25424756e+01	1.33297857e+02	-6.34628802e+01	1.28646711e+02	-1.91645637e-01	-1.89881384e+01
452202857.143	-6.03200995e-02	-1.64668638e+01	-6.23987652e+01	1.32896431e+02	-6.33061005e+01	1.26910008e+02	-1.92295241e-01	-1.91738788e+01
452488428.571	-6.05244757e-02	-1.64861951e+01	-6.25110169e+01	1.32295673e+02	-6.32830799e+01	1.27253592e+02	-1.89508431e-01	-1.93492686e+01
452774000	-6.19803588e-02	-1.64798250e+01	-6.23727103e+01	1.31643844e+02	-6.32462433e+01	1.25734119e+02	-1.94102346e-01	-1.94793946e+01
453059571.429	-6.15243735e-02	-1.65052433e+01	-6.22948186e+01	1.31337612e+02	-6.33035661e+01	1.25030086e+02	-1.93843665e-01	-1.96077262e+01
453345142.857	-6.25814628e-02	-1.65218932e+01	-6.22742160e+01	1.28349307e+02	-6.31731150e+01	1.25056001e+02	-1.93981504e-01	-1.97278981e+01
453630714.286	-6.40221479e-02	-1.65207694e+01	-6.22717066e+01	1.27185804e+02	-6.32112125e+01	1.24605728e+02	-1.89408736e-01	-1.99071836e+01
453916285.714	-6.44946227e-02	-1.65067783e+01	-6.21183524e+01	1.27263350e+02	-6.31944444e+01	1.24228511e+02	-1.79967663e-01	-2.00365720e+01
454201857.143	-6.41704233e-02	-1.65269932e+01	-6.21377814e+01	1.26228279e+02	-6.31654065e+01	1.23202922e+02	-1.79567259e-01	-2.01128909e+01
454487428.571	-6.43124428e-02	-1.65122062e+01	-6.18491081e+01	1.24190990e+02	-6.30294115e+01	1.21476236e+02	-1.76693644e-01	-2.02476484e+01
454773000	-6.63748239e-02	-1.65118329e+01	-6.20553403e+01	1.25068324e+02	-6.30783601e+01	1.20548879e+02	-1.84928839e-01	-2.03902062e+01
455058571.429	-6.48852283e-02	-1.65242418e+01	-6.20789995e+01	1.24464794e+02	-6.28745519e+01	1.19550418e+02	-1.91786330e-01	-2.04693707e+01
455344142.857	-6.66471050e-02	-1.65482076e+01	-6.17478234e+01	1.22835767e+02	-6.30006588e+01	1.18516996e+02	-1.88634732e-01	-2.06128564e+01
455629714.286	-6.83064738e-02	-1.65876684e+01	-6.18408294e+01	1.22157828e+02	-6.28965742e+01	1.18249053e+02	-1.88248519e-01	-2.07203656e+01
455915285.714	-6.76154094e-02	-1.65952493e+01	-6.20074354e+01	1.21060164e+02	-6.28047293e+01	1.17266740e+02	-1.85678140e-01	-2.07952567e+01
456200857.143	-6.87834487e-02	-1.66036429e+01	-6.18166566e+01	1.19856570e+02	-6.28780394e+01	1.16659967e+02	-1.88060241e-01	-2.09328370e+01
456486428.571	-6.97904753e-02	-1.66126291e+01	-6.19095965e+01	1.19869541e+02	-6.30122633e+01	1.15869573e+02	-1.89088669e-01	-2.10536582e+01
456772000	-6.88030660e-02	-1.66016444e+01	-6.17580536e+01	1.19243311e+02	-6.29616788e+01	1.14621350e+02	-1.93107408e-01	-2.12128236e+01
457057571.429	-6.81672582e-02	-1.65955438e+01	-6.16987537e+01	1.18126088e+02	-6.29800560e+01	1.14655284e+02	-1.91013260e-01	-2.13463835e+01
457343142.857	-6.79310158e-02	-1.66065345e+01	-6.17640233e+01	1.17307744e+02	-6.28766111e+01	1.13834757e+02	-1.99917271e-01	-2.14263261e+01
457628714.286	-6.88240994e-02	-1.66148535e+01	-6.18736953e+01	1.16397832e+02	-6.27735958e+01	1.13194319e+02	-2.00144720e-01	-2.15393807e+01
457914285.714	-6.75225252e-02	-1.66328486e+01	-6.18622683e+01	1.14691267e+02	-6.28212271e+01	1.12296477e+02	-2.03789037e-01	-2.16444989e+01
458199857.143	-6.66441730e-02	-1.66646216e+01	-6.17672590e+01	1.15982486e+02	-6.29911773e+01	1.12224871e+02	-2.00376167e-01	-2.18247739e+01
458485428.571	-6.70608190e-02	-1.66625070e+01	-6.17488345e+01	1.14208179e+02	-6.28867621e+01	1.11456458e+02	-2.03732552e-01	-2.19072874e+01
458771000	-6.72013972e-02	-1.66514611e+01	-6.17630457e+01	1.13588595e+02	-6.29539248e+01	1.10874377e+02	-1.99514548e-01	-2.20538739e+01
459056571.429	-7.00654031e-02	-1.66363305e+01	-6.16176058e+01	1.13399113e+02	-6.27682967e+01	1.09890746e+02	-2.05920165e-01	-2.21535823e+01
459342142.857	-7.24865515e-02	-1.66862190e+01	-6.16678073e+01	1.13943972e+02	-6.28374836e+01	1.10150810e+02	-2.04846383e-01	-2.23094731e+01
459627714.286	-7.15395892e-02	-1.67072172e+01	-6.17549312e+01	1.13024278e+02	-6.28443237e+01	1.09041595e+02	-2.12912619e-01	-2.24641398e+01
459913285.714	-7.13864904e-02	-1.67240788e+01	-6.18129476e+01	1.11288715e+02	-6.27535973e+01	1.08963739e+02	-2.11797644e-01	-2.25818069e+01
460198857.143	-7.13172174e-02	-1.67060934e+01	-6.17894315e+01	1.11761244e+02	-6.29464331e+01	1.08199682e+02	-2.09509101e-01	-2.26775459e+01
460484428.571	-7.20782311e-02	-1.67234798e+01	-6.15875845e+01	1.10498190e+02	-6.28457279e+01	1.07883812e+02	-2.08881755e-01	-2.28492151e+01
460770000	-7.19508504e-02	-1.67231809e+01	-6.15656331e+01	1.09567806e+02	-6.27067249e+01	1.06298969e+02	-2.13818523e-01	-2.28996843e+01
461055571.429	-7.30235594e-02	-1.67248723e+01	-6.17394155e+01	1.09528751e+02	-6.26733710e+01	1.06278427e+02	-2.04833325e-01	-2.31090034e+01
461341142.857	-7.69535679e-02	-1.67356430e+01	-6.16028495e+01	1.08327398e+02	-6.28774347e+01	1.05942299e+02	-2.07064803e-01	-2.32372303e+01
461626714.286	-7.30606531e-02	-1.67443724e+01	-6.14022043e+01	1.07400036e+02	-6.27507372e+01	1.06397134e+02	-2.10477104e-01	-2.33291288e+01
461912285.714	-7.80231509e-02	-1.67656883e+01	-6.13134661e+01	1.07297223e+02	-6.27517215e+01	1.05041818e+02	-2.13163318e-01	-2.34780786e+01
462197857.143	-7.53278055e-02	-1.67863169e+01	-6.13625742e+01	1.05578011e+02	-6.26264825e+01	1.04657864e+02	-2.04111908e-01	-2.36420194e+01
462483428.571	-7.48735615e-02	-1.67894495e+01	-6.12737307e+01	1.05303036e+02	-6.24878723e+01	1.04941904e+02	-2.03418748e-01	-2.37328128e+01
462769000	-7.37259479e-02	-1.67941574e+01	-6.14668072e+01	1.05742684e+02	-6.23759745e+01	1.03557366e+02	-2.04822551e-01	-2.38836651e+01
463054571.429	-7.49345425e-02	-1.68170802e+01	-6.14599171e+01	1.02797469e+02	-6.24566692e+01	1.02204320e+02	-2.12004005e-01	-2.40469226e+01
463340142.857	-7.22369870e-02	-1.68105780e+01	-6.12086245e+01	1.03620869e+02	-6.24519400e+01	1.02594766e+02	-2.15934747e-01	-2.41883918e+01
463625714.286	-7.57342362e-02	-1.68191442e+01	-6.11726503e+01	1.01939199e+02	-6.24534959e+01	1.01648840e+02	-2.19380985e-01	-2.43003709e+01
463911285.714	-7.31247389e-02	-1.68034189e+01	-6.13368751e+01	1.01540525e+02	-6.23647244e+01	1.00257443e+02	-2.09707205e-01	-2.45069483e+01
464196857.143	-7.29442814e-02	-1.68429599e+01	-6.11074983e+01	9.94120319e+01	-6.23192769e+01	1.00222151e+02	-2.07899705e-01	-2.45839153e+01
464482428.571	-6.88773907e-02	-1.68356353e+01	-6.10239210e+01	9.90917251e+01	-6.22209020e+01	9.86670452e+01	-2.15111849e-01	-2.47039038e+01
464768000	-6.59243576e-02	-1.68253176e+01	-6.09996811e+01	1.00301896e+02	-6.23976851e+01	9.85178334e+01	-2.12035795e-01	-2.49006308e+01
465053571.429	-7.17054577e-02	-1.68740449e+01	-6.10527187e+01	9.72907248e+01	-6.21174573e+01	9.72137668e+01	-2.12115969e-01	-2.49899947e+01
465339142.857	-7.21621748e-02	-1.69011965e+01	-6.10842464e+01	9.76955299e+01	-6.21003355e+01	9.67186144e+01	-2.18062331e-01	-2.51135783e+01
465624714.286	-6.93247827e-02	-1.68647116e+01	-6.09641913e+01	9.58133397e+01	-6.20262168e+01	9.64086999e+01	-2.18375432e-01	-2.52690203e+01
465910285.714	-6.96969346e-02	-1.68998451e+01	-6.09784462e+01	9.55805122e+01	-6.20336501e+01	9.45493164e+01	-2.20759404e-01	-2.54307844e+01
466195857.143	-7.03863640e-02	-1.69048896e+01	-6.09742327e+01	9.41986145e+01	-6.19510975e+01	9.38214248e+01	-2.17153214e-01	-2.55504321e+01
466481428.571	-7.30629228e-02	-1.69380807e+01	-6.08600182e+01	9.22738302e+01	-6.21623366e+01	9.25061616e+01	-2.12440579e-01	-2.56097605e+01
466767000	-7.27682070e-02	-1.68977082e+01	-6.09302678e+01	9.13702259e+01	-6.19315070e+01	9.25956123e+01	-2.17474112e-01	-2.57855941e+01
467052571.429	-7.34101294e-02	-1.69138227e+01	-6.09130922e+01	9.21380547e+01	-6.19873395e+01	9.12417850e+01	-2.20101325e-01	-2.59357545e+01
467338142.857	-7.31117868e-02	-1.69170385e+01	-6.13258933e+01	9.10430609e+01	-6.19711089e+01	9.05586218e+01	-2.13958300e-01	-2.60454843e+01
467623714.286	-7.62903511e-02	-1.69389740e+01	-6.09823223e+01	8.96573985e+01	-6.19830653e+01	8.82891936e+01	-2.16793913e-01	-2.61872417e+01
467909285.714	-7.42382223e-02	-1.69437682e+01	-6.10058914e+01	8.77739521e+01	-6.19337541e+01	8.83194136e+01	-2.28769040e-01	-2.63616781e+01
468194857.143	-7.53136912e-02	-1.69588125e+01	-6.10489614e+01	8.77787400e+01	-6.18611114e+01	8.76946924e+01	-2.35634930e-01	-2.65007319e+01
468480428.571	-7.68729317e-02	-1.69885130e+01	-6.10882656e+01	8.53366627e+01	-6.19409759e+01	8.53886617e+01	-2.30581527e-01	-2.66719275e+01
468766000	-7.21379517e-02	-1.69604421e+01	-6.10407751e+01	8.56681528e+01	-6.20471537e+01	8.53285041e+01	-2.32101553e-01	-2.67867733e+01
469051571.429	-7.06623391e-02	-1.69494344e+01	-6.10075443e+01	8.36123550e+01	-6.21075718e+01	8.49476691e+01	-2.32724426e-01	-2.68814767e+01
469337142.857	-7.04273342e-02	-1.69362540e+01	-6.10722144e+01	8.22269040e+01	-6.21178080e+01	8.34562150e+01	-2.29702720e-01	-2.70172354e+01
469622714.286	-7.33469667e-02	-1.69546536e+01	-6.08040233e+01	8.24199349e+01	-6.21523602e+01	8.25049878e+01	-2.29044806e-01	-2.71884798e+01
469908285.714	-7.54557384e-02	-1.69410177e+01	-6.11616048e+01	8.26061407e+01	-6.20886986e+01	8.21132623e+01	-2.30009907e-01	-2.73284444e+01
470193857.143	-7.77078381e-02	-1.69304653e+01	-6.11086292e+01	7.99432618e+01	-6.22380856e+01	8.11499794e+01	-2.24582123e-01	-2.75090666e+01
470479428.571	-7.61079400e-02	-1.69214477e+01	-6.11996942e+01	7.92864264e+01	-6.22403427e+01	7.94824628e+01	-2.29447065e-01	-2.75750942e+01
470765000	-7.28447752e-02	-1.69094925e+01	-6.11429321e+01	7.80465391e+01	-6.22007757e+01	7.91203121e+01	-2.20703413e-01	-2.77403677e+01
471050571.429	-7.43547613e-02	-1.69528024e+01	-6.13792207e+01	7.80190093e+01	-6.24321871e+01	7.91175608e+01	-2.19715997e-01	-2.78882693e+01
471336142.857	-7.77593253e-02	-1.69656631e+01	-6.14310464e+01	7.69827514e+01	-6.25174736e+01	7.83278688e+01	-2.29964880e-01	-2.80660423e+01
471621714.286	-7.83782356e-02	-1.69705885e+01	-6.13889165e+01	7.59009029e+01	-6.23613945e+01	7.84641825e+01	-2.25227374e-01	-2.81678628e+01
471907285.714	-7.55455002e-02	-1.70238785e+01	-6.16221324e+01	7.41376088e+01	-6.23382972e+01	7.53718809e+01	-2.27475315e-01	-2.82767891e+01
472192857.143	-7.55996101e-02	-1.70119719e+01	-6.15326159e+01	7.46442211e+01	-6.25753828e+01	7.49822258e+01	-2.22846686e-01	-2.84656109e+01
472478428.571	-7.62663754e-02	-1.70076100e+01	-6.13004847e+01	7.41824791e+01	-6.26742457e+01	7.45605646e+01	-2.20029288e-01	-2.85573472e+01
472764000	-7.80872101e-02	-1.70247043e+01	-6.16785919e+01	7.31053663e+01	-6.24864874e+01	7.38264919e+01	-2.20871634e-01	-2.87596173e+01
473049571.429	-7.95092013e-02	-1.70311861e+01	-6.17690490e+01	7.21864526e+01	-6.25807200e+01	7.44957086e+01	-2.24502966e-01	-2.88959784e+01
473335142.857	-8.15057141e-02	-1.70099800e+01	-6.16831009e+01	7.16382038e+01	-6.24376016e+01	7.24753467e+01	-2.18937204e-01	-2.90352648e+01
473620714.286	-7.55952175e-02	-1.69857900e+01	-6.16942482e+01	7.13307514e+01	-6.27604398e+01	7.23395515e+01	-2.13200932e-01	-2.91766223e+01
473906285.714	-7.55365457e-02	-1.69929850e+01	-6.17584867e+01	6.86921674e+01	-6.26848417e+01	7.16606687e+01	-2.17759214e-01	-2.93460620e+01
474191857.143	-7.74513524e-02	-1.70013256e+01	-6.18267538e+01	6.88790929e+01	-6.26825408e+01	6.99665459e+01	-2.17249860e-01	-2.94695254e+01
474477428.571	-7.40806668e-02	-1.70078350e+01	-6.18609187e+01	6.72344768e+01	-6.28126232e+01	6.91496058e+01	-2.09978134e-01	-2.96490356e+01
474763000	-7.93914667e-02	-1.70648632e+01	-6.19328534e+01	6.86536615e+01	-6.27454951e+01	6.86830778e+01	-2.23243426e-01	-2.97840434e+01
475048571.429	-8.55242804e-02	-1.70738622e+01	-6.22208679e+01	6.61257148e+01	-6.26614343e+01	6.87268449e+01	-2.11457889e-01	-2.99099210e+01
475334142.857	-8.13857510e-02	-1.70602407e+01	-6.19835970e+01	6.53790635e+01	-6.28549340e+01	6.78308415e+01	-2.16896300e-01	-3.00685865e+01
475619714.286	-7.91105086e-02	-1.70807693e+01	-6.21227003e+01	6.52554850e+01	-6.30647480e+01	6.67888869e+01	-2.21406597e-01	-3.01848040e+01
475905285.714	-8.53591524e-02	-1.70659496e+01	-6.21098054e+01	6.51989262e+01	-6.30699387e+01	6.71468063e+01	-2.20112121e-01	-3.03436134e+01
476190857.143	-8.01039261e-02	-1.70554567e+01	-6.23241786e+01	6.63520896e+01	-6.30612255e+01	6.52816651e+01	-2.22870963e-01	-3.05125533e+01
476476428.571	-8.50596134e-02	-1.70577396e+01	-6.25094252e+01	6.32156995e+01	-6.31802646e+01	6.52617003e+01	-2.16402625e-01	-3.06401145e+01
476762000	-8.04706692e-02	-1.70831750e+01	-6.21244986e+01	6.23533352e+01	-6.30544034e+01	6.49533490e+01	-2.17779742e-01	-3.07786063e+01
477047571.429	-7.73508857e-02	-1.70714759e+01	-6.23880553e+01	6.34982791e+01	-6.33074729e+01	6.34852580e+01	-2.17488203e-01	-3.09278531e+01
477333142.857	-7.60419630e-02	-1.70783385e+01	-6.25586640e+01	6.23397235e+01	-6.30207111e+01	6.25755103e+01	-2.16111007e-01	-3.10415871e+01
477618714.286	-7.60133937e-02	-1.71099698e+01	-6.25672293e+01	5.85493765e+01	-6.32229021e+01	6.21883205e+01	-2.25590540e-01	-3.11718467e+01
477904285.714	-7.47623306e-02	-1.71221576e+01	-6.28024446e+01	6.02127839e+01	-6.33512715e+01	6.30679896e+01	-2.23123661e-01	-3.13573474e+01
478189857.143	-7.06456911e-02	-1.71099466e+01	-6.29269775e+01	6.13042053e+01	-6.31483768e+01	6.10493796e+01	-2.21327337e-01	-3.14746904e+01
478475428.571	-7.23852455e-02	-1.72011621e+01	-6.29215807e+01	5.96913393e+01	-6.32630603e+01	6.00060407e+01	-2.17754264e-01	-3.16117350e+01
478761000	-7.95842146e-02	-1.72017259e+01	-6.29518015e+01	5.70297642e+01	-6.32284496e+01	5.97892506e+01	-2.19104608e-01	-3.17547413e+01
479046571.429	-7.74352034e-02	-1.71736559e+01	-6.29759807e+01	5.84230291e+01	-6.33278135e+01	5.92047872e+01	-2.12585828e-01	-3.19104605e+01
479332142.857	-7.19559848e-02	-1.71659342e+01	-6.29458805e+01	5.78091679e+01	-6.35843851e+01	5.59974674e+01	-2.19687939e-01	-3.20419586e+01
479617714.286	-6.78495760e-02	-1.72193219e+01	-6.32023207e+01	5.81826008e+01	-6.35540217e+01	5.84858355e+01	-2.19431345e-01	-3.21984860e+01
479903285.714	-6.78966214e-02	-1.72167424e+01	-6.31259074e+01	5.78256796e+01	-6.33377996e+01	5.67140120e+01	-2.15632246e-01	-3.23700999e+01
480188857.143	-7.21043885e-02	-1.71862615e+01	-6.30340901e+01	5.47670364e+01	-6.34760568e+01	5.42520208e+01	-2.11933433e-01	-3.25120635e+01
480474428.571	-7.25959526e-02	-1.71922233e+01	-6.34923111e+01	5.57325422e+01	-6.35938782e+01	5.57327143e+01	-2.13731205e-01	-3.26367050e+01
480760000	-7.22714993e-02	-1.72236374e+01	-6.34845224e+01	5.33852081e+01	-6.37505832e+01	5.46063661e+01	-2.18202772e-01	-3.27547702e+01
481045571.429	-7.39924388e-02	-1.72159302e+01	-6.34732604e+01	5.22525565e+01	-6.39059008e+01	5.40462042e+01	-2.15779419e-01	-3.29198449e+01
481331142.857	-7.38973174e-02	-1.71716672e+01	-6.36163224e+01	5.37221487e+01	-6.39050516e+01	5.16588486e+01	-2.13618914e-01	-3.30785148e+01
481616714.286	-7.73293791e-02	-1.72225261e+01	-6.35837057e+01	5.33054470e+01	-6.42739756e+01	5.02221662e+01	-2.15558325e-01	-3.32536419e+01
481902285.714	-7.56776695e-02	-1.72312003e+01	-6.38595325e+01	5.52321091e+01	-6.40082602e+01	5.16128718e+01	-2.11837291e-01	-3.33791418e+01
482187857.143	-7.52876989e-02	-1.72880192e+01	-6.40032676e+01	5.22820434e+01	-6.42434096e+01	5.06561219e+01	-2.12410870e-01	-3.34760434e+01
482473428.571	-7.99051536e-02	-1.73017600e+01	-6.40781397e+01	5.23375044e+01	-6.41701357e+01	5.05415816e+01	-2.17795606e-01	-3.36542111e+01
482759000	-7.75002083e-02	-1.72954455e+01	-6.43655003e+01	5.06865155e+01	-6.43521167e+01	4.86860324e+01	-2.04787924e-01	-3.37785880e+01
483044571.429	-8.25142060e-02	-1.72748863e+01	-6.41022241e+01	4.93129320e+01	-6.46576705e+01	4.70535496e+01	-2.03377782e-01	-3.39050460e+01
483330142.857	-7.17291590e-02	-1.72135273e+01	-6.45054179e+01	5.14932470e+01	-6.46302964e+01	4.71321645e+01	-2.03689215e-01	-3.40405033e+01
483615714.286	-7.38835962e-02	-1.72602783e+01	-6.46070609e+01	5.12816617e+01	-6.48629857e+01	4.72965882e+01	-2.04873155e-01	-3.41697505e+01
483901285.714	-7.24619120e-02	-1.72928144e+01	-6.45553571e+01	5.23228319e+01	-6.50008641e+01	4.54935557e+01	-2.00374686e-01	-3.43448261e+01
484186857.143	-7.56208192e-02	-1.72644008e+01	-6.42952465e+01	5.00338985e+01	-6.52026067e+01	4.46285481e+01	-2.04831940e-01	-3.45094592e+01
484472428.571	-6.62302865e-02	-1.72940219e+01	-6.46588943e+01	5.06106376e+01	-6.54601588e+01	4.48150952e+01	-2.04174050e-01	-3.46462788e+01
484758000	-6.98445400e-02	-1.73110365e+01	-6.46746827e+01	4.77494027e+01	-6.55621573e+01	4.42533462e+01	-2.04147743e-01	-3.47582310e+01
485043571.429	-7.10143143e-02	-1.73462077e+01	-6.46266372e+01	5.01152795e+01	-6.57236547e+01	4.42834127e+01	-2.05302462e-01	-3.49016649e+01
485329142.857	-6.90717851e-02	-1.73506524e+01	-6.52581966e+01	4.84616946e+01	-6.60371027e+01	4.38405996e+01	-2.00686150e-01	-3.50601268e+01
485614714.286	-6.21210642e-02	-1.73782620e+01	-6.52789005e+01	5.12644280e+01	-6.58780012e+01	4.31523237e+01	-2.02353609e-01	-3.51916590e+01
485900285.714	-6.35346414e-02	-1.73948299e+01	-6.51679294e+01	5.01512867e+01	-6.64432395e+01	4.58141164e+01	-2.00705175e-01	-3.53417819e+01
486185857.143	-7.11586503e-02	-1.74340518e+01	-6.56139109e+01	5.15479647e+01	-6.63728692e+01	4.41587817e+01	-2.00115677e-01	-3.54440119e+01
486471428.571	-6.85004221e-02	-1.74313939e+01	-6.54636684e+01	5.16931972e+01	-6.65292573e+01	4.43392469e+01	-1.99152487e-01	-3.55781751e+01
486757000	-7.42674400e-02	-1.74167149e+01	-6.55999963e+01	5.10307879e+01	-6.66202345e+01	4.30143419e+01	-1.99821024e-01	-3.57343697e+01
487042571.429	-7.07571009e-02	-1.74335550e+01	-6.59276313e+01	5.06012130e+01	-6.69506730e+01	4.39675205e+01	-1.96094873e-01	-3.58493197e+01
487328142.857	-6.67644501e-02	-1.74098232e+01	-6.58659268e+01	5.21950080e+01	-6.69756221e+01	4.32742240e+01	-1.96656023e-01	-3.60012815e+01
487613714.286	-6.73494689e-02	-1.74736658e+01	-6.58486253e+01	5.33826464e+01	-6.70597106e+01	4.32942196e+01	-1.90589441e-01	-3.60949130e+01
487899285.714	-6.30158114e-02	-1.74210819e+01	-6.61215387e+01	5.42493338e+01	-6.75123240e+01	4.51418171e+01	-1.91320062e-01	-3.62505159e+01
488184857.143	-6.85823051e-02	-1.74412936e+01	-6.59253936e+01	5.27761513e+01	-6.73156913e+01	4.38811641e+01	-1.91013152e-01	-3.64101408e+01
488470428.571	-6.70008656e-02	-1.74805554e+01	-6.59271709e+01	5.32049394e+01	-6.78334989e+01	4.38667811e+01	-1.91674556e-01	-3.65405286e+01
488756000	-6.96303035e-02	-1.74715154e+01	-6.60097361e+01	5.36279763e+01	-6.77859109e+01	4.70327146e+01	-1.89912463e-01	-3.66871466e+01
489041571.429	-7.23151072e-02	-1.74876043e+01	-6.61513754e+01	5.64374953e+01	-6.80020847e+01	4.56247468e+01	-1.89651578e-01	-3.68238004e+01
489327142.857	-7.01520638e-02	-1.74735608e+01	-6.59721623e+01	5.57979982e+01	-6.83637678e+01	4.48991349e+01	-1.87086273e-01	-3.69574037e+01
489612714.286	-6.31684371e-02	-1.74887581e+01	-6.63404884e+01	5.50073775e+01	-6.81041239e+01	4.96473936e+01	-1.89133501e-01	-3.70763603e+01
489898285.714	-6.19064012e-02	-1.75499040e+01	-6.61004667e+01	5.49285767e+01	-6.80654856e+01	5.01079246e+01	-1.83703663e-01	-3.71787830e+01
490183857.143	-6.03540230e-02	-1.74971343e+01	-6.61131494e+01	5.58255288e+01	-6.85615554e+01	5.11497882e+01	-1.80895024e-01	-3.72786787e+01
490469428.571	-6.30159313e-02	-1.75459723e+01	-6.58835010e+01	5.66988288e+01	-6.86676480e+01	5.01509579e+01	-1.78863294e-01	-3.73781960e+01
490755000	-6.08728099e-02	-1.75474128e+01	-6.59984183e+01	5.79965713e+01	-6.83969079e+01	5.15806242e+01	-1.86793977e-01	-3.75018838e+01
491040571.429	-6.50164309e-02	-1.75647412e+01	-6.63459866e+01	5.87049764e+01	-6.86302968e+01	5.11479772e+01	-1.86181431e-01	-3.76067113e+01
491326142.857	-6.22826349e-02	-1.75816311e+01	-6.61584615e+01	5.73436220e+01	-6.89405448e+01	5.19649676e+01	-1.87837685e-01	-3.77773151e+01
491611714.286	-6.21349701e-02	-1.75907546e+01	-6.59744368e+01	5.51211081e+01	-6.87086152e+01	5.39168134e+01	-1.86804550e-01	-3.79356457e+01
491897285.714	-6.00855623e-02	-1.75934624e+01	-6.58081250e+01	5.81898499e+01	-6.89201949e+01	5.58024367e+01	-1.88600803e-01	-3.80992743e+01
492182857.143	-6.59720345e-02	-1.76145848e+01	-6.58154647e+01	5.67366701e+01	-6.86431911e+01	6.06763829e+01	-1.86182774e-01	-3.82344198e+01
492468428.571	-6.65809309e-02	-1.76094803e+01	-6.56986527e+01	5.94774739e+01	-6.85301537e+01	6.01989318e+01	-1.85071424e-01	-3.83929450e+01
492754000	-6.54701041e-02	-1.76297309e+01	-6.60977296e+01	5.90538764e+01	-6.83141429e+01	5.67834405e+01	-1.86157975e-01	-3.85018094e+01
493039571.429	-6.44956557e-02	-1.76551043e+01	-6.58748649e+01	5.87394567e+01	-6.85543133e+01	6.17713561e+01	-1.89241201e-01	-3.86129622e+01
493325142.857	-6.59364489e-02	-1.76444666e+01	-6.54829802e+01	5.78304495e+01	-6.83289143e+01	5.95196518e+01	-1.89183404e-01	-3.87002666e+01
493610714.286	-6.89937234e-02	-1.76622604e+01	-6.59080426e+01	6.07546967e+01	-6.84627794e+01	6.22663401e+01	-1.92474894e-01	-3.88034447e+01
493896285.714	-7.37179380e-02	-1.76505392e+01	-6.54748280e+01	5.94854195e+01	-6.83059472e+01	6.37939070e+01	-1.94044285e-01	-3.89463608e+01
494181857.143	-7.38159824e-02	-1.76855871e+01	-6.55977922e+01	5.98978419e+01	-6.80696515e+01	6.39901648e+01	-1.91819500e-01	-3.91055937e+01
494467428.571	-7.22709376e-02	-1.76885762e+01	-6.54287723e+01	6.12254644e+01	-6.80693043e+01	6.38268773e+01	-1.91092989e-01	-3.92463846e+01
494753000	-7.12003433e-02	-1.76791002e+01	-6.54933648e+01	6.07591715e+01	-6.79675183e+01	6.40626251e+01	-1.86946195e-01	-3.94296237e+01
495038571.429	-6.42545227e-02	-1.77018753e+01	-6.53162869e+01	6.01917537e+01	-6.77409462e+01	6.45174759e+01	-1.84158391e-01	-3.95692140e+01
495324142.857	-6.69958725e-02	-1.77007124e+01	-6.54786874e+01	6.04196904e+01	-6.78120090e+01	6.38471140e+01	-1.84310729e-01	-3.96837007e+01
495609714.286	-7.18598119e-02	-1.77570869e+01	-6.51036067e+01	5.86393443e+01	-6.73128141e+01	6.42628582e+01	-1.82362459e-01	-3.98081039e+01
495895285.714	-6.92780227e-02	-1.77627773e+01	-6.52896539e+01	5.96248282e+01	-6.75244041e+01	6.42584119e+01	-1.87548785e-01	-3.98897530e+01
496180857.143	-6.26767054e-02	-1.77470287e+01	-6.49605561e+01	5.99005984e+01	-6.71714087e+01	6.36371676e+01	-1.89268704e-01	-4.00037963e+01
496466428.571	-6.51563795e-02	-1.77757730e+01	-6.50341265e+01	5.79102047e+01	-6.74211401e+01	6.26545531e+01	-1.94078160e-01	-4.01182705e+01
496752000	-6.96501277e-02	-1.77354110e+01	-6.50821959e+01	5.82227045e+01	-6.71495138e+01	6.55750134e+01	-1.97729406e-01	-4.02638705e+01
497037571.429	-6.79571359e-02	-1.77505012e+01	-6.50612102e+01	5.82565312e+01	-6.73014487e+01	6.40678235e+01	-2.00690351e-01	-4.04545224e+01
497323142.857	-6.68426591e-02	-1.77902569e+01	-6.50242556e+01	5.71558241e+01	-6.70001197e+01	6.43304650e+01	-2.03173972e-01	-4.05886840e+01
497608714.286	-6.46936724e-02	-1.77995524e+01	-6.47684153e+01	5.68070467e+01	-6.69085856e+01	6.41311223e+01	-2.03525619e-01	-4.07646473e+01
497894285.714	-6.89482476e-02	-1.78356706e+01	-6.45206551e+01	5.51082356e+01	-6.68711179e+01	6.49038027e+01	-1.97132531e-01	-4.08647331e+01
498179857.143	-7.18541810e-02	-1.78549235e+01	-6.46614585e+01	5.74219262e+01	-6.69043006e+01	6.53536188e+01	-1.90774144e-01	-4.09648282e+01
498465428.571	-6.95772956e-02	-1.78704236e+01	-6.46792868e+01	5.67082463e+01	-6.66164227e+01	6.25841467e+01	-1.88367327e-01	-4.10556539e+01
498751000	-6.68123034e-02	-1.78614347e+01	-6.48093863e+01	5.64913397e+01	-6.64828422e+01	6.23872021e+01	-1.91466252e-01	-4.11646852e+01
499036571.429	-6.57061495e-02	-1.78873087e+01	-6.45009053e+01	5.46859079e+01	-6.64994279e+01	6.34271508e+01	-1.91425714e-01	-4.13129015e+01
499322142.857	-6.47975696e-02	-1.79068759e+01	-6.43990428e+01	5.47777993e+01	-6.64467014e+01	6.19100575e+01	-1.91010397e-01	-4.14362643e+01
499607714.286	-6.60983592e-02	-1.78985444e+01	-6.43837118e+01	5.54432352e+01	-6.62466576e+01	6.18516016e+01	-1.93405369e-01	-4.15964142e+01
499893285.714	-6.04008462e-02	-1.79156746e+01	-6.43753569e+01	5.36164728e+01	-6.62839330e+01	6.15454185e+01	-1.91881602e-01	-4.17614927e+01
500178857.143	-5.95737867e-02	-1.78931842e+01	-6.41681747e+01	5.22537620e+01	-6.62437198e+01	5.97885720e+01	-1.91438078e-01	-4.19343366e+01
500464428.571	-5.85535541e-02	-1.79305089e+01	-6.42907409e+01	5.46372979e+01	-6.61829248e+01	6.17201145e+01	-1.90715378e-01	-4.20757163e+01
500750000	-5.60061244e-02	-1.79403080e+01	-6.43110801e+01	5.18583989e+01	-6.64693233e+01	6.07480413e+01	-1.91662346e-01	-4.21827324e+01
501035571.429	-6.04434179e-02	-1.79773822e+01	-6.43449008e+01	5.13059189e+01	-6.62241223e+01	5.89909859e+01	-1.89173797e-01	-4.22549286e+01
501321142.857	-6.25376385e-02	-1.79953554e+01	-6.42242824e+01	5.14322291e+01	-6.62545689e+01	5.92082511e+01	-1.89739363e-01	-4.23207960e+01
501606714.286	-6.15990941e-02	-1.79938167e+01	-6.42763910e+01	5.03835428e+01	-6.61264025e+01	5.85995769e+01	-1.96662067e-01	-4.23867749e+01
501892285.714	-6.33737563e-02	-1.80034900e+01	-6.45525236e+01	5.13477272e+01	-6.62254233e+01	5.92450491e+01	-1.98715389e-01	-4.24284951e+01
502177857.143	-6.67132352e-02	-1.79870912e+01	-6.43803924e+01	5.10477937e+01	-6.60574859e+01	6.02643645e+01	-1.96384342e-01	-4.25414965e+01
502463428.571	-6.35947925e-02	-1.79908145e+01	-6.43591860e+01	4.88713425e+01	-6.63779101e+01	5.70769208e+01	-1.94948038e-01	-4.26424899e+01
502749000	-6.63452991e-02	-1.80289940e+01	-6.43537936e+01	4.88559605e+01	-6.64796738e+01	5.95362587e+01	-1.99203784e-01	-4.28043936e+01
503034571.429	-6.65080117e-02	-1.80438247e+01	-6.44260884e+01	4.78281139e+01	-6.60277988e+01	5.88154207e+01	-1.99815848e-01	-4.29642668e+01
503320142.857	-7.03985235e-02	-1.80469620e+01	-6.41631732e+01	4.80775476e+01	-6.60810443e+01	5.87195231e+01	-2.00879670e-01	-4.31341627e+01
503605714.286	-6.84306815e-02	-1.80806948e+01	-6.45603303e+01	4.92686895e+01	-6.58454490e+01	5.90572157e+01	-1.99207243e-01	-4.32819888e+01
503891285.714	-7.46911913e-02	-1.80870740e+01	-6.44384136e+01	4.73389408e+01	-6.62208209e+01	5.69669654e+01	-1.96132558e-01	-4.33810425e+01
504176857.143	-7.62606109e-02	-1.80985496e+01	-6.44088273e+01	4.79280423e+01	-6.61736429e+01	5.89057726e+01	-2.01077793e-01	-4.35514661e+01
504462428.571	-7.45664194e-02	-1.81010643e+01	-6.42945654e+01	4.83756773e+01	-6.60745586e+01	5.78890493e+01	-2.02720185e-01	-4.36281809e+01
504748000	-7.24165724e-02	-1.81270342e+01	-6.41763281e+01	4.81323841e+01	-6.61240553e+01	5.92178160e+01	-2.02579218e-01	-4.37271000e+01
505033571.429	-7.05038959e-02	-1.81073892e+01	-6.45010608e+01	4.76479278e+01	-6.59176417e+01	5.88129113e+01	-2.06390981e-01	-4.38327843e+01
505319142.857	-7.21313892e-02	-1.81495138e+01	-6.43683716e+01	4.70800281e+01	-6.60172358e+01	5.97091549e+01	-2.06377327e-01	-4.39081926e+01
505604714.286	-7.38629956e-02	-1.81749981e+01	-6.43407022e+01	4.78766199e+01	-6.57814848e+01	6.05914367e+01	-2.06937057e-01	-4.40504881e+01
505890285.714	-7.74983791e-02	-1.81978105e+01	-6.44478797e+01	4.81209944e+01	-6.57545119e+01	5.90652166e+01	-2.12553148e-01	-4.41599969e+01
506175857.143	-7.58677375e-02	-1.82223325e+01	-6.42811073e+01	4.66549799e+01	-6.58972445e+01	5.93570690e+01	-2.10904232e-01	-4.42417312e+01
506461428.571	-7.64197273e-02	-1.82192774e+01	-6.45823187e+01	4.75038422e+01	-6.57375395e+01	5.78070329e+01	-2.09889563e-01	-4.44298606e+01
506747000	-7.65315356e-02	-1.82174148e+01	-6.41355988e+01	4.81414913e+01	-6.55666713e+01	5.96181522e+01	-2.10998730e-01	-4.45507936e+01
507032571.429	-7.55114381e-02	-1.82550980e+01	-6.41161615e+01	4.41333203e+01	-6.56037256e+01	5.93690947e+01	-2.14555495e-01	-4.46844319e+01
507318142.857	-7.70714930e-02	-1.82574873e+01	-6.43471973e+01	4.52023697e+01	-6.54541804e+01	5.76465133e+01	-2.14314385e-01	-4.48581053e+01
507603714.286	-7.75299956e-02	-1.82813221e+01	-6.39148993e+01	4.47762115e+01	-6.54739413e+01	5.70082529e+01	-2.12942660e-01	-4.49113835e+01
507889285.714	-7.78668614e-02	-1.83106376e+01	-6.43688925e+01	4.45958435e+01	-6.53174566e+01	5.77728808e+01	-2.12219974e-01	-4.51004164e+01
508174857.143	-7.92246318e-02	-1.83067657e+01	-6.41058494e+01	4.55459683e+01	-6.53840005e+01	5.80532011e+01	-2.13322401e-01	-4.52113331e+01
508460428.571	-8.05181175e-02	-1.83125274e+01	-6.43556249e+01	4.42490889e+01	-6.52281676e+01	5.85588794e+01	-2.11205406e-01	-4.53726912e+01
508746000	-7.82712084e-02	-1.83204270e+01	-6.44726174e+01	4.39899409e+01	-6.53173866e+01	5.74814853e+01	-2.12572365e-01	-4.55455183e+01
509031571.429	-7.84833404e-02	-1.83406071e+01	-6.42550107e+01	4.36891840e+01	-6.51021553e+01	5.84880419e+01	-2.11733947e-01	-4.56131602e+01
509317142.857	-7.81752684e-02	-1.83450520e+01	-6.42085990e+01	4.44179362e+01	-6.51321331e+01	5.72611756e+01	-2.16446105e-01	-4.57467394e+01
509602714.286	-7.42295556e-02	-1.83713799e+01	-6.43598671e+01	4.25027562e+01	-6.50419500e+01	5.69093564e+01	-2.18387828e-01	-4.58485609e+01
509888285.714	-7.39956249e-02	-1.83776648e+01	-6.41324899e+01	3.98819721e+01	-6.48324578e+01	5.72298551e+01	-2.22616486e-01	-4.59511183e+01
510173857.143	-7.66265581e-02	-1.83763809e+01	-6.41360375e+01	4.24664532e+01	-6.50256821e+01	5.76448183e+01	-2.24837919e-01	-4.60809470e+01
510459428.571	-7.65841679e-02	-1.84183369e+01	-6.41870400e+01	4.35511160e+01	-6.50371808e+01	5.69725829e+01	-2.33302650e-01	-4.61324829e+01
510745000	-7.47989995e-02	-1.84113452e+01	-6.41839707e+01	4.23491480e+01	-6.48654908e+01	5.73891238e+01	-2.36459974e-01	-4.62543582e+01
511030571.429	-7.31839660e-02	-1.84211165e+01	-6.44369651e+01	4.22928943e+01	-6.48095103e+01	5.66011302e+01	-2.41358437e-01	-4.63230329e+01
511316142.857	-7.36237238e-02	-1.84250047e+01	-6.40746211e+01	4.07611554e+01	-6.49250611e+01	5.68063428e+01	-2.40062741e-01	-4.64503952e+01
511601714.286	-7.10582455e-02	-1.84246832e+01	-6.41679768e+01	4.05379578e+01	-6.47629089e+01	5.60259282e+01	-2.44128843e-01	-4.65574662e+01
511887285.714	-7.35760336e-02	-1.84441634e+01	-6.41714159e+01	4.04521289e+01	-6.49479456e+01	5.44167193e+01	-2.46480023e-01	-4.67165153e+01
512172857.143	-7.45263067e-02	-1.84519380e+01	-6.41142736e+01	4.21417978e+01	-6.45375417e+01	5.48336692e+01	-2.49536130e-01	-4.68066242e+01
512458428.571	-7.44422763e-02	-1.84701571e+01	-6.40622864e+01	4.30315371e+01	-6.44236023e+01	5.57136850e+01	-2.53141478e-01	-4.69294389e+01
512744000	-7.63572184e-02	-1.84677692e+01	-6.40027074e+01	4.15142902e+01	-6.47792788e+01	5.56463810e+01	-2.62071304e-01	-4.70893200e+01
513029571.429	-7.32071175e-02	-1.85017710e+01	-6.40433833e+01	4.08934662e+01	-6.43973578e+01	5.64260458e+01	-2.54269922e-01	-4.72130502e+01
513315142.857	-7.54175467e-02	-1.84956433e+01	-6.40776201e+01	4.20822577e+01	-6.42816502e+01	5.51023470e+01	-2.47032457e-01	-4.73901646e+01
513600714.286	-7.37143497e-02	-1.85022657e+01	-6.39689476e+01	3.98498851e+01	-6.44335083e+01	5.38021165e+01	-2.51157369e-01	-4.75148400e+01
513886285.714	-7.35791100e-02	-1.85194278e+01	-6.39066315e+01	4.03140392e+01	-6.41704977e+01	5.46261512e+01	-2.49369112e-01	-4.76439750e+01
514171857.143	-7.49484937e-02	-1.85361830e+01	-6.38945521e+01	4.07255563e+01	-6.42571489e+01	5.38129358e+01	-2.47656320e-01	-4.78160564e+01
514457428.571	-7.71071123e-02	-1.85594303e+01	-6.39525638e+01	4.00489816e+01	-6.39818773e+01	5.41350817e+01	-2.52244807e-01	-4.79464254e+01
514743000	-7.46564176e-02	-1.85879487e+01	-6.38463088e+01	3.89207833e+01	-6.38926760e+01	5.24284865e+01	-2.58811707e-01	-4.81699267e+01
515028571.429	-7.57570315e-02	-1.86022587e+01	-6.37307069e+01	3.84228185e+01	-6.39537698e+01	5.18966626e+01	-2.56615098e-01	-4.82574393e+01
515314142.857	-7.59750591e-02	-1.85893087e+01	-6.35548656e+01	3.94008625e+01	-6.40355523e+01	5.13004387e+01	-2.47056974e-01	-4.84186508e+01
515599714.286	-7.73356322e-02	-1.85782590e+01	-6.37845367e+01	3.88809177e+01	-6.39134699e+01	5.01572553e+01	-2.40616992e-01	-4.85302036e+01
515885285.714	-7.51223103e-02	-1.86122202e+01	-6.37903696e+01	3.78688568e+01	-6.38267943e+01	5.04064638e+01	-2.44341509e-01	-4.87213663e+01
516170857.143	-7.68398090e-02	-1.86267270e+01	-6.34076552e+01	3.73630478e+01	-6.37363519e+01	5.06471181e+01	-2.48555090e-01	-4.88254779e+01
516456428.571	-7.76809203e-02	-1.86397929e+01	-6.36205949e+01	3.77157380e+01	-6.36657180e+01	4.90306620e+01	-2.56578050e-01	-4.89829986e+01
516742000	-8.03901246e-02	-1.86738314e+01	-6.35768288e+01	3.67116214e+01	-6.37542308e+01	4.92644076e+01	-2.59253734e-01	-4.90166613e+01
517027571.429	-7.68328206e-02	-1.86953293e+01	-6.37531185e+01	3.66313484e+01	-6.36686731e+01	4.88405369e+01	-2.61866028e-01	-4.92430233e+01
517313142.857	-7.57891508e-02	-1.86910263e+01	-6.36482403e+01	3.64449884e+01	-6.38669443e+01	4.87241445e+01	-2.60681901e-01	-4.93634672e+01
517598714.286	-7.57410353e-02	-1.87040716e+01	-6.34739437e+01	3.45688266e+01	-6.36984193e+01	4.86928235e+01	-2.61477360e-01	-4.95293934e+01
517884285.714	-7.49368606e-02	-1.87011725e+01	-6.37910553e+01	3.49189587e+01	-6.36390948e+01	4.66793604e+01	-2.54044476e-01	-4.96297869e+01
518169857.143	-7.65672890e-02	-1.87058908e+01	-6.34231453e+01	3.46781564e+01	-6.34844165e+01	4.66688631e+01	-2.58860865e-01	-4.98169920e+01
518455428.571	-7.59748644e-02	-1.87325157e+01	-6.36287291e+01	3.31779173e+01	-6.34484071e+01	4.59253890e+01	-2.54399760e-01	-4.99432255e+01
518741000	-7.47073047e-02	-1.87653776e+01	-6.35871720e+01	3.41792711e+01	-6.35829980e+01	4.58730788e+01	-2.47585501e-01	-5.00712365e+01
519026571.429	-7.40394492e-02	-1.87705854e+01	-6.37270524e+01	3.35729688e+01	-6.35586131e+01	4.50743249e+01	-2.59594516e-01	-5.01905797e+01
519312142.857	-7.23542283e-02	-1.87645201e+01	-6.36981335e+01	3.47559458e+01	-6.34060306e+01	4.47607361e+01	-2.60474415e-01	-5.02812249e+01
519597714.286	-7.37112427e-02	-1.87541083e+01	-6.37449033e+01	3.47524621e+01	-6.34359422e+01	4.46518219e+01	-2.51647075e-01	-5.04743030e+01
519883285.714	-7.83011543e-02	-1.87685021e+01	-6.35153209e+01	3.41636035e+01	-6.35119848e+01	4.54796848e+01	-2.58483867e-01	-5.06093539e+01
520168857.143	-7.56913184e-02	-1.87965403e+01	-6.36087063e+01	3.33657909e+01	-6.33923705e+01	4.52645880e+01	-2.53784826e-01	-5.07506092e+01
520454428.571	-7.45140117e-02	-1.88083791e+01	-6.35194111e+01	3.36147199e+01	-6.32811662e+01	4.58029903e+01	-2.64119292e-01	-5.08492997e+01
520740000	-7.48815731e-02	-1.88458181e+01	-6.35058539e+01	3.33123427e+01	-6.32802139e+01	4.38841168e+01	-2.50913257e-01	-5.10085636e+01
521025571.429	-7.36483748e-02	-1.88239272e+01	-6.34294089e+01	3.39701519e+01	-6.32620243e+01	4.47120745e+01	-2.55435840e-01	-5.11554787e+01
521311142.857	-7.53948845e-02	-1.88452087e+01	-6.34745493e+01	3.46204317e+01	-6.32479976e+01	4.46055689e+01	-2.61938999e-01	-5.12732776e+01
521596714.286	-7.57278844e-02	-1.88455393e+01	-6.33809193e+01	3.48380651e+01	-6.32595747e+01	4.40999578e+01	-2.59780015e-01	-5.14447103e+01
521882285.714	-7.86994688e-02	-1.88775106e+01	-6.30816797e+01	3.19864960e+01	-6.31376380e+01	4.21982428e+01	-2.70550877e-01	-5.15811397e+01
522167857.143	-7.64392393e-02	-1.88799453e+01	-6.32510004e+01	3.30500118e+01	-6.30942033e+01	4.24742534e+01	-2.76053055e-01	-5.17344003e+01
522453428.571	-7.39752764e-02	-1.88974405e+01	-6.33167059e+01	3.26667466e+01	-6.29855397e+01	4.28418100e+01	-2.64830480e-01	-5.18504871e+01
522739000	-7.47324223e-02	-1.88946743e+01	-6.32651263e+01	3.19126654e+01	-6.32293290e+01	4.22468838e+01	-2.62118822e-01	-5.20328271e+01
523024571.429	-7.65966051e-02	-1.89010389e+01	-6.31313799e+01	3.25087362e+01	-6.29443093e+01	4.15192376e+01	-2.50851033e-01	-5.21276824e+01
523310142.857	-7.66289762e-02	-1.89221838e+01	-6.31497241e+01	3.29404800e+01	-6.29244740e+01	4.17614524e+01	-2.49604861e-01	-5.22482032e+01
523595714.286	-7.40765775e-02	-1.89170808e+01	-6.32215520e+01	2.98153647e+01	-6.29426205e+01	4.18804532e+01	-2.58238238e-01	-5.24113143e+01
523881285.714	-7.27013663e-02	-1.89058433e+01	-6.29596141e+01	2.90659268e+01	-6.30481188e+01	4.09303198e+01	-2.65901435e-01	-5.25700331e+01
524166857.143	-7.11414689e-02	-1.89128731e+01	-6.31135411e+01	2.97562561e+01	-6.27374818e+01	3.90694407e+01	-2.67801477e-01	-5.27189775e+01
524452428.571	-7.31499346e-02	-1.89555033e+01	-6.28155490e+01	2.82815198e+01	-6.27683022e+01	3.87273304e+01	-2.66430140e-01	-5.28801512e+01
524738000	-6.90333930e-02	-1.89690032e+01	-6.29114051e+01	2.96247453e+01	-6.26133044e+01	3.78852590e+01	-2.73208614e-01	-5.29615755e+01
525023571.429	-6.88639897e-02	-1.89849750e+01	-6.28946155e+01	2.93309237e+01	-6.27775609e+01	3.74333608e+01	-2.69273696e-01	-5.31076146e+01
525309142.857	-7.23815910e-02	-1.89913980e+01	-6.27894903e+01	2.67188877e+01	-6.26108848e+01	3.74010593e+01	-2.75810948e-01	-5.32134066e+01
525594714.286	-7.08546906e-02	-1.89932663e+01	-6.27427094e+01	2.66390424e+01	-6.26067020e+01	3.69277049e+01	-2.71486260e-01	-5.33569849e+01
525880285.714	-7.33291803e-02	-1.89969396e+01	-6.30872571e+01	2.82499750e+01	-6.26391287e+01	3.55534248e+01	-2.70536923e-01	-5.35567660e+01
526165857.143	-7.31614170e-02	-1.90271532e+01	-6.29177179e+01	2.65264789e+01	-6.25950595e+01	3.53029481e+01	-2.70544671e-01	-5.36980261e+01
526451428.571	-6.95010801e-02	-1.90229319e+01	-6.26121075e+01	2.56927789e+01	-6.27028142e+01	3.58455472e+01	-2.60254033e-01	-5.38495631e+01
526737000	-6.62284542e-02	-1.90182785e+01	-6.27434636e+01	2.51508565e+01	-6.26468740e+01	3.41566278e+01	-2.59596773e-01	-5.40322418e+01
527022571.429	-6.61316829e-02	-1.90347976e+01	-6.25800990e+01	2.48967957e+01	-6.27657091e+01	3.45914238e+01	-2.69293004e-01	-5.41047023e+01
527308142.857	-6.31328634e-02	-1.90486667e+01	-6.28330118e+01	2.40178396e+01	-6.26138110e+01	3.33427595e+01	-2.60208906e-01	-5.42830528e+01
527593714.286	-6.44912746e-02	-1.90072977e+01	-6.28177488e+01	2.32909830e+01	-6.26117904e+01	3.36609701e+01	-2.62641025e-01	-5.44224353e+01
527879285.714	-6.26119436e-02	-1.90065478e+01	-6.27275994e+01	2.31375831e+01	-6.26406252e+01	3.27734626e+01	-2.53724876e-01	-5.45951662e+01
528164857.143	-6.49917452e-02	-1.90424890e+01	-6.30119219e+01	2.35125824e+01	-6.27366107e+01	3.11949943e+01	-2.63231005e-01	-5.47502178e+01
528450428.571	-6.66929925e-02	-1.90959591e+01	-6.27770467e+01	2.39977495e+01	-6.26557159e+01	3.26164750e+01	-2.65050652e-01	-5.49335095e+01
528736000	-6.58042938e-02	-1.90739701e+01	-6.30769401e+01	2.31268997e+01	-6.28637535e+01	3.12086847e+01	-2.63018885e-01	-5.50629461e+01
529021571.429	-6.84086316e-02	-1.90691686e+01	-6.28660549e+01	2.25835562e+01	-6.27727807e+01	3.32245288e+01	-2.67542008e-01	-5.51786041e+01
529307142.857	-6.56648558e-02	-1.90337135e+01	-6.30649396e+01	2.29479388e+01	-6.27530309e+01	3.12475427e+01	-2.71023503e-01	-5.53129644e+01
529592714.286	-6.27938326e-02	-1.90394245e+01	-6.28954512e+01	2.31243062e+01	-6.27858932e+01	3.13866597e+01	-2.62751157e-01	-5.54745386e+01
529878285.714	-6.27873807e-02	-1.90853446e+01	-6.29087324e+01	2.29419323e+01	-6.27167045e+01	3.13008399e+01	-2.66149866e-01	-5.55804935e+01
530163857.143	-6.46730725e-02	-1.90977991e+01	-6.29357890e+01	2.13579793e+01	-6.27592596e+01	3.13886526e+01	-2.75807496e-01	-5.57469349e+01
530449428.571	-6.38585888e-02	-1.91097311e+01	-6.30988183e+01	2.13969874e+01	-6.27408280e+01	3.10498470e+01	-2.67189334e-01	-5.58574932e+01
530735000	-6.41312097e-02	-1.90617244e+01	-6.31308183e+01	2.25989118e+01	-6.26423691e+01	3.02865186e+01	-2.73399677e-01	-5.60217117e+01
531020571.429	-6.66364115e-02	-1.90491678e+01	-6.28363153e+01	2.22414147e+01	-6.25707279e+01	2.95559663e+01	-2.75695952e-01	-5.61563606e+01
531306142.857	-6.57355355e-02	-1.90488028e+01	-6.29256359e+01	2.26711996e+01	-6.28407662e+01	3.08388307e+01	-2.65331892e-01	-5.63588586e+01
531591714.286	-6.21713736e-02	-1.90666689e+01	-6.27269564e+01	2.29461241e+01	-6.25547914e+01	2.98292492e+01	-2.64447890e-01	-5.65046125e+01
531877285.714	-6.42641620e-02	-1.90326184e+01	-6.27203217e+01	2.15301300e+01	-6.23902529e+01	3.03476616e+01	-2.68627772e-01	-5.66542775e+01
532162857.143	-6.40198200e-02	-1.90549926e+01	-6.29661194e+01	2.16184141e+01	-6.25075792e+01	2.93078742e+01	-2.64477133e-01	-5.68292179e+01
532448428.571	-7.03574527e-02	-1.90709158e+01	-6.27845644e+01	2.07289132e+01	-6.26208393e+01	2.91128250e+01	-2.65631928e-01	-5.69234780e+01
532734000	-6.92785975e-02	-1.90510713e+01	-6.27963898e+01	1.95298838e+01	-6.27426424e+01	2.87201219e+01	-2.70934509e-01	-5.70567935e+01
533019571.429	-6.61240832e-02	-1.90765449e+01	-6.25802094e+01	1.98035901e+01	-6.24094372e+01	2.90696309e+01	-2.67677255e-01	-5.72328848e+01
533305142.857	-6.58403628e-02	-1.90823084e+01	-6.27514345e+01	1.73882052e+01	-6.24356875e+01	2.85212729e+01	-2.68746502e-01	-5.73586321e+01
533590714.286	-6.55240170e-02	-1.90875418e+01	-6.26186698e+01	1.91452866e+01	-6.23781825e+01	2.89937427e+01	-2.66081649e-01	-5.75315564e+01
533876285.714	-6.41473941e-02	-1.90883192e+01	-6.27045276e+01	1.83252973e+01	-6.24184644e+01	2.83329057e+01	-2.63265833e-01	-5.76568505e+01
534161857.143	-6.24965673e-02	-1.90725251e+01	-6.29392263e+01	1.90803100e+01	-6.21924298e+01	2.71905507e+01	-2.63079939e-01	-5.77748587e+01
534447428.571	-6.43641520e-02	-1.90756332e+01	-6.23727465e+01	1.73814050e+01	-6.22083906e+01	2.74264272e+01	-2.64944844e-01	-5.79347884e+01
534733000	-6.71792016e-02	-1.90822408e+01	-6.24666951e+01	1.68580719e+01	-6.22883270e+01	2.64699932e+01	-2.54607787e-01	-5.80819320e+01
535018571.429	-7.00795167e-02	-1.90483577e+01	-6.25247965e+01	1.77788911e+01	-6.23817682e+01	2.57028630e+01	-2.53264719e-01	-5.82331041e+01
535304142.857	-6.50038273e-02	-1.90719128e+01	-6.26195812e+01	1.51854931e+01	-6.21811722e+01	2.50760966e+01	-2.51322161e-01	-5.83580536e+01
535589714.286	-6.98762896e-02	-1.90669023e+01	-6.25083076e+01	1.38395565e+01	-6.20182705e+01	2.36816168e+01	-2.48392319e-01	-5.85125943e+01
535875285.714	-6.65437185e-02	-1.90451040e+01	-6.26402961e+01	1.39414950e+01	-6.23432658e+01	2.38912192e+01	-2.51725608e-01	-5.86993599e+01
536160857.143	-6.62277801e-02	-1.90423143e+01	-6.25078648e+01	1.27350377e+01	-6.22552333e+01	2.41362579e+01	-2.47433554e-01	-5.88265530e+01
536446428.571	-6.82051508e-02	-1.90479417e+01	-6.26105373e+01	1.37905079e+01	-6.23010235e+01	2.31341971e+01	-2.44983055e-01	-5.89740617e+01
536732000	-6.30328738e-02	-1.90704191e+01	-6.28598874e+01	1.37942772e+01	-6.22958885e+01	2.24053816e+01	-2.45068465e-01	-5.91349909e+01
537017571.429	-6.81832586e-02	-1.91008350e+01	-6.29827789e+01	1.31847507e+01	-6.21279034e+01	2.23630210e+01	-2.39152697e-01	-5.92733676e+01
537303142.857	-6.75337725e-02	-1.90592065e+01	-6.27239007e+01	1.07127975e+01	-6.23286011e+01	2.13830745e+01	-2.34506228e-01	-5.94008565e+01
537588714.286	-7.37377367e-02	-1.90688879e+01	-6.31688004e+01	1.05761588e+01	-6.24794344e+01	2.14649974e+01	-2.34841688e-01	-5.95151489e+01
537874285.714	-7.14755693e-02	-1.91090389e+01	-6.31305453e+01	1.06410607e+01	-6.24702360e+01	2.08944962e+01	-2.35796887e-01	-5.96580088e+01
538159857.143	-7.31376930e-02	-1.91129838e+01	-6.31625678e+01	1.15216042e+01	-6.26692661e+01	2.12304359e+01	-2.35709800e-01	-5.98066835e+01
538445428.571	-6.59577852e-02	-1.91455115e+01	-6.33741301e+01	1.03821708e+01	-6.26422196e+01	2.18291903e+01	-2.26430010e-01	-5.99608337e+01
538731000	-7.16086915e-02	-1.91769377e+01	-6.32219863e+01	1.15895268e+01	-6.25921244e+01	2.06700711e+01	-2.27572988e-01	-6.01117053e+01
539016571.429	-6.36462572e-02	-1.91254260e+01	-6.34702843e+01	8.57941703e+00	-6.25683495e+01	2.08568328e+01	-2.28646420e-01	-6.02475396e+01
539302142.857	-6.32771037e-02	-1.91513984e+01	-6.34152209e+01	9.89826255e+00	-6.28341029e+01	2.12012067e+01	-2.35953469e-01	-6.03817919e+01
539587714.286	-5.82400983e-02	-1.91168588e+01	-6.35224006e+01	1.03808709e+01	-6.26412254e+01	2.20532698e+01	-2.32959963e-01	-6.05154645e+01
539873285.714	-6.30181469e-02	-1.91378030e+01	-6.33799445e+01	1.03284116e+01	-6.26869157e+01	2.07208524e+01	-2.33499519e-01	-6.06791866e+01
540158857.143	-6.35584434e-02	-1.91927380e+01	-6.33514797e+01	9.79379870e+00	-6.29294767e+01	2.08502842e+01	-2.36568867e-01	-6.08166574e+01
540444428.571	-5.87774206e-02	-1.91392625e+01	-6.36492853e+01	9.33662556e+00	-6.27328191e+01	2.22070719e+01	-2.40079017e-01	-6.09464360e+01
540730000	-6.34763822e-02	-1.91318522e+01	-6.35416625e+01	1.12182827e+01	-6.29143757e+01	2.29361154e+01	-2.37516932e-01	-6.10988378e+01
541015571.429	-6.35713878e-02	-1.91272320e+01	-6.36593311e+01	1.13945427e+01	-6.29948898e+01	2.19084430e+01	-2.38057763e-01	-6.12685281e+01
541301142.857	-7.00701573e-02	-1.91242989e+01	-6.36946926e+01	1.24405001e+01	-6.29465848e+01	2.25975364e+01	-2.34595196e-01	-6.14139622e+01
541586714.286	-5.96494315e-02	-1.91773516e+01	-6.38811124e+01	1.35483977e+01	-6.26809064e+01	2.38111872e+01	-2.40016233e-01	-6.15499853e+01
541872285.714	-6.41917871e-02	-1.91895672e+01	-6.39062856e+01	1.28344860e+01	-6.27715205e+01	2.40194681e+01	-2.47887468e-01	-6.16861466e+01
542157857.143	-6.35158929e-02	-1.91698718e+01	-6.38628573e+01	1.42966249e+01	-6.27310844e+01	2.40950131e+01	-2.44354144e-01	-6.18206015e+01
542443428.571	-6.21721535e-02	-1.91920280e+01	-6.39350585e+01	1.56573314e+01	-6.27019721e+01	2.57234431e+01	-2.41501490e-01	-6.19590863e+01
542729000	-7.13409713e-02	-1.91816657e+01	-6.38004584e+01	1.59879902e+01	-6.24252769e+01	2.49789128e+01	-2.38443267e-01	-6.20586630e+01
543014571.429	-7.05346990e-02	-1.91865354e+01	-6.36867327e+01	1.61163400e+01	-6.25608940e+01	2.58513645e+01	-2.36754397e-01	-6.22134801e+01
543300142.857	-6.82406976e-02	-1.91686141e+01	-6.35494565e+01	1.76821460e+01	-6.24738313e+01	2.72089065e+01	-2.34231925e-01	-6.23605291e+01
543585714.286	-7.08725021e-02	-1.91330568e+01	-6.36216789e+01	1.66004353e+01	-6.24254000e+01	2.48043804e+01	-2.31696765e-01	-6.25228770e+01
543871285.714	-7.19907313e-02	-1.91474670e+01	-6.35208049e+01	1.72081870e+01	-6.21876246e+01	2.53094832e+01	-2.31105129e-01	-6.26790981e+01
544156857.143	-7.70519632e-02	-1.91821754e+01	-6.35356859e+01	1.64307384e+01	-6.22015019e+01	2.68123637e+01	-2.30981132e-01	-6.28177275e+01
544442428.571	-7.49429371e-02	-1.92189873e+01	-6.34220433e+01	1.83214718e+01	-6.19854975e+01	2.60004568e+01	-2.27056765e-01	-6.29347904e+01
544728000	-7.83135720e-02	-1.91745971e+01	-6.31813332e+01	1.88938908e+01	-6.19637740e+01	2.67296273e+01	-2.24151203e-01	-6.30836703e+01
545013571.429	-7.20862834e-02	-1.91960595e+01	-6.32004911e+01	1.91625797e+01	-6.18702251e+01	2.57939021e+01	-2.26752744e-01	-6.31930845e+01
545299142.857	-6.49112455e-02	-1.91892498e+01	-6.29938716e+01	1.82733682e+01	-6.15703201e+01	2.57912266e+01	-2.21920704e-01	-6.32863442e+01
545584714.286	-6.60571044e-02	-1.91948722e+01	-6.28190334e+01	1.89703842e+01	-6.15466759e+01	2.59888975e+01	-2.20925025e-01	-6.34187037e+01
545870285.714	-6.56184187e-02	-1.91881701e+01	-6.29101303e+01	2.06374307e+01	-6.14238156e+01	2.57181984e+01	-2.24644141e-01	-6.35428983e+01
546155857.143	-6.82880216e-02	-1.91979402e+01	-6.26490240e+01	2.03792157e+01	-6.13026048e+01	2.57406494e+01	-2.21384815e-01	-6.36005911e+01
546441428.571	-7.14280573e-02	-1.91990784e+01	-6.26585289e+01	2.01651190e+01	-6.10655155e+01	2.53387024e+01	-2.20431756e-01	-6.37175951e+01
546727000	-7.41432216e-02	-1.92292803e+01	-6.26815993e+01	2.10710303e+01	-6.11137629e+01	2.52718685e+01	-2.23706728e-01	-6.38880991e+01
547012571.429	-7.09386813e-02	-1.92274679e+01	-6.22172294e+01	2.08112718e+01	-6.10703978e+01	2.50558561e+01	-2.26914480e-01	-6.40333788e+01
547298142.857	-6.88257175e-02	-1.92287749e+01	-6.22557197e+01	1.89799737e+01	-6.08524104e+01	2.46912935e+01	-2.27926794e-01	-6.41846986e+01
547583714.286	-6.62743104e-02	-1.92338378e+01	-6.20117728e+01	1.96116328e+01	-6.06978270e+01	2.44136669e+01	-2.25816328e-01	-6.43276340e+01
547869285.714	-6.88204930e-02	-1.92048254e+01	-6.18793789e+01	1.87480832e+01	-6.06136469e+01	2.41145247e+01	-2.22337151e-01	-6.44948104e+01
548154857.143	-7.13425105e-02	-1.92366248e+01	-6.18574774e+01	1.82678224e+01	-6.05910151e+01	2.26615719e+01	-2.24431060e-01	-6.46337371e+01
548440428.571	-7.24740063e-02	-1.92926509e+01	-6.17473908e+01	1.83365000e+01	-6.04054483e+01	2.26449735e+01	-2.20719533e-01	-6.47571740e+01
548726000	-6.83971824e-02	-1.92667404e+01	-6.16420204e+01	1.96603605e+01	-6.03239085e+01	2.20368211e+01	-2.20789550e-01	-6.48880473e+01
549011571.429	-6.73975230e-02	-1.92946635e+01	-6.15459399e+01	1.73406011e+01	-6.01541974e+01	2.17509975e+01	-2.27392878e-01	-6.49775456e+01
549297142.857	-6.67983582e-02	-1.92834671e+01	-6.15959655e+01	1.73376436e+01	-6.01840081e+01	2.11294028e+01	-2.24694252e-01	-6.51238292e+01
549582714.286	-6.69423145e-02	-1.93091064e+01	-6.15136078e+01	1.73507283e+01	-6.00671421e+01	2.07243366e+01	-2.22769659e-01	-6.52579102e+01
549868285.714	-6.50818393e-02	-1.93184118e+01	-6.09544603e+01	1.66721943e+01	-6.00358190e+01	1.99907369e+01	-2.22621958e-01	-6.54235028e+01
550153857.143	-6.86130861e-02	-1.93196309e+01	-6.11475291e+01	1.62903606e+01	-5.98708403e+01	1.94056426e+01	-2.25629410e-01	-6.55922055e+01
550439428.571	-7.25763893e-02	-1.93055185e+01	-6.10687305e+01	1.53769943e+01	-5.97605131e+01	1.84393449e+01	-2.27642725e-01	-6.57547675e+01
550725000	-6.52528300e-02	-1.93285576e+01	-6.09145920e+01	1.32669529e+01	-5.97964685e+01	1.76053943e+01	-2.22632516e-01	-6.58940798e+01
551010571.429	-7.10973908e-02	-1.93211355e+01	-6.07509173e+01	1.34306014e+01	-5.97084626e+01	1.75648344e+01	-2.24630410e-01	-6.60334161e+01
551296142.857	-6.62957275e-02	-1.93680311e+01	-6.07696463e+01	1.29350738e+01	-5.96280299e+01	1.63734454e+01	-2.26693575e-01	-6.61702428e+01
551581714.286	-6.74389960e-02	-1.93462656e+01	-6.05493662e+01	1.28243669e+01	-5.95098670e+01	1.66271713e+01	-2.28446972e-01	-6.63123526e+01
551867285.714	-6.73845471e-02	-1.93482443e+01	-6.06992633e+01	1.27525310e+01	-5.94290372e+01	1.53549033e+01	-2.29987180e-01	-6.64024200e+01
552152857.143	-6.28772715e-02	-1.93170197e+01	-6.06587888e+01	1.05576340e+01	-5.94871768e+01	1.44294382e+01	-2.36825446e-01	-6.65063021e+01
552438428.571	-6.71354031e-02	-1.93714614e+01	-6.05188252e+01	9.68098342e+00	-5.93355730e+01	1.34645607e+01	-2.35164615e-01	-6.66759638e+01
552724000	-6.94645021e-02	-1.93912822e+01	-6.05852722e+01	9.48942032e+00	-5.93286230e+01	1.34256506e+01	-2.33004563e-01	-6.68246874e+01
553009571.429	-7.47112865e-02	-1.93776418e+01	-6.06611633e+01	9.10878159e+00	-5.92953807e+01	1.25137018e+01	-2.32335398e-01	-6.69777707e+01
553295142.857	-7.34593154e-02	-1.93905637e+01	-6.03757224e+01	7.59241926e+00	-5.92185185e+01	1.21770974e+01	-2.32075167e-01	-6.71052832e+01
553580714.286	-7.38832050e-02	-1.93828677e+01	-6.06487369e+01	8.69070014e+00	-5.91829203e+01	1.14718573e+01	-2.32250800e-01	-6.72194127e+01
553866285.714	-7.67718625e-02	-1.94443848e+01	-6.03492795e+01	7.06701304e+00	-5.92277369e+01	1.03140177e+01	-2.32232028e-01	-6.73301497e+01
554151857.143	-8.13694433e-02	-1.94473669e+01	-6.03935113e+01	6.83623476e+00	-5.91655372e+01	9.93495145e+00	-2.30065014e-01	-6.74694984e+01
554437428.571	-8.33664886e-02	-1.94310883e+01	-6.03146625e+01	6.03694446e+00	-5.91015364e+01	9.03419382e+00	-2.29396217e-01	-6.75931296e+01
554723000	-7.81450961e-02	-1.94316887e+01	-6.03541089e+01	4.94750889e+00	-5.91129214e+01	8.08028492e+00	-2.31535687e-01	-6.77257651e+01
555008571.429	-8.03571240e-02	-1.94388709e+01	-6.03500666e+01	4.55259165e+00	-5.90304623e+01	7.87708522e+00	-2.34364590e-01	-6.78356099e+01
555294142.857	-7.78675570e-02	-1.94233990e+01	-6.02126596e+01	4.10020964e+00	-5.90585437e+01	7.23300474e+00	-2.35001529e-01	-6.79816542e+01
555579714.286	-7.59992171e-02	-1.94858919e+01	-6.02921670e+01	3.93054147e+00	-5.90925639e+01	7.43449630e+00	-2.34070849e-01	-6.81226459e+01
555865285.714	-7.64044640e-02	-1.94846468e+01	-6.02665650e+01	2.81557622e+00	-5.90409092e+01	5.81532632e+00	-2.38467745e-01	-6.82896533e+01
556150857.143	-7.31998010e-02	-1.95185549e+01	-6.00145248e+01	2.64350538e+00	-5.90709597e+01	5.55174173e+00	-2.34879509e-01	-6.84168091e+01
556436428.571	-7.51615824e-02	-1.94755926e+01	-6.02526623e+01	1.03582697e+00	-5.90594931e+01	4.66191993e+00	-2.42398313e-01	-6.85386811e+01
556722000	-7.90834460e-02	-1.94881025e+01	-6.00345208e+01	3.50701068e-01	-5.89926297e+01	4.18437706e+00	-2.39755291e-01	-6.85933417e+01
557007571.429	-8.22138052e-02	-1.94878535e+01	-6.01792186e+01	1.24412403e+00	-5.89132459e+01	4.32036241e+00	-2.40415004e-01	-6.86998934e+01
557293142.857	-8.04132511e-02	-1.95260566e+01	-6.02333114e+01	9.86015198e-01	-5.89360281e+01	3.83879532e+00	-2.36001955e-01	-6.88112721e+01
557578714.286	-8.32923588e-02	-1.95417179e+01	-6.01031551e+01	-1.75698913e-01	-5.89354563e+01	2.67191542e+00	-2.37803435e-01	-6.88907689e+01
557864285.714	-8.09519545e-02	-1.95392954e+01	-6.01270947e+01	-2.45249461e-01	-5.90345339e+01	2.50298574e+00	-2.35626827e-01	-6.89700736e+01
558149857.143	-8.43884949e-02	-1.95526883e+01	-6.01889175e+01	-1.37593900e+00	-5.90019706e+01	1.20572790e+00	-2.35451876e-01	-6.91095850e+01
558435428.571	-8.67584383e-02	-1.95673793e+01	-6.02314515e+01	-1.25360492e+00	-5.88446728e+01	8.00213404e-01	-2.31422009e-01	-6.92299807e+01
558721000	-8.45291218e-02	-1.95833908e+01	-6.01885437e+01	-2.42556568e+00	-5.89726331e+01	1.05802199e+00	-2.40000564e-01	-6.93594746e+01
559006571.429	-8.63413429e-02	-1.95893356e+01	-6.00941373e+01	-2.08736196e+00	-5.89900776e+01	4.89264453e-01	-2.48450559e-01	-6.95135369e+01
559292142.857	-8.43363147e-02	-1.95957505e+01	-6.02435727e+01	-2.56686114e+00	-5.89735660e+01	-6.33352527e-01	-2.50554468e-01	-6.96764655e+01
559577714.286	-9.11606320e-02	-1.96445488e+01	-6.02347322e+01	-2.70185353e+00	-5.90502299e+01	-5.38766602e-01	-2.49097056e-01	-6.97968699e+01
559863285.714	-8.74388621e-02	-1.96505127e+01	-6.01116196e+01	-3.21719648e+00	-5.90323083e+01	-8.58186350e-01	-2.42573979e-01	-6.98915961e+01
560148857.143	-9.11388410e-02	-1.96939082e+01	-6.03997926e+01	-2.25751966e+00	-5.90450606e+01	-5.64970707e-01	-2.46738366e-01	-6.99807062e+01
560434428.571	-9.12488061e-02	-1.96830681e+01	-6.03552809e+01	-3.17315454e+00	-5.89443228e+01	-1.10587082e+00	-2.47115746e-01	-7.00973142e+01
560720000	-9.13080349e-02	-1.97041690e+01	-6.02395904e+01	-2.90639215e+00	-5.90046168e+01	-1.29826269e+00	-2.55930107e-01	-7.01984375e+01
561005571.429	-8.96916003e-02	-1.97198037e+01	-6.03167513e+01	-2.70038988e+00	-5.89976458e+01	-1.22658571e+00	-2.57862691e-01	-7.03033855e+01
561291142.857	-8.83995999e-02	-1.97419115e+01	-6.01523881e+01	-2.04550207e+00	-5.89435211e+01	-1.19261512e+00	-2.55043429e-01	-7.03785446e+01
561576714.286	-8.45810990e-02	-1.97139645e+01	-6.02952174e+01	-3.75031617e+00	-5.89543439e+01	-1.75157539e+00	-2.56948067e-01	-7.05379330e+01
561862285.714	-8.41358557e-02	-1.97211295e+01	-6.00847603e+01	-3.17698269e+00	-5.88771239e+01	-1.62513139e+00	-2.52083427e-01	-7.06563806e+01
562147857.143	-8.58816836e-02	-1.97550090e+01	-6.01044809e+01	-4.05443766e+00	-5.88953602e+01	-1.57591586e+00	-2.56125369e-01	-7.07990751e+01
562433428.571	-9.20194246e-02	-1.97799588e+01	-5.98809317e+01	-4.32702947e+00	-5.87901243e+01	-1.45980148e+00	-2.55273140e-01	-7.09682347e+01
562719000	-9.35163120e-02	-1.97961454e+01	-6.00126449e+01	-3.21693088e+00	-5.85900062e+01	-2.47105090e+00	-2.60408829e-01	-7.11230323e+01
563004571.429	-9.08378140e-02	-1.98195824e+01	-5.97552097e+01	-4.02486992e+00	-5.87509393e+01	-2.99908964e+00	-2.59103636e-01	-7.12721644e+01
563290142.857	-9.08395281e-02	-1.98347742e+01	-5.98325027e+01	-4.42440623e+00	-5.85566359e+01	-2.72574592e+00	-2.59734091e-01	-7.14157444e+01
563575714.286	-9.66018471e-02	-1.98691814e+01	-5.96533248e+01	-5.01697003e+00	-5.85520474e+01	-3.81476046e+00	-2.58842919e-01	-7.15488093e+01
563861285.714	-9.91237966e-02	-1.98788924e+01	-5.97045223e+01	-4.70009285e+00	-5.84219905e+01	-3.86991401e+00	-2.69019692e-01	-7.16217101e+01
564146857.143	-9.97713342e-02	-1.98932730e+01	-5.95338111e+01	-6.04578985e+00	-5.83082234e+01	-4.56168225e+00	-2.62533003e-01	-7.17486050e+01
564432428.571	-1.02647430e-01	-1.99170255e+01	-5.95108868e+01	-6.53057242e+00	-5.82832125e+01	-4.82988664e+00	-2.60325001e-01	-7.18888954e+01
564718000	-1.01559608e-01	-1.99404120e+01	-5.94379834e+01	-6.76823388e+00	-5.81582717e+01	-4.88756915e+00	-2.61734717e-01	-7.19892267e+01
565003571.429	-1.05484302e-01	-1.99396866e+01	-5.93464735e+01	-8.24636290e+00	-5.81265080e+01	-5.76279601e+00	-2.67586494e-01	-7.21134696e+01
565289142.857	-1.04153511e-01	-1.99677060e+01	-5.94684563e+01	-7.59696864e+00	-5.82226848e+01	-6.49503016e+00	-2.72923887e-01	-7.22397170e+01
565574714.286	-1.05527793e-01	-1.99849893e+01	-5.93446254e+01	-8.14736731e+00	-5.81765839e+01	-6.77627331e+00	-2.79869671e-01	-7.23106740e+01
565860285.714	-1.08154435e-01	-2.00136371e+01	-5.92901610e+01	-9.10048236e+00	-5.80877135e+01	-6.89265637e+00	-2.81451764e-01	-7.24088136e+01
566145857.143	-1.10419495e-01	-2.00329083e+01	-5.92600033e+01	-9.95994425e+00	-5.80529058e+01	-8.05682811e+00	-2.79760865e-01	-7.25605264e+01
566431428.571	-1.11111695e-01	-2.00488657e+01	-5.91777810e+01	-1.00909954e+01	-5.80574070e+01	-9.03369892e+00	-2.88668772e-01	-7.26519011e+01
566717000	-1.13729420e-01	-2.00801866e+01	-5.94104080e+01	-1.07505799e+01	-5.79692388e+01	-8.76887034e+00	-2.91481378e-01	-7.28167484e+01
567002571.429	-1.15845108e-01	-2.00954329e+01	-5.93450809e+01	-9.96806012e+00	-5.79135363e+01	-9.76926788e+00	-2.96576948e-01	-7.28872934e+01
567288142.857	-1.17141701e-01	-2.01117808e+01	-5.91735005e+01	-1.02642232e+01	-5.78760112e+01	-1.01955520e+01	-2.95479929e-01	-7.29818982e+01
567573714.286	-1.18035650e-01	-2.01477888e+01	-5.92197995e+01	-1.20549965e+01	-5.80412503e+01	-1.06113027e+01	-3.03879913e-01	-7.31010590e+01
567859285.714	-1.21103577e-01	-2.01802100e+01	-5.92985513e+01	-1.26845543e+01	-5.78966954e+01	-1.08681584e+01	-3.00806602e-01	-7.32449966e+01
568144857.143	-1.23795299e-01	-2.01722210e+01	-5.93733445e+01	-1.20963392e+01	-5.79017875e+01	-1.20314734e+01	-3.05202423e-01	-7.33411739e+01
568430428.571	-1.23014166e-01	-2.02024905e+01	-5.91261960e+01	-1.22761536e+01	-5.79016118e+01	-1.21871634e+01	-3.04278983e-01	-7.34940021e+01
568716000	-1.25103088e-01	-2.02362282e+01	-5.93252714e+01	-1.30781504e+01	-5.79166805e+01	-1.17215587e+01	-3.09123289e-01	-7.35748292e+01
569001571.429	-1.25819673e-01	-2.02739370e+01	-5.92727094e+01	-1.25837786e+01	-5.78390039e+01	-1.32260184e+01	-3.12935626e-01	-7.37332263e+01
569287142.857	-1.25673664e-01	-2.02827413e+01	-5.91491334e+01	-1.37303433e+01	-5.77959518e+01	-1.37079705e+01	-3.12094959e-01	-7.38506282e+01
569572714.286	-1.25440738e-01	-2.03111501e+01	-5.92246506e+01	-1.34275422e+01	-5.77141507e+01	-1.38378460e+01	-3.17943955e-01	-7.38965882e+01
569858285.714	-1.25471896e-01	-2.03089252e+01	-5.90730733e+01	-1.40740726e+01	-5.77387603e+01	-1.40941626e+01	-3.17650127e-01	-7.40140245e+01
570143857.143	-1.28127103e-01	-2.03264411e+01	-5.91775055e+01	-1.51160385e+01	-5.78066284e+01	-1.45824505e+01	-3.16575975e-01	-7.42174982e+01
570429428.571	-1.28632259e-01	-2.03408708e+01	-5.90994317e+01	-1.42600315e+01	-5.77741509e+01	-1.57329700e+01	-3.30493160e-01	-7.43415834e+01
570715000	-1.27750076e-01	-2.03751196e+01	-5.91061609e+01	-1.49290205e+01	-5.77795976e+01	-1.62163118e+01	-3.33083596e-01	-7.44941913e+01
571000571.429	-1.28620528e-01	-2.03930558e+01	-5.89734654e+01	-1.58174254e+01	-5.77693580e+01	-1.60213183e+01	-3.37388638e-01	-7.45720048e+01
571286142.857	-1.31352316e-01	-2.04054860e+01	-5.91018086e+01	-1.52891642e+01	-5.76622927e+01	-1.72570560e+01	-3.30382012e-01	-7.47606494e+01
571571714.286	-1.30025121e-01	-2.04154245e+01	-5.89849401e+01	-1.54239069e+01	-5.77138428e+01	-1.73789306e+01	-3.32847987e-01	-7.48661914e+01
571857285.714	-1.32766822e-01	-2.04383448e+01	-5.91367173e+01	-1.62333505e+01	-5.76666471e+01	-1.72811775e+01	-3.36128084e-01	-7.50518322e+01
572142857.143	-1.32171488e-01	-2.04626317e+01	-5.90533401e+01	-1.56807956e+01	-5.77034836e+01	-1.83401782e+01	-3.22701424e-01	-7.51655501e+01
572428428.571	-1.32763632e-01	-2.04575443e+01	-5.90600936e+01	-1.65682630e+01	-5.76583009e+01	-1.85308838e+01	-3.33790171e-01	-7.52940271e+01
572714000	-1.35769944e-01	-2.05023344e+01	-5.89375441e+01	-1.69839976e+01	-5.76681102e+01	-1.85367177e+01	-3.26355505e-01	-7.54644776e+01
572999571.429	-1.37111352e-01	-2.05086501e+01	-5.90697501e+01	-1.62658426e+01	-5.76457152e+01	-1.91743487e+01	-3.33080347e-01	-7.56974594e+01
573285142.857	-1.36981323e-01	-2.05260068e+01	-5.88847803e+01	-1.76666717e+01	-5.76823551e+01	-1.89744984e+01	-3.34066600e-01	-7.57582109e+01
573570714.286	-1.36795853e-01	-2.05491527e+01	-5.88526333e+01	-1.67994872e+01	-5.76414030e+01	-1.95962121e+01	-3.39569881e-01	-7.59483925e+01
573856285.714	-1.42096131e-01	-2.05785148e+01	-5.88012406e+01	-1.75040922e+01	-5.76402479e+01	-1.95548062e+01	-3.36086330e-01	-7.60785806e+01
574141857.143	-1.42399063e-01	-2.06050142e+01	-5.87431000e+01	-1.72523487e+01	-5.74952691e+01	-1.89680327e+01	-3.37342835e-01	-7.62703762e+01
574427428.571	-1.41355762e-01	-2.06144820e+01	-5.86959032e+01	-1.71671595e+01	-5.74942391e+01	-1.96018937e+01	-3.35704903e-01	-7.63655748e+01
574713000	-1.38799544e-01	-2.06521668e+01	-5.85743875e+01	-1.63433340e+01	-5.74581825e+01	-1.99327519e+01	-3.31237034e-01	-7.64403010e+01
574998571.429	-1.42400078e-01	-2.06768081e+01	-5.84814906e+01	-1.69804446e+01	-5.73775997e+01	-2.03498743e+01	-3.36952512e-01	-7.66326265e+01
575284142.857	-1.44730756e-01	-2.07087608e+01	-5.83823658e+01	-1.76008788e+01	-5.72192134e+01	-2.00302514e+01	-3.40358319e-01	-7.67088213e+01
575569714.286	-1.45969812e-01	-2.07049282e+01	-5.83414785e+01	-1.78451748e+01	-5.72921555e+01	-2.01413306e+01	-3.48008589e-01	-7.68939096e+01
575855285.714	-1.44279757e-01	-2.07208780e+01	-5.82839239e+01	-1.75744501e+01	-5.71544878e+01	-2.10812220e+01	-3.48361453e-01	-7.70264113e+01
576140857.143	-1.44209218e-01	-2.07663154e+01	-5.81726952e+01	-1.84124578e+01	-5.71063782e+01	-2.11185496e+01	-3.42202057e-01	-7.71596372e+01
576426428.571	-1.49390443e-01	-2.07721315e+01	-5.80217690e+01	-1.97657321e+01	-5.68233907e+01	-2.16985273e+01	-3.41335913e-01	-7.73273623e+01
576712000	-1.49960494e-01	-2.07971642e+01	-5.79988652e+01	-1.95500375e+01	-5.68803722e+01	-2.25291713e+01	-3.45673330e-01	-7.74999830e+01
576997571.429	-1.50253712e-01	-2.08147301e+01	-5.78149959e+01	-2.01142845e+01	-5.67288400e+01	-2.28975894e+01	-3.37515090e-01	-7.75829379e+01
577283142.857	-1.53802043e-01	-2.08480677e+01	-5.76518904e+01	-1.97766618e+01	-5.66877027e+01	-2.31633756e+01	-3.41870643e-01	-7.77283079e+01
577568714.286	-1.52026817e-01	-2.08831620e+01	-5.76873657e+01	-2.11131753e+01	-5.65737341e+01	-2.45919470e+01	-3.43723389e-01	-7.78543575e+01
577854285.714	-1.53008483e-01	-2.09192914e+01	-5.75830631e+01	-2.20595527e+01	-5.65821425e+01	-2.56385482e+01	-3.43769673e-01	-7.79983969e+01
578139857.143	-1.51958433e-01	-2.09258267e+01	-5.74531667e+01	-2.28058408e+01	-5.64622241e+01	-2.56797863e+01	-3.42650897e-01	-7.81311197e+01
578425428.571	-1.51835568e-01	-2.09374093e+01	-5.73250433e+01	-2.24887998e+01	-5.64321211e+01	-2.64727170e+01	-3.43053711e-01	-7.82949477e+01
578711000	-1.51795479e-01	-2.09476062e+01	-5.73250871e+01	-2.35082012e+01	-5.62725336e+01	-2.80003116e+01	-3.46962428e-01	-7.83915262e+01
578996571.429	-1.50283800e-01	-2.09687910e+01	-5.71968106e+01	-2.49931671e+01	-5.63429988e+01	-2.75599840e+01	-3.41072808e-01	-7.85452690e+01
579282142.857	-1.51724319e-01	-2.09967591e+01	-5.70765155e+01	-2.56306844e+01	-5.61458095e+01	-2.89209132e+01	-3.41729054e-01	-7.86691118e+01
579567714.286	-1.50867351e-01	-2.10124165e+01	-5.71343142e+01	-2.68263874e+01	-5.61006139e+01	-2.90194058e+01	-3.39714719e-01	-7.87921853e+01
579853285.714	-1.48440308e-01	-2.10157926e+01	-5.71022325e+01	-2.70005640e+01	-5.62537777e+01	-3.06962684e+01	-3.48165530e-01	-7.88981902e+01
580138857.143	-1.51472304e-01	-2.10498551e+01	-5.70227769e+01	-2.83029212e+01	-5.59643424e+01	-3.17504859e+01	-3.43678044e-01	-7.90889392e+01
580424428.571	-1.51705053e-01	-2.10568853e+01	-5.70927736e+01	-2.88551909e+01	-5.61095482e+01	-3.25290693e+01	-3.47553534e-01	-7.91986931e+01
580710000	-1.53803225e-01	-2.10864769e+01	-5.71153503e+01	-2.97553255e+01	-5.59892722e+01	-3.32948554e+01	-3.47862253e-01	-7.93838160e+01
580995571.429	-1.53639414e-01	-2.11198485e+01	-5.70960040e+01	-3.10792083e+01	-5.61061033e+01	-3.42231144e+01	-3.47749284e-01	-7.95038843e+01
581281142.857	-1.57768463e-01	-2.11497540e+01	-5.70180538e+01	-3.18339726e+01	-5.60900901e+01	-3.51328826e+01	-3.48873253e-01	-7.96659727e+01
581566714.286	-1.53363059e-01	-2.11603666e+01	-5.70363698e+01	-3.28286959e+01	-5.60526181e+01	-3.64431932e+01	-3.53151487e-01	-7.97763826e+01
581852285.714	-1.53670210e-01	-2.11719449e+01	-5.71352394e+01	-3.27276056e+01	-5.60929570e+01	-3.69516484e+01	-3.59353995e-01	-7.99219593e+01
582137857.143	-1.51640237e-01	-2.11825405e+01	-5.70248652e+01	-3.38959337e+01	-5.61287210e+01	-3.73482408e+01	-3.55626391e-01	-8.00594414e+01
582423428.571	-1.56739636e-01	-2.11944769e+01	-5.71125230e+01	-3.42185021e+01	-5.61548322e+01	-3.81723798e+01	-3.58525238e-01	-8.02281128e+01
582709000	-1.56856984e-01	-2.12180351e+01	-5.70038559e+01	-3.52464908e+01	-5.60891675e+01	-3.84422031e+01	-3.54240934e-01	-8.03496414e+01
582994571.429	-1.52024357e-01	-2.12527177e+01	-5.72127052e+01	-3.58417276e+01	-5.61933329e+01	-3.96080816e+01	-3.44668394e-01	-8.04650796e+01
583280142.857	-1.53087907e-01	-2.12615281e+01	-5.71205628e+01	-3.60795242e+01	-5.62695725e+01	-4.04853714e+01	-3.53600322e-01	-8.05669636e+01
583565714.286	-1.52600638e-01	-2.13074938e+01	-5.71895686e+01	-3.65814195e+01	-5.62577253e+01	-4.01737825e+01	-3.51766529e-01	-8.07471897e+01
583851285.714	-1.53013795e-01	-2.13462698e+01	-5.71222212e+01	-3.65060738e+01	-5.62552634e+01	-4.14495187e+01	-3.50931025e-01	-8.09221204e+01
584136857.143	-1.54752873e-01	-2.13496022e+01	-5.70732593e+01	-3.73296255e+01	-5.62584260e+01	-4.12883812e+01	-3.53806476e-01	-8.10687707e+01
584422428.571	-1.55779447e-01	-2.13695616e+01	-5.71638688e+01	-3.73307604e+01	-5.62427744e+01	-4.16435987e+01	-3.55831506e-01	-8.12203822e+01
584708000	-1.55592789e-01	-2.13643584e+01	-5.70812993e+01	-3.76204126e+01	-5.62942888e+01	-4.26818942e+01	-3.50345951e-01	-8.14161012e+01
584993571.429	-1.53311282e-01	-2.14044213e+01	-5.71105671e+01	-3.83684609e+01	-5.62781767e+01	-4.23898880e+01	-3.50432076e-01	-8.15524919e+01
585279142.857	-1.54970435e-01	-2.14080285e+01	-5.70681092e+01	-3.92436791e+01	-5.62537058e+01	-4.31580169e+01	-3.53375392e-01	-8.17172697e+01
585564714.286	-1.53451461e-01	-2.14436678e+01	-5.71983815e+01	-3.97842678e+01	-5.62485167e+01	-4.35880715e+01	-3.53830214e-01	-8.18399283e+01
585850285.714	-1.51338237e-01	-2.14795420e+01	-5.71139797e+01	-3.83952243e+01	-5.62992809e+01	-4.40200227e+01	-3.60712360e-01	-8.19463494e+01
586135857.143	-1.53968822e-01	-2.14757063e+01	-5.71627353e+01	-3.94687519e+01	-5.63237776e+01	-4.45104752e+01	-3.55059002e-01	-8.20802707e+01
586421428.571	-1.54053318e-01	-2.15008759e+01	-5.70761508e+01	-3.99258718e+01	-5.62592659e+01	-4.45496593e+01	-3.54058934e-01	-8.22099826e+01
586707000	-1.54559898e-01	-2.15030185e+01	-5.71227807e+01	-4.12141489e+01	-5.62224411e+01	-4.46783870e+01	-3.57614301e-01	-8.23529348e+01
586992571.429	-1.53715046e-01	-2.15378051e+01	-5.68684080e+01	-4.02606670e+01	-5.61476638e+01	-4.55130638e+01	-3.62490789e-01	-8.24952572e+01
587278142.857	-1.56840242e-01	-2.15704007e+01	-5.69800479e+01	-4.15033830e+01	-5.62528977e+01	-4.55800574e+01	-3.64642434e-01	-8.26535097e+01
587563714.286	-1.57112447e-01	-2.16170088e+01	-5.67967788e+01	-4.13087734e+01	-5.62653478e+01	-4.66426237e+01	-3.65504424e-01	-8.27753003e+01
587849285.714	-1.55650353e-01	-2.16102578e+01	-5.68118764e+01	-4.19931746e+01	-5.62243467e+01	-4.71419731e+01	-3.61832653e-01	-8.29255584e+01
588134857.143	-1.51569484e-01	-2.16319361e+01	-5.67633138e+01	-4.22775430e+01	-5.62252124e+01	-4.72684066e+01	-3.57038596e-01	-8.30603937e+01
588420428.571	-1.50747039e-01	-2.16310914e+01	-5.67436149e+01	-4.30722705e+01	-5.61569186e+01	-4.73596965e+01	-3.52595535e-01	-8.32329393e+01
588706000	-1.49289864e-01	-2.16765567e+01	-5.66529692e+01	-4.31454653e+01	-5.61669074e+01	-4.78743132e+01	-3.47545037e-01	-8.33782951e+01
588991571.429	-1.52059130e-01	-2.16679172e+01	-5.66371427e+01	-4.35540418e+01	-5.61662541e+01	-4.86739421e+01	-3.49129091e-01	-8.35463604e+01
589277142.857	-1.53818510e-01	-2.16641545e+01	-5.66013902e+01	-4.38373561e+01	-5.61539817e+01	-4.91384138e+01	-3.48118547e-01	-8.36882675e+01
589562714.286	-1.51973768e-01	-2.16521186e+01	-5.64779102e+01	-4.46256346e+01	-5.60538498e+01	-4.93929500e+01	-3.49912127e-01	-8.38223334e+01
589848285.714	-1.48719762e-01	-2.16846248e+01	-5.65209718e+01	-4.52114672e+01	-5.60596553e+01	-5.01151885e+01	-3.47308760e-01	-8.39896801e+01
590133857.143	-1.49356678e-01	-2.16752011e+01	-5.63364677e+01	-4.56138403e+01	-5.60696622e+01	-5.05656651e+01	-3.55304285e-01	-8.41338226e+01
590419428.571	-1.47497406e-01	-2.17110874e+01	-5.63157914e+01	-4.60419899e+01	-5.60163833e+01	-5.05466490e+01	-3.52444365e-01	-8.42932476e+01
590705000	-1.56141871e-01	-2.17244848e+01	-5.62593499e+01	-4.69731066e+01	-5.59983098e+01	-5.18511510e+01	-3.57440879e-01	-8.44357274e+01
590990571.429	-1.50519147e-01	-2.17302106e+01	-5.61423328e+01	-4.77815825e+01	-5.59180829e+01	-5.18317407e+01	-3.49799572e-01	-8.45849756e+01
591276142.857	-1.47473826e-01	-2.17661265e+01	-5.62035518e+01	-4.93835500e+01	-5.58917219e+01	-5.27264613e+01	-3.50865055e-01	-8.47198706e+01
591561714.286	-1.51101291e-01	-2.17371194e+01	-5.62240706e+01	-4.97513800e+01	-5.58291677e+01	-5.39607890e+01	-3.53154353e-01	-8.48358457e+01
591847285.714	-1.47561075e-01	-2.17747376e+01	-5.61179125e+01	-5.02888213e+01	-5.58884424e+01	-5.40611720e+01	-3.41901091e-01	-8.49767131e+01
592132857.143	-1.48160397e-01	-2.17719064e+01	-5.60610394e+01	-5.08128342e+01	-5.58206758e+01	-5.55253915e+01	-3.37587692e-01	-8.51297117e+01
592418428.571	-1.49178780e-01	-2.17632592e+01	-5.60207643e+01	-5.23612674e+01	-5.57462328e+01	-5.56083692e+01	-3.37132799e-01	-8.53056077e+01
592704000	-1.52370862e-01	-2.17629008e+01	-5.61620451e+01	-5.32011989e+01	-5.57262871e+01	-5.66598944e+01	-3.34673050e-01	-8.54744838e+01
592989571.429	-1.50460438e-01	-2.17765796e+01	-5.60601733e+01	-5.44320613e+01	-5.58332096e+01	-5.68528616e+01	-3.32770971e-01	-8.56050716e+01
593275142.857	-1.54882663e-01	-2.17984506e+01	-5.60625609e+01	-5.49805409e+01	-5.57002735e+01	-5.80880810e+01	-3.34831806e-01	-8.57223295e+01
593560714.286	-1.56054261e-01	-2.17680527e+01	-5.60844358e+01	-5.52001216e+01	-5.57418980e+01	-5.82924460e+01	-3.35433365e-01	-8.58798807e+01
593846285.714	-1.54083797e-01	-2.18030878e+01	-5.60973657e+01	-5.62583978e+01	-5.58277288e+01	-5.92787853e+01	-3.30690498e-01	-8.60238115e+01
594131857.143	-1.53459041e-01	-2.18142298e+01	-5.60648733e+01	-5.74042677e+01	-5.58107795e+01	-6.00325538e+01	-3.32122121e-01	-8.61672196e+01
594417428.571	-1.48159933e-01	-2.17851576e+01	-5.60660105e+01	-5.78915221e+01	-5.57848621e+01	-6.03737245e+01	-3.33970222e-01	-8.63477538e+01
594703000	-1.49486043e-01	-2.17950116e+01	-5.60673882e+01	-5.87675536e+01	-5.58140510e+01	-6.18524672e+01	-3.36372152e-01	-8.64916755e+01
594988571.429	-1.51641406e-01	-2.18324556e+01	-5.60655521e+01	-5.86872888e+01	-5.57264807e+01	-6.22661629e+01	-3.36371674e-01	-8.66393925e+01
595274142.857	-1.51565493e-01	-2.18797959e+01	-5.61321766e+01	-6.04583043e+01	-5.58107954e+01	-6.29027910e+01	-3.35809638e-01	-8.68074693e+01
595559714.286	-1.50411258e-01	-2.18701496e+01	-5.60645482e+01	-6.12256627e+01	-5.57592355e+01	-6.33350153e+01	-3.37972236e-01	-8.69621180e+01
595845285.714	-1.47971179e-01	-2.18594193e+01	-5.61946667e+01	-6.19314327e+01	-5.57130191e+01	-6.48608908e+01	-3.37379799e-01	-8.70999174e+01
596130857.143	-1.49559496e-01	-2.18699976e+01	-5.62047900e+01	-6.24129922e+01	-5.58548608e+01	-6.50981067e+01	-3.32556257e-01	-8.72555242e+01
596416428.571	-1.47701559e-01	-2.18540412e+01	-5.61335476e+01	-6.31978872e+01	-5.58915884e+01	-6.58451778e+01	-3.35056560e-01	-8.74038023e+01
596702000	-1.53205192e-01	-2.18682462e+01	-5.61640554e+01	-6.43050358e+01	-5.59327190e+01	-6.66605779e+01	-3.33160778e-01	-8.75470484e+01
596987571.429	-1.55556007e-01	-2.18922302e+01	-5.63044864e+01	-6.48912007e+01	-5.59489823e+01	-6.68948447e+01	-3.36109192e-01	-8.77141926e+01
597273142.857	-1.52795692e-01	-2.18812380e+01	-5.62543144e+01	-6.58989696e+01	-5.59332296e+01	-6.79633727e+01	-3.37930928e-01	-8.78624156e+01
597558714.286	-1.49042491e-01	-2.18654022e+01	-5.63439857e+01	-6.70654057e+01	-5.59859233e+01	-6.85315419e+01	-3.35295435e-01	-8.79812098e+01
597844285.714	-1.43369960e-01	-2.19078105e+01	-5.63488044e+01	-6.70550708e+01	-5.60105557e+01	-6.91786020e+01	-3.30613275e-01	-8.81387730e+01
598129857.143	-1.47026185e-01	-2.19293395e+01	-5.64599845e+01	-6.74172505e+01	-5.61229211e+01	-7.02193968e+01	-3.34361383e-01	-8.82999322e+01
598415428.571	-1.47182737e-01	-2.19451643e+01	-5.64850747e+01	-6.76283607e+01	-5.62290755e+01	-7.04804370e+01	-3.36221855e-01	-8.84427836e+01
598701000	-1.51191857e-01	-2.19559115e+01	-5.65607812e+01	-6.86137701e+01	-5.61996600e+01	-7.10687515e+01	-3.39376601e-01	-8.85623948e+01
598986571.429	-1.52318071e-01	-2.19459072e+01	-5.66557182e+01	-7.01152510e+01	-5.63110447e+01	-7.11010254e+01	-3.39686584e-01	-8.86948029e+01
599272142.857	-1.44728116e-01	-2.19387431e+01	-5.66879598e+01	-7.00969556e+01	-5.63691378e+01	-7.24281267e+01	-3.41500737e-01	-8.88548923e+01
599557714.286	-1.47575751e-01	-2.19164474e+01	-5.67110237e+01	-6.97590570e+01	-5.65013699e+01	-7.25100739e+01	-3.50912403e-01	-8.90398397e+01
599843285.714	-1.45691933e-01	-2.19550087e+01	-5.67480809e+01	-7.04154046e+01	-5.65300810e+01	-7.29980147e+01	-3.55815018e-01	-8.91835344e+01
600128857.143	-1.51011291e-01	-2.19574360e+01	-5.68637213e+01	-7.10849462e+01	-5.65799483e+01	-7.29132301e+01	-3.52264897e-01	-8.92862243e+01
600414428.571	-1.49461088e-01	-2.19627347e+01	-5.69259797e+01	-7.04867285e+01	-5.66766489e+01	-7.37535320e+01	-3.50379901e-01	-8.93910648e+01
600700000	-1.48273734e-01	-2.19547277e+01	-5.69410060e+01	-7.08940237e+01	-5.67537821e+01	-7.36814367e+01	-3.49045987e-01	-8.95142006e+01
600985571.429	-1.46375121e-01	-2.20029164e+01	-5.69596326e+01	-7.05936957e+01	-5.67572541e+01	-7.36606009e+01	-3.50019068e-01	-8.96192486e+01
601271142.857	-1.40529604e-01	-2.19638063e+01	-5.72310280e+01	-7.12846850e+01	-5.66784072e+01	-7.36457703e+01	-3.47883822e-01	-8.97782816e+01
601556714.286	-1.40699522e-01	-2.19667487e+01	-5.70280443e+01	-7.08233754e+01	-5.67259948e+01	-7.42258825e+01	-3.52510808e-01	-8.99126979e+01
601842285.714	-1.36784510e-01	-2.20122728e+01	-5.71788164e+01	-7.22608748e+01	-5.67273579e+01	-7.39276894e+01	-3.51233127e-01	-9.00904130e+01
602127857.143	-1.40086976e-01	-2.19898325e+01	-5.71738659e+01	-7.07544538e+01	-5.67001446e+01	-7.43299755e+01	-3.56125761e-01	-9.02441033e+01
602413428.571	-1.38766546e-01	-2.19543418e+01	-5.70450091e+01	-7.16300926e+01	-5.67129050e+01	-7.38953610e+01	-3.56836146e-01	-9.04110983e+01
602699000	-1.40280427e-01	-2.19888104e+01	-5.68931118e+01	-7.15946421e+01	-5.67119847e+01	-7.43646738e+01	-3.52660698e-01	-9.05739447e+01
602984571.429	-1.46220260e-01	-2.20379955e+01	-5.70347532e+01	-7.23292831e+01	-5.67473149e+01	-7.46890084e+01	-3.47349202e-01	-9.07720672e+01
603270142.857	-1.48192673e-01	-2.20313158e+01	-5.68396636e+01	-7.18886889e+01	-5.66805333e+01	-7.52355944e+01	-3.47881613e-01	-9.08737726e+01
603555714.286	-1.53815366e-01	-2.20426818e+01	-5.69200622e+01	-7.23605506e+01	-5.66592928e+01	-7.53393989e+01	-3.41570254e-01	-9.10008263e+01
603841285.714	-1.55913956e-01	-2.19909979e+01	-5.67408346e+01	-7.25133638e+01	-5.65598406e+01	-7.63129342e+01	-3.46892853e-01	-9.11274561e+01
604126857.143	-1.57647303e-01	-2.20156709e+01	-5.66674679e+01	-7.37162260e+01	-5.65194863e+01	-7.63143464e+01	-3.52012133e-01	-9.12891109e+01
604412428.571	-1.52143101e-01	-2.20132766e+01	-5.66956520e+01	-7.35441958e+01	-5.64488162e+01	-7.68725593e+01	-3.54317371e-01	-9.14495310e+01
604698000	-1.50032569e-01	-2.19783739e+01	-5.65715625e+01	-7.51805539e+01	-5.64855829e+01	-7.72034948e+01	-3.46528762e-01	-9.16140024e+01
604983571.429	-1.50832865e-01	-2.20240108e+01	-5.66256258e+01	-7.57119519e+01	-5.63660228e+01	-7.84497672e+01	-3.46726452e-01	-9.18021806e+01
605269142.857	-1.48060078e-01	-2.19954843e+01	-5.65902136e+01	-7.61307014e+01	-5.64157998e+01	-7.90301731e+01	-3.44323922e-01	-9.19507731e+01
605554714.286	-1.48702709e-01	-2.19960327e+01	-5.64614966e+01	-7.67259249e+01	-5.63370120e+01	-7.99171147e+01	-3.45437786e-01	-9.21342335e+01
605840285.714	-1.46109419e-01	-2.20138256e+01	-5.65325018e+01	-7.82648305e+01	-5.63630801e+01	-8.05001922e+01	-3.49859287e-01	-9.22476148e+01
606125857.143	-1.45861815e-01	-2.20477206e+01	-5.64898245e+01	-7.85682965e+01	-5.63560017e+01	-8.13064388e+01	-3.49286793e-01	-9.24341410e+01
606411428.571	-1.47105492e-01	-2.20632402e+01	-5.63339776e+01	-7.96794757e+01	-5.62446717e+01	-8.61344458e+01	-3.47567516e-01	-9.25703948e+01
606697000	-1.49758506e-01	-2.20667842e+01	-5.64125472e+01	-8.07205273e+01	-5.62481856e+01	-8.19380066e+01	-3.50687281e-01	-9.27230793e+01
606982571.429	-1.47441586e-01	-2.20364078e+01	-5.63219864e+01	-8.15099493e+01	-5.62961214e+01	-8.37898400e+01	-3.56612850e-01	-9.28598421e+01
607268142.857	-1.44640369e-01	-2.20006977e+01	-5.63820884e+01	-8.21515040e+01	-5.62667700e+01	-8.44516001e+01	-3.55852274e-01	-9.30145559e+01
607553714.286	-1.46248737e-01	-2.20554929e+01	-5.63309741e+01	-8.33554038e+01	-5.63363750e+01	-8.54867093e+01	-3.57239914e-01	-9.31690092e+01
607839285.714	-1.49887899e-01	-2.20440175e+01	-5.63249925e+01	-8.55424175e+01	-5.63661133e+01	-8.69514006e+01	-3.63780729e-01	-9.33581291e+01
608124857.143	-1.52508726e-01	-2.20372047e+01	-5.63498243e+01	-8.57605876e+01	-5.63269100e+01	-8.80530169e+01	-3.67514384e-01	-9.35346814e+01
608410428.571	-1.46700895e-01	-2.20565127e+01	-5.63375235e+01	-8.74294676e+01	-5.64105913e+01	-8.88535186e+01	-3.66803119e-01	-9.36816689e+01
608696000	-1.45934607e-01	-2.20813627e+01	-5.64015382e+01	-8.83985375e+01	-5.63651974e+01	-8.93237349e+01	-3.66579931e-01	-9.38121666e+01
608981571.429	-1.46180197e-01	-2.20530317e+01	-5.63975620e+01	-8.91091235e+01	-5.65158617e+01	-9.10500111e+01	-3.69298225e-01	-9.39659030e+01
609267142.857	-1.47137267e-01	-2.20792518e+01	-5.63196557e+01	-9.09464037e+01	-5.64569645e+01	-9.17106297e+01	-3.64177534e-01	-9.41232920e+01
609552714.286	-1.46770164e-01	-2.20720281e+01	-5.64441013e+01	-9.17903898e+01	-5.65293084e+01	-9.29922497e+01	-3.72038493e-01	-9.42992812e+01
609838285.714	-1.47669946e-01	-2.20180904e+01	-5.65793399e+01	-9.29576941e+01	-5.66735322e+01	-9.37606421e+01	-3.69143632e-01	-9.44033900e+01
610123857.143	-1.42034071e-01	-2.20113887e+01	-5.67064611e+01	-9.51603572e+01	-5.67584681e+01	-9.47832473e+01	-3.73842180e-01	-9.45738945e+01
610409428.571	-1.51488060e-01	-2.20504779e+01	-5.67130769e+01	-9.60517131e+01	-5.68194377e+01	-9.62285777e+01	-3.74025695e-01	-9.47352937e+01
610695000	-1.43491648e-01	-2.20244296e+01	-5.69218149e+01	-9.75232780e+01	-5.69342237e+01	-9.73199016e+01	-3.73958088e-01	-9.49425594e+01
610980571.429	-1.51117119e-01	-2.20532301e+01	-5.69575096e+01	-9.89482055e+01	-5.70210049e+01	-9.80635179e+01	-3.76168648e-01	-9.50973164e+01
611266142.857	-1.45600330e-01	-2.20665517e+01	-5.71445903e+01	-1.00000559e+02	-5.71441046e+01	-9.95243728e+01	-3.73371832e-01	-9.52887940e+01
611551714.286	-1.42785926e-01	-2.20564697e+01	-5.73135480e+01	-1.01316272e+02	-5.73732342e+01	-1.00869397e+02	-3.77125267e-01	-9.53783590e+01
611837285.714	-1.39154173e-01	-2.20743693e+01	-5.74855845e+01	-1.02371457e+02	-5.74888364e+01	-1.01326002e+02	-3.81313411e-01	-9.54763408e+01
612122857.143	-1.37918462e-01	-2.20814616e+01	-5.76283433e+01	-1.03669257e+02	-5.77011214e+01	-1.02558152e+02	-3.84052658e-01	-9.56324443e+01
612408428.571	-1.43930700e-01	-2.20900832e+01	-5.77998134e+01	-1.04678526e+02	-5.77391881e+01	-1.03046035e+02	-3.83721998e-01	-9.57819127e+01
612694000	-1.43931801e-01	-2.20614705e+01	-5.82359571e+01	-1.06173424e+02	-5.79869174e+01	-1.03321015e+02	-3.79770285e-01	-9.58884630e+01
612979571.429	-1.41759196e-01	-2.20831649e+01	-5.83587477e+01	-1.06153567e+02	-5.83499000e+01	-1.04934784e+02	-3.87476070e-01	-9.60076402e+01
613265142.857	-1.43308464e-01	-2.20624830e+01	-5.84541632e+01	-1.07863478e+02	-5.83639254e+01	-1.05560813e+02	-3.83409687e-01	-9.61228162e+01
613550714.286	-1.45206731e-01	-2.20479345e+01	-5.87523667e+01	-1.08370633e+02	-5.86560327e+01	-1.06465735e+02	-3.90546149e-01	-9.62562126e+01
613836285.714	-1.46164203e-01	-2.20530469e+01	-5.89793859e+01	-1.07435703e+02	-5.88156273e+01	-1.05420775e+02	-3.90126214e-01	-9.63702622e+01
614121857.143	-1.42396550e-01	-2.20676696e+01	-5.93152394e+01	-1.09390509e+02	-5.89945214e+01	-1.07022632e+02	-3.91604394e-01	-9.65523996e+01
614407428.571	-1.41220239e-01	-2.20614847e+01	-5.93670421e+01	-1.10082757e+02	-5.91448440e+01	-1.06135120e+02	-4.03936235e-01	-9.67251592e+01
614693000	-1.44510404e-01	-2.20709548e+01	-5.98469908e+01	-1.09743954e+02	-5.94364826e+01	-1.06796642e+02	-4.02724727e-01	-9.68744138e+01
614978571.429	-1.43154817e-01	-2.21001924e+01	-6.00461826e+01	-1.11070847e+02	-5.98151220e+01	-1.07650749e+02	-4.07925334e-01	-9.70544392e+01
615264142.857	-1.44100654e-01	-2.20767114e+01	-6.02361303e+01	-1.10695488e+02	-6.00157924e+01	-1.06438282e+02	-4.09044040e-01	-9.72047115e+01
615549714.286	-1.47522286e-01	-2.20517130e+01	-6.05570408e+01	-1.09902907e+02	-6.02150413e+01	-1.06843296e+02	-4.09857305e-01	-9.73529321e+01
615835285.714	-1.43391236e-01	-2.20364359e+01	-6.07641939e+01	-1.09568305e+02	-6.03960260e+01	-1.06938514e+02	-4.17415792e-01	-9.75263548e+01
616120857.143	-1.46191384e-01	-2.20613314e+01	-6.07950957e+01	-1.10798467e+02	-6.04275032e+01	-1.06117789e+02	-4.17053444e-01	-9.76528387e+01
616406428.571	-1.43344002e-01	-2.20488158e+01	-6.13021039e+01	-1.09425569e+02	-6.07643758e+01	-1.05495983e+02	-4.17198878e-01	-9.77869427e+01
616692000	-1.42332606e-01	-2.20594844e+01	-6.12610317e+01	-1.08356672e+02	-6.10081901e+01	-1.05846274e+02	-4.17065881e-01	-9.79024831e+01
616977571.429	-1.46605063e-01	-2.20892719e+01	-6.15374907e+01	-1.11539185e+02	-6.11063754e+01	-1.04937451e+02	-4.18181801e-01	-9.80260906e+01
617263142.857	-1.46797602e-01	-2.20677255e+01	-6.19587883e+01	-1.09939040e+02	-6.12418839e+01	-1.03954483e+02	-4.17521073e-01	-9.81375106e+01
617548714.286	-1.43497568e-01	-2.20446379e+01	-6.20409673e+01	-1.08376087e+02	-6.14312812e+01	-1.04994027e+02	-4.19509994e-01	-9.83075436e+01
617834285.714	-1.44059647e-01	-2.20633561e+01	-6.24607140e+01	-1.09739005e+02	-6.15066134e+01	-1.02410888e+02	-4.25211691e-01	-9.84886127e+01
618119857.143	-1.43990299e-01	-2.20715200e+01	-6.24893684e+01	-1.08256169e+02	-6.18073893e+01	-1.02828876e+02	-4.32312376e-01	-9.86302441e+01
618405428.571	-1.40510040e-01	-2.20918158e+01	-6.27909922e+01	-1.06698024e+02	-6.18647431e+01	-1.01793767e+02	-4.27282426e-01	-9.88418102e+01
618691000	-1.44884311e-01	-2.21182161e+01	-6.28988635e+01	-1.07066762e+02	-6.19517388e+01	-1.02512121e+02	-4.27779870e-01	-9.89382374e+01
618976571.429	-1.42466915e-01	-2.21058201e+01	-6.31883168e+01	-1.06090155e+02	-6.21731251e+01	-1.01614067e+02	-4.35025219e-01	-9.90690741e+01
619262142.857	-1.45693928e-01	-2.20816105e+01	-6.32638225e+01	-1.06440037e+02	-6.23742560e+01	-1.00609629e+02	-4.27421996e-01	-9.92362736e+01
619547714.286	-1.41620792e-01	-2.20791920e+01	-6.36871802e+01	-1.04648650e+02	-6.25457388e+01	-9.88871340e+01	-4.33242737e-01	-9.94187633e+01
619833285.714	-1.43620651e-01	-2.20725313e+01	-6.36314786e+01	-1.04428054e+02	-6.27978358e+01	-9.95538692e+01	-4.35356959e-01	-9.95866062e+01
620118857.143	-1.48382448e-01	-2.20876757e+01	-6.41777544e+01	-1.02248482e+02	-6.29670805e+01	-9.90747939e+01	-4.40869446e-01	-9.96937863e+01
620404428.571	-1.50265614e-01	-2.21202426e+01	-6.46167782e+01	-1.02274681e+02	-6.29413103e+01	-9.78433768e+01	-4.39441884e-01	-9.98618843e+01
620690000	-1.51527105e-01	-2.21260980e+01	-6.46551696e+01	-9.96524474e+01	-6.30108345e+01	-9.60573085e+01	-4.42124732e-01	-9.99503082e+01
620975571.429	-1.50033587e-01	-2.21015042e+01	-6.45900487e+01	-9.74001698e+01	-6.32009396e+01	-9.48274109e+01	-4.39023494e-01	-1.00158349e+02
621261142.857	-1.49475100e-01	-2.20965014e+01	-6.52805488e+01	-9.62446823e+01	-6.32553196e+01	-9.50681423e+01	-4.41185643e-01	-1.00280894e+02
621546714.286	-1.47319234e-01	-2.20945801e+01	-6.51518613e+01	-9.58397070e+01	-6.36695881e+01	-9.32453641e+01	-4.53097425e-01	-1.00400270e+02
621832285.714	-1.48579069e-01	-2.21055153e+01	-6.53531570e+01	-9.36110901e+01	-6.36253563e+01	-9.11567184e+01	-4.59353941e-01	-1.00571420e+02
622117857.143	-1.48069383e-01	-2.21121948e+01	-6.56086958e+01	-9.31430669e+01	-6.36139796e+01	-9.01019370e+01	-4.63446960e-01	-1.00748423e+02
622403428.571	-1.47622211e-01	-2.21165841e+01	-6.58947963e+01	-8.67650724e+01	-6.38222983e+01	-8.92525608e+01	-4.71245763e-01	-1.00885446e+02
622689000	-1.46313810e-01	-2.21183262e+01	-6.56860360e+01	-8.68034874e+01	-6.39430535e+01	-8.75247604e+01	-4.82837765e-01	-1.01019092e+02
622974571.429	-1.44717481e-01	-2.21249844e+01	-6.59457570e+01	-8.69799114e+01	-6.38561953e+01	-8.70469651e+01	-4.82258655e-01	-1.01111659e+02
623260142.857	-1.47698359e-01	-2.21242714e+01	-6.59353588e+01	-8.20011798e+01	-6.39309081e+01	-8.56474579e+01	-4.83734950e-01	-1.01282636e+02
623545714.286	-1.46397918e-01	-2.21425479e+01	-6.65526223e+01	-8.09311245e+01	-6.39964570e+01	-8.44856818e+01	-5.01234759e-01	-1.01378876e+02
623831285.714	-1.44640477e-01	-2.21196890e+01	-6.60147660e+01	-7.49049394e+01	-6.40552645e+01	-8.33312731e+01	-4.95083197e-01	-1.01525152e+02
624116857.143	-1.43316654e-01	-2.21164675e+01	-6.62750661e+01	-7.32712201e+01	-6.41258895e+01	-8.20799083e+01	-4.93381034e-01	-1.01692605e+02
624402428.571	-1.44276345e-01	-2.21286655e+01	-6.59418548e+01	-7.17956550e+01	-6.41737913e+01	-7.98104238e+01	-4.99832737e-01	-1.01843672e+02
624688000	-1.43471016e-01	-2.21476599e+01	-6.56255320e+01	-6.99388364e+01	-6.42509546e+01	-7.84164026e+01	-4.99652355e-01	-1.01984774e+02
624973571.429	-1.45215122e-01	-2.21684342e+01	-6.57301972e+01	-6.49552664e+01	-6.40372705e+01	-7.63631199e+01	-4.94457215e-01	-1.02144460e+02
625259142.857	-1.45418366e-01	-2.21503511e+01	-6.54779821e+01	-6.64125067e+01	-6.40084378e+01	-7.45331552e+01	-5.00707016e-01	-1.02249292e+02
625544714.286	-1.48917008e-01	-2.21629312e+01	-6.52639300e+01	-6.35303698e+01	-6.39600310e+01	-7.41353111e+01	-5.16836431e-01	-1.02382451e+02
625830285.714	-1.47112600e-01	-2.21783678e+01	-6.54547076e+01	-6.01149674e+01	-6.39084922e+01	-7.22804502e+01	-5.10758729e-01	-1.02549791e+02
626115857.143	-1.49883587e-01	-2.21886214e+01	-6.54268534e+01	-5.90968451e+01	-6.38524608e+01	-7.02081281e+01	-5.15122589e-01	-1.02710515e+02
626401428.571	-1.50628363e-01	-2.21972985e+01	-6.48671748e+01	-5.63511939e+01	-6.39324108e+01	-6.69831080e+01	-5.12946557e-01	-1.02881150e+02
626687000	-1.48642119e-01	-2.21965760e+01	-6.47850974e+01	-5.44568891e+01	-6.37293748e+01	-6.75338873e+01	-5.09194946e-01	-1.03032018e+02
626972571.429	-1.50861357e-01	-2.21999161e+01	-6.44325589e+01	-5.18926148e+01	-6.37097901e+01	-6.60997027e+01	-5.22641850e-01	-1.03157812e+02
627258142.857	-1.53753989e-01	-2.22002027e+01	-6.43159411e+01	-5.04073636e+01	-6.33808423e+01	-6.57238748e+01	-5.24949803e-01	-1.03388923e+02
627543714.286	-1.53283854e-01	-2.22119239e+01	-6.37625940e+01	-5.06824452e+01	-6.34117848e+01	-6.27088029e+01	-5.30615860e-01	-1.03497572e+02
627829285.714	-1.53463499e-01	-2.22211349e+01	-6.34806371e+01	-5.11394333e+01	-6.31382387e+01	-6.13806924e+01	-5.37570778e-01	-1.03635967e+02
628114857.143	-1.54683476e-01	-2.22397042e+01	-6.32207553e+01	-4.65295827e+01	-6.30093465e+01	-5.98702328e+01	-5.36435118e-01	-1.03841371e+02
628400428.571	-1.56804084e-01	-2.22481692e+01	-6.33714923e+01	-4.49921264e+01	-6.28023542e+01	-5.78077363e+01	-5.30902026e-01	-1.03978115e+02
628686000	-1.55441835e-01	-2.22429377e+01	-6.27085171e+01	-4.62933086e+01	-6.24891256e+01	-5.59296192e+01	-5.21076547e-01	-1.04062206e+02
628971571.429	-1.55947635e-01	-2.22557909e+01	-6.24801769e+01	-4.47392290e+01	-6.24338949e+01	-5.51721672e+01	-5.30829506e-01	-1.04204865e+02
629257142.857	-1.57013165e-01	-2.22885381e+01	-6.22567607e+01	-4.36648228e+01	-6.21324732e+01	-5.37092635e+01	-5.34107878e-01	-1.04387726e+02
629542714.286	-1.56354832e-01	-2.23009168e+01	-6.20069921e+01	-4.37609445e+01	-6.16798218e+01	-5.42173588e+01	-5.40070894e-01	-1.04522168e+02
629828285.714	-1.56539533e-01	-2.23124845e+01	-6.16199899e+01	-4.25389552e+01	-6.16111615e+01	-5.24058308e+01	-5.43291980e-01	-1.04686254e+02
630113857.143	-1.59078049e-01	-2.23154906e+01	-6.13978883e+01	-4.19310712e+01	-6.15139986e+01	-5.14431700e+01	-5.42471763e-01	-1.04852799e+02
630399428.571	-1.57646646e-01	-2.23160509e+01	-6.10653232e+01	-4.26568198e+01	-6.10284686e+01	-5.13747151e+01	-5.44145130e-01	-1.05017360e+02
630685000	-1.57328533e-01	-2.23102486e+01	-6.07349981e+01	-4.20058531e+01	-6.09200460e+01	-5.07218673e+01	-5.36314753e-01	-1.05162641e+02
630970571.429	-1.53938359e-01	-2.23298586e+01	-6.07088166e+01	-4.13541822e+01	-6.06100573e+01	-5.09161568e+01	-5.44230267e-01	-1.05357673e+02
631256142.857	-1.54022754e-01	-2.23421539e+01	-6.03460622e+01	-4.17479754e+01	-6.03754264e+01	-5.04450009e+01	-5.41813461e-01	-1.05538826e+02
631541714.286	-1.53137529e-01	-2.23626080e+01	-6.01982147e+01	-4.19565352e+01	-6.01763363e+01	-5.00593179e+01	-5.45453797e-01	-1.05704802e+02
631827285.714	-1.53727474e-01	-2.23635295e+01	-5.98533928e+01	-4.22372305e+01	-5.99922706e+01	-5.03077667e+01	-5.49809423e-01	-1.05881971e+02
632112857.143	-1.54997490e-01	-2.23788055e+01	-5.97029541e+01	-4.22208917e+01	-5.96933549e+01	-5.08617038e+01	-5.50538613e-01	-1.06021234e+02
632398428.571	-1.54953881e-01	-2.23885866e+01	-5.94141963e+01	-4.24880538e+01	-5.95161792e+01	-4.94607993e+01	-5.53459486e-01	-1.06217257e+02
632684000	-1.53799182e-01	-2.23924909e+01	-5.91071068e+01	-4.21688747e+01	-5.92452188e+01	-5.11137051e+01	-5.59092830e-01	-1.06347085e+02
632969571.429	-1.54873122e-01	-2.23905046e+01	-5.90515256e+01	-4.32882712e+01	-5.89398632e+01	-5.09596036e+01	-5.58254769e-01	-1.06510067e+02
633255142.857	-1.56774507e-01	-2.24113594e+01	-5.87471170e+01	-4.28832665e+01	-5.88891455e+01	-4.99645681e+01	-5.55596624e-01	-1.06699566e+02
633540714.286	-1.55592422e-01	-2.24040991e+01	-5.85929013e+01	-4.32470622e+01	-5.86655205e+01	-5.03321379e+01	-5.65306291e-01	-1.06820686e+02
633826285.714	-1.55595024e-01	-2.24172687e+01	-5.83252615e+01	-4.30221521e+01	-5.84345721e+01	-5.03114109e+01	-5.63631921e-01	-1.06922351e+02
634111857.143	-1.54861076e-01	-2.24381941e+01	-5.81340667e+01	-4.31261297e+01	-5.82536131e+01	-5.00308964e+01	-5.74461538e-01	-1.07106090e+02
634397428.571	-1.54045656e-01	-2.24545725e+01	-5.78531233e+01	-4.32778720e+01	-5.79666039e+01	-5.11045978e+01	-5.68229201e-01	-1.07347781e+02
634683000	-1.54017109e-01	-2.24683913e+01	-5.77464521e+01	-4.31995179e+01	-5.78328234e+01	-5.10883507e+01	-5.65491578e-01	-1.07490443e+02
634968571.429	-1.57446073e-01	-2.24846536e+01	-5.74747201e+01	-4.34712500e+01	-5.75938954e+01	-5.10824132e+01	-5.76490796e-01	-1.07618794e+02
635254142.857	-1.57246302e-01	-2.24909669e+01	-5.72095056e+01	-4.42081840e+01	-5.72702777e+01	-5.17420670e+01	-5.76961386e-01	-1.07754132e+02
635539714.286	-1.54191649e-01	-2.24911318e+01	-5.70553034e+01	-4.46480710e+01	-5.72335434e+01	-5.14701151e+01	-5.76614106e-01	-1.07899934e+02
635825285.714	-1.54857008e-01	-2.25085377e+01	-5.67775361e+01	-4.54212239e+01	-5.70374309e+01	-5.21188875e+01	-5.86586564e-01	-1.08116166e+02
636110857.143	-1.56465539e-01	-2.25327298e+01	-5.66118315e+01	-4.60812388e+01	-5.68195705e+01	-5.29799742e+01	-5.82143336e-01	-1.08209081e+02
636396428.571	-1.55217078e-01	-2.25565898e+01	-5.64141300e+01	-4.65591463e+01	-5.66909934e+01	-5.30169359e+01	-5.79568069e-01	-1.08308840e+02
636682000	-1.56311045e-01	-2.25701231e+01	-5.62019650e+01	-4.71932648e+01	-5.64599359e+01	-5.38790040e+01	-5.76820124e-01	-1.08494785e+02
636967571.429	-1.58501231e-01	-2.25795773e+01	-5.60833144e+01	-4.74806896e+01	-5.63571532e+01	-5.40819677e+01	-5.79452880e-01	-1.08705135e+02
637253142.857	-1.56550868e-01	-2.25926356e+01	-5.58148337e+01	-4.83105045e+01	-5.61103005e+01	-5.52882183e+01	-5.77938652e-01	-1.08864574e+02
637538714.286	-1.58082518e-01	-2.26204132e+01	-5.57008668e+01	-4.93697192e+01	-5.60328221e+01	-5.55993455e+01	-5.84561575e-01	-1.09061356e+02
637824285.714	-1.57675602e-01	-2.26365657e+01	-5.54659344e+01	-4.96076569e+01	-5.57864266e+01	-5.56529023e+01	-5.81169410e-01	-1.09223657e+02
638109857.143	-1.57728636e-01	-2.26585423e+01	-5.53475560e+01	-5.02469334e+01	-5.56253598e+01	-5.62959698e+01	-5.83484501e-01	-1.09322479e+02
638395428.571	-1.56433349e-01	-2.26853625e+01	-5.51526092e+01	-5.07195112e+01	-5.54680416e+01	-5.68406596e+01	-5.77612755e-01	-1.09460270e+02
638681000	-1.56589242e-01	-2.27233174e+01	-5.50086583e+01	-5.18503162e+01	-5.54007830e+01	-5.77629437e+01	-5.82613284e-01	-1.09661185e+02
638966571.429	-1.54618090e-01	-2.27460569e+01	-5.48284053e+01	-5.28536767e+01	-5.51968886e+01	-5.76832404e+01	-5.84208535e-01	-1.09811842e+02
639252142.857	-1.54875553e-01	-2.27421358e+01	-5.47325719e+01	-5.34385158e+01	-5.50787521e+01	-5.87029294e+01	-5.86338567e-01	-1.09954093e+02
639537714.286	-1.57524017e-01	-2.27241463e+01	-5.46717911e+01	-5.44869062e+01	-5.49442793e+01	-5.94233955e+01	-5.85643098e-01	-1.10095141e+02
639823285.714	-1.57393614e-01	-2.27343902e+01	-5.43917517e+01	-5.51067717e+01	-5.47740340e+01	-5.98673311e+01	-5.86895403e-01	-1.10221690e+02
640108857.143	-1.56360975e-01	-2.27845927e+01	-5.42073152e+01	-5.59476463e+01	-5.46913540e+01	-6.12457904e+01	-5.84824693e-01	-1.10355998e+02
640394428.571	-1.53251768e-01	-2.28220505e+01	-5.42360190e+01	-5.62875853e+01	-5.45167543e+01	-6.11943640e+01	-5.92364330e-01	-1.10506290e+02
640680000	-1.53519039e-01	-2.28254605e+01	-5.40055636e+01	-5.70870457e+01	-5.44811809e+01	-6.18402353e+01	-5.92227919e-01	-1.10649894e+02
640965571.429	-1.50986860e-01	-2.28129453e+01	-5.38893643e+01	-5.76389037e+01	-5.42587091e+01	-6.23089360e+01	-5.95011004e-01	-1.10806498e+02
641251142.857	-1.49433319e-01	-2.28500109e+01	-5.37804736e+01	-5.92475436e+01	-5.41616837e+01	-6.32974570e+01	-5.94522614e-01	-1.11023481e+02
641536714.286	-1.48744799e-01	-2.28339037e+01	-5.36522305e+01	-5.98247108e+01	-5.39723296e+01	-6.41749546e+01	-5.95550193e-01	-1.11209771e+02
641822285.714	-1.51826154e-01	-2.28575182e+01	-5.35483120e+01	-6.06985716e+01	-5.38656317e+01	-6.45085244e+01	-5.97055850e-01	-1.11337188e+02
642107857.143	-1.52500817e-01	-2.28858691e+01	-5.34513127e+01	-6.12308923e+01	-5.37781994e+01	-6.53560794e+01	-6.01787914e-01	-1.11435168e+02
642393428.571	-1.52163528e-01	-2.29233372e+01	-5.33705190e+01	-6.21542618e+01	-5.36808637e+01	-6.61709088e+01	-6.05181086e-01	-1.11578882e+02
642679000	-1.49456998e-01	-2.29446730e+01	-5.33235555e+01	-6.34362983e+01	-5.36355518e+01	-6.67096671e+01	-6.06275530e-01	-1.11733669e+02
642964571.429	-1.50989374e-01	-2.29596254e+01	-5.32000649e+01	-6.38220278e+01	-5.35008164e+01	-6.77912859e+01	-6.06648210e-01	-1.11861756e+02
643250142.857	-1.49909361e-01	-2.29614611e+01	-5.31331228e+01	-6.44501143e+01	-5.33679435e+01	-6.87122245e+01	-6.10408437e-01	-1.12017939e+02
643535714.286	-1.48939721e-01	-2.29958753e+01	-5.30071285e+01	-6.56757946e+01	-5.32554031e+01	-6.92770147e+01	-6.10477475e-01	-1.12154888e+02
643821285.714	-1.45905117e-01	-2.29922350e+01	-5.28684114e+01	-6.60863611e+01	-5.32443708e+01	-6.98330489e+01	-6.12091089e-01	-1.12367283e+02
644106857.143	-1.43370308e-01	-2.29978224e+01	-5.28126357e+01	-6.68380231e+01	-5.30699667e+01	-7.03972161e+01	-6.14992022e-01	-1.12555568e+02
644392428.571	-1.48902183e-01	-2.30263325e+01	-5.27756475e+01	-6.70846140e+01	-5.29928623e+01	-7.11703984e+01	-6.14604944e-01	-1.12690774e+02
644678000	-1.49799204e-01	-2.30617348e+01	-5.26556058e+01	-6.78886117e+01	-5.28682859e+01	-7.17845558e+01	-6.12152260e-01	-1.12843118e+02
644963571.429	-1.48403850e-01	-2.30950329e+01	-5.25678014e+01	-6.88014101e+01	-5.28625479e+01	-7.23796932e+01	-6.12337286e-01	-1.12943068e+02
645249142.857	-1.46349343e-01	-2.31170072e+01	-5.24821389e+01	-6.91781987e+01	-5.27084804e+01	-7.30971277e+01	-6.03440841e-01	-1.13066102e+02
645534714.286	-1.47004148e-01	-2.31018437e+01	-5.23308993e+01	-6.95700115e+01	-5.26761749e+01	-7.38216432e+01	-6.07751163e-01	-1.13188381e+02
645820285.714	-1.47154004e-01	-2.31152586e+01	-5.23486699e+01	-7.07955120e+01	-5.25756302e+01	-7.44473985e+01	-6.07228629e-01	-1.13309458e+02
646105857.143	-1.45282729e-01	-2.31222668e+01	-5.22267548e+01	-7.11431675e+01	-5.24833347e+01	-7.50711345e+01	-6.08165778e-01	-1.13430501e+02
646391428.571	-1.47650686e-01	-2.31337480e+01	-5.21055192e+01	-7.20705247e+01	-5.23997397e+01	-7.53241074e+01	-6.05530840e-01	-1.13603026e+02
646677000	-1.47879439e-01	-2.31578654e+01	-5.20109221e+01	-7.26716326e+01	-5.23485264e+01	-7.61079113e+01	-5.98005833e-01	-1.13777880e+02
646962571.429	-1.46033999e-01	-2.31801413e+01	-5.18452472e+01	-7.34405477e+01	-5.22468449e+01	-7.68030678e+01	-5.99558960e-01	-1.13902706e+02
647248142.857	-1.41052498e-01	-2.32099917e+01	-5.18009607e+01	-7.41230215e+01	-5.21341841e+01	-7.73355708e+01	-5.99812869e-01	-1.14033329e+02
647533714.286	-1.36145968e-01	-2.32213776e+01	-5.17798595e+01	-7.46403437e+01	-5.20002020e+01	-7.81808439e+01	-5.99726349e-01	-1.14162526e+02
647819285.714	-1.36923947e-01	-2.32671000e+01	-5.16825431e+01	-7.54644972e+01	-5.19441402e+01	-7.86346025e+01	-5.97220765e-01	-1.14276899e+02
648104857.143	-1.38156612e-01	-2.32662972e+01	-5.15378237e+01	-7.62230454e+01	-5.17786836e+01	-7.98539239e+01	-6.00595529e-01	-1.14436753e+02
648390428.571	-1.38520170e-01	-2.32742792e+01	-5.14857594e+01	-7.67483395e+01	-5.17390307e+01	-8.03175391e+01	-6.06648086e-01	-1.14619660e+02
648676000	-1.37086037e-01	-2.32871601e+01	-5.13592654e+01	-7.73416927e+01	-5.16537389e+01	-8.10140612e+01	-6.07771530e-01	-1.14778319e+02
648961571.429	-1.34487277e-01	-2.33011018e+01	-5.12666417e+01	-7.84529002e+01	-5.15221782e+01	-8.17712779e+01	-6.16296231e-01	-1.14879374e+02
649247142.857	-1.35382982e-01	-2.33261461e+01	-5.12536942e+01	-7.90979773e+01	-5.14562217e+01	-8.25112319e+01	-6.19660266e-01	-1.14974605e+02
649532714.286	-1.32071859e-01	-2.33372591e+01	-5.10552144e+01	-8.00394229e+01	-5.13590207e+01	-8.35529520e+01	-6.20633196e-01	-1.15112043e+02
649818285.714	-1.30136172e-01	-2.33695682e+01	-5.10706446e+01	-8.07318832e+01	-5.13510510e+01	-8.44364498e+01	-6.22046517e-01	-1.15242291e+02
650103857.143	-1.29162422e-01	-2.33740017e+01	-5.09304223e+01	-8.14403338e+01	-5.12158831e+01	-8.49146434e+01	-6.23308620e-01	-1.15403522e+02
650389428.571	-1.29577646e-01	-2.33822239e+01	-5.08384736e+01	-8.21818488e+01	-5.11895908e+01	-8.56142802e+01	-6.19098470e-01	-1.15565198e+02
650675000	-1.31035685e-01	-2.33761014e+01	-5.07431681e+01	-8.35735398e+01	-5.10716496e+01	-8.64021608e+01	-6.21924570e-01	-1.15734535e+02
650960571.429	-1.31797827e-01	-2.33575797e+01	-5.06650263e+01	-8.43082152e+01	-5.10425655e+01	-8.76146973e+01	-6.19560633e-01	-1.15870740e+02
651246142.857	-1.31210309e-01	-2.33802655e+01	-5.06033897e+01	-8.50048890e+01	-5.08947680e+01	-8.82507106e+01	-6.18307306e-01	-1.16045381e+02
651531714.286	-1.25315022e-01	-2.34208372e+01	-5.05212964e+01	-8.61123563e+01	-5.08594188e+01	-8.90815239e+01	-6.15843580e-01	-1.16147241e+02
651817285.714	-1.21744188e-01	-2.34265300e+01	-5.04248495e+01	-8.71178646e+01	-5.08114344e+01	-9.01226566e+01	-6.21707076e-01	-1.16260600e+02
652102857.143	-1.19865586e-01	-2.34228971e+01	-5.03136049e+01	-8.80687717e+01	-5.07344183e+01	-9.09775695e+01	-6.25055263e-01	-1.16407767e+02
652388428.571	-1.21677453e-01	-2.34604044e+01	-5.02754928e+01	-8.92605465e+01	-5.06227351e+01	-9.21040769e+01	-6.22472330e-01	-1.16526326e+02
652674000	-1.19342371e-01	-2.34400738e+01	-5.02452767e+01	-9.03017647e+01	-5.06458209e+01	-9.27757776e+01	-6.22566883e-01	-1.16687200e+02
652959571.429	-1.24092177e-01	-2.34619286e+01	-5.02083104e+01	-9.13124400e+01	-5.05495880e+01	-9.41403818e+01	-6.23358585e-01	-1.16853711e+02
653245142.857	-1.23843217e-01	-2.34839327e+01	-5.01545059e+01	-9.25528584e+01	-5.05108170e+01	-9.51889620e+01	-6.24443255e-01	-1.16970117e+02
653530714.286	-1.25835685e-01	-2.34837228e+01	-5.00957828e+01	-9.36937901e+01	-5.04776114e+01	-9.60808379e+01	-6.24077831e-01	-1.17042889e+02
653816285.714	-1.21926085e-01	-2.34790314e+01	-5.00895314e+01	-9.43597501e+01	-5.04948849e+01	-9.67405183e+01	-6.20515235e-01	-1.17160558e+02
654101857.143	-1.25711517e-01	-2.34811485e+01	-5.00539962e+01	-9.55125864e+01	-5.04371079e+01	-9.81808736e+01	-6.21151066e-01	-1.17300728e+02
654387428.571	-1.19230446e-01	-2.35056549e+01	-5.00601199e+01	-9.67833747e+01	-5.04221266e+01	-9.89349412e+01	-6.14203722e-01	-1.17429986e+02
654673000	-1.16700418e-01	-2.35020634e+01	-5.01091187e+01	-9.75192176e+01	-5.04518019e+01	-1.00021029e+02	-6.17191641e-01	-1.17596087e+02
654958571.429	-1.20007040e-01	-2.35216659e+01	-5.01322706e+01	-9.85133597e+01	-5.04488608e+01	-1.00679087e+02	-6.21459658e-01	-1.17729742e+02
655244142.857	-1.16636221e-01	-2.35441574e+01	-5.01200347e+01	-9.97424132e+01	-5.04434200e+01	-1.01728305e+02	-6.25358130e-01	-1.17816025e+02
655529714.286	-1.21512903e-01	-2.35270749e+01	-5.01741182e+01	-1.00467646e+02	-5.04447670e+01	-1.02447107e+02	-6.26210941e-01	-1.17883266e+02
655815285.714	-1.23763200e-01	-2.35492161e+01	-5.00433868e+01	-1.01401700e+02	-5.04653121e+01	-1.03153275e+02	-6.25517299e-01	-1.18059889e+02
656100857.143	-1.22005748e-01	-2.35464212e+01	-5.01295842e+01	-1.02203414e+02	-5.04782393e+01	-1.03769166e+02	-6.31537592e-01	-1.18190265e+02
656386428.571	-1.15411609e-01	-2.35646619e+01	-5.01656013e+01	-1.02784490e+02	-5.04375393e+01	-1.04764459e+02	-6.29953379e-01	-1.18341540e+02
656672000	-1.15833172e-01	-2.36046527e+01	-5.01561125e+01	-1.03990053e+02	-5.05374671e+01	-1.05276398e+02	-6.37328764e-01	-1.18507738e+02
656957571.429	-1.18592682e-01	-2.36303362e+01	-5.02082541e+01	-1.04461888e+02	-5.04956969e+01	-1.06392448e+02	-6.34579694e-01	-1.18684755e+02
657243142.857	-1.14548723e-01	-2.36245463e+01	-5.02066940e+01	-1.05294912e+02	-5.04916204e+01	-1.06905343e+02	-6.37898773e-01	-1.18802060e+02
657528714.286	-1.14451891e-01	-2.36360314e+01	-5.02548040e+01	-1.05855057e+02	-5.05239580e+01	-1.07543432e+02	-6.38853228e-01	-1.18999013e+02
657814285.714	-1.12856198e-01	-2.36239701e+01	-5.02617417e+01	-1.06331764e+02	-5.05911529e+01	-1.08125523e+02	-6.45404855e-01	-1.19102210e+02
658099857.143	-1.08750241e-01	-2.36493339e+01	-5.03137151e+01	-1.06985724e+02	-5.05891420e+01	-1.08880860e+02	-6.53274989e-01	-1.19190140e+02
658385428.571	-1.09203609e-01	-2.36435680e+01	-5.03585314e+01	-1.07705866e+02	-5.06168292e+01	-1.09346454e+02	-6.58671969e-01	-1.19310284e+02
658671000	-1.06183303e-01	-2.36679911e+01	-5.04056026e+01	-1.08498127e+02	-5.06328972e+01	-1.09574539e+02	-6.59009755e-01	-1.19448469e+02
658956571.429	-1.10893671e-01	-2.36692485e+01	-5.03899724e+01	-1.08961366e+02	-5.06521602e+01	-1.10180646e+02	-6.63666596e-01	-1.19608772e+02
659242142.857	-1.10141567e-01	-2.36750890e+01	-5.04412426e+01	-1.09304112e+02	-5.06920183e+01	-1.10962089e+02	-6.67847449e-01	-1.19742895e+02
659527714.286	-1.11742658e-01	-2.36654405e+01	-5.04797206e+01	-1.09710868e+02	-5.06906486e+01	-1.11279269e+02	-6.77458087e-01	-1.19928104e+02
659813285.714	-1.06564369e-01	-2.37159338e+01	-5.05587112e+01	-1.09798822e+02	-5.06949965e+01	-1.11721858e+02	-6.71086415e-01	-1.20053098e+02
660098857.143	-1.06633720e-01	-2.37249106e+01	-5.05305295e+01	-1.10078771e+02	-5.07203416e+01	-1.11740268e+02	-6.67342086e-01	-1.20178168e+02
660384428.571	-1.09342781e-01	-2.37223294e+01	-5.05224127e+01	-1.10576513e+02	-5.07003769e+01	-1.12439338e+02	-6.63169827e-01	-1.20321725e+02
660670000	-1.04867891e-01	-2.37273660e+01	-5.05860482e+01	-1.11344459e+02	-5.07419649e+01	-1.12602320e+02	-6.63593317e-01	-1.20476461e+02
660955571.429	-1.04226719e-01	-2.37441523e+01	-5.05688899e+01	-1.11131930e+02	-5.07587105e+01	-1.13037697e+02	-6.63762738e-01	-1.20632772e+02
661241142.857	-9.80778565e-02	-2.37417076e+01	-5.05298988e+01	-1.11627154e+02	-5.07580824e+01	-1.13597299e+02	-6.62245596e-01	-1.20819831e+02
661526714.286	-1.00014225e-01	-2.37823331e+01	-5.05778164e+01	-1.11264509e+02	-5.07930960e+01	-1.13547890e+02	-6.54154430e-01	-1.20937578e+02
661812285.714	-9.86843006e-02	-2.37941103e+01	-5.06180168e+01	-1.11647584e+02	-5.07896093e+01	-1.14092426e+02	-6.60994051e-01	-1.21085186e+02
662097857.143	-9.67124425e-02	-2.38146785e+01	-5.05643921e+01	-1.12577360e+02	-5.08160249e+01	-1.14231794e+02	-6.60603116e-01	-1.21222883e+02
662383428.571	-9.88235760e-02	-2.38106089e+01	-5.06329004e+01	-1.12297281e+02	-5.07659729e+01	-1.14651481e+02	-6.63446778e-01	-1.21386492e+02
662669000	-9.95641814e-02	-2.38213694e+01	-5.05984976e+01	-1.11947760e+02	-5.07039881e+01	-1.14380334e+02	-6.65074939e-01	-1.21509163e+02
662954571.429	-9.85753747e-02	-2.38353289e+01	-5.05316214e+01	-1.12393419e+02	-5.07551335e+01	-1.14695636e+02	-6.69262461e-01	-1.21690524e+02
663240142.857	-1.03554732e-01	-2.38290058e+01	-5.05350389e+01	-1.12317824e+02	-5.07013731e+01	-1.14804096e+02	-6.72640657e-01	-1.21828382e+02
663525714.286	-9.67215568e-02	-2.38510354e+01	-5.04932103e+01	-1.12247892e+02	-5.07285343e+01	-1.14866080e+02	-6.76106956e-01	-1.21980417e+02
663811285.714	-1.00950938e-01	-2.38715930e+01	-5.04698182e+01	-1.12582227e+02	-5.07116272e+01	-1.14855794e+02	-6.74499150e-01	-1.22084204e+02
664096857.143	-9.96993621e-02	-2.38530584e+01	-5.03427796e+01	-1.12753628e+02	-5.06565153e+01	-1.15192792e+02	-6.78074289e-01	-1.22240578e+02
664382428.571	-1.01487595e-01	-2.38382603e+01	-5.03525041e+01	-1.13113902e+02	-5.06295414e+01	-1.15257164e+02	-6.77309864e-01	-1.22375089e+02
664668000	-1.04300628e-01	-2.38644266e+01	-5.03275641e+01	-1.13258178e+02	-5.06080423e+01	-1.15608463e+02	-6.80895171e-01	-1.22501506e+02
664953571.429	-9.58114160e-02	-2.38847953e+01	-5.02340868e+01	-1.13277394e+02	-5.04619584e+01	-1.15455998e+02	-6.79842393e-01	-1.22678102e+02
665239142.857	-9.07911202e-02	-2.38727144e+01	-5.01686379e+01	-1.13346835e+02	-5.04521478e+01	-1.15858456e+02	-6.83604177e-01	-1.22811324e+02
665524714.286	-9.09933840e-02	-2.38851395e+01	-5.00546529e+01	-1.14017356e+02	-5.03942242e+01	-1.16188322e+02	-6.87791248e-01	-1.22955618e+02
665810285.714	-9.32747656e-02	-2.39241337e+01	-5.00333011e+01	-1.14444777e+02	-5.03254219e+01	-1.16691935e+02	-6.86040252e-01	-1.23162681e+02
666095857.143	-9.49002583e-02	-2.39025921e+01	-4.99183237e+01	-1.14431320e+02	-5.03048634e+01	-1.16864528e+02	-6.89816312e-01	-1.23313767e+02
666381428.571	-9.31054835e-02	-2.39229033e+01	-4.98568517e+01	-1.14906387e+02	-5.02326421e+01	-1.17052243e+02	-6.90701132e-01	-1.23429951e+02
666667000	-9.36370836e-02	-2.39128918e+01	-4.97986030e+01	-1.15259162e+02	-5.01823107e+01	-1.17476214e+02	-6.93643284e-01	-1.23559030e+02
666952571.429	-8.90955182e-02	-2.39457127e+01	-4.97429902e+01	-1.15812948e+02	-5.00838100e+01	-1.17781123e+02	-6.97919359e-01	-1.23680903e+02
667238142.857	-8.87691224e-02	-2.39297243e+01	-4.96292143e+01	-1.16190410e+02	-5.00047569e+01	-1.18113282e+02	-7.07861131e-01	-1.23801042e+02
667523714.286	-9.16427763e-02	-2.39495929e+01	-4.95579282e+01	-1.16763552e+02	-4.99514191e+01	-1.18222870e+02	-7.03949971e-01	-1.23865216e+02
667809285.714	-8.78938030e-02	-2.39835896e+01	-4.94389023e+01	-1.17135814e+02	-4.98794446e+01	-1.18758607e+02	-6.99196873e-01	-1.23962432e+02
668094857.143	-8.63504229e-02	-2.39587234e+01	-4.94053154e+01	-1.17467784e+02	-4.98054655e+01	-1.19590962e+02	-7.02507565e-01	-1.24100016e+02
668380428.571	-8.70261999e-02	-2.39636507e+01	-4.93959612e+01	-1.18372621e+02	-4.97148479e+01	-1.19720733e+02	-7.09768878e-01	-1.24253385e+02
668666000	-8.91124438e-02	-2.39718576e+01	-4.92679925e+01	-1.18928937e+02	-4.97012012e+01	-1.20225507e+02	-7.18191829e-01	-1.24380773e+02
668951571.429	-8.58316025e-02	-2.40054220e+01	-4.92183378e+01	-1.19506285e+02	-4.95921653e+01	-1.21115735e+02	-7.12544508e-01	-1.24476106e+02
669237142.857	-9.07612428e-02	-2.40149316e+01	-4.91560618e+01	-1.19966917e+02	-4.95434113e+01	-1.21234192e+02	-7.21596350e-01	-1.24589901e+02
669522714.286	-8.61191895e-02	-2.40006067e+01	-4.90861567e+01	-1.20588386e+02	-4.94515323e+01	-1.21818665e+02	-7.16323112e-01	-1.24761897e+02
669808285.714	-8.16232908e-02	-2.40117276e+01	-4.90709044e+01	-1.21283706e+02	-4.94503666e+01	-1.22300868e+02	-7.18673761e-01	-1.24945308e+02
670093857.143	-8.73160487e-02	-2.40249327e+01	-4.90243543e+01	-1.21889709e+02	-4.93199301e+01	-1.22914283e+02	-7.17303829e-01	-1.25092532e+02
670379428.571	-8.50018138e-02	-2.40342847e+01	-4.89221572e+01	-1.22464585e+02	-4.93034410e+01	-1.23512193e+02	-7.16687288e-01	-1.25261606e+02
670665000	-8.33455508e-02	-2.40364473e+01	-4.88608243e+01	-1.22973300e+02	-4.92546545e+01	-1.24119085e+02	-7.23418617e-01	-1.25404790e+02
670950571.429	-8.21503345e-02	-2.40526298e+01	-4.88036967e+01	-1.23680657e+02	-4.91984762e+01	-1.24933382e+02	-7.24359758e-01	-1.25518905e+02
671236142.857	-8.19310027e-02	-2.40598612e+01	-4.87673823e+01	-1.24432330e+02	-4.91500293e+01	-1.25297032e+02	-7.32863362e-01	-1.25578614e+02
671521714.286	-8.52884754e-02	-2.40679543e+01	-4.87108731e+01	-1.25222199e+02	-4.90381470e+01	-1.25749038e+02	-7.26825804e-01	-1.25759353e+02
671807285.714	-8.85083678e-02	-2.40643817e+01	-4.86388459e+01	-1.25855168e+02	-4.90319216e+01	-1.26718650e+02	-7.29035748e-01	-1.25923916e+02
672092857.143	-8.48132555e-02	-2.40382492e+01	-4.85862403e+01	-1.26510262e+02	-4.89098157e+01	-1.27345240e+02	-7.33399873e-01	-1.26021878e+02
672378428.571	-8.32269340e-02	-2.40823256e+01	-4.85409846e+01	-1.27267161e+02	-4.88832748e+01	-1.27715916e+02	-7.36209951e-01	-1.26179771e+02
672664000	-7.70618738e-02	-2.40926387e+01	-4.84922670e+01	-1.27453480e+02	-4.88207642e+01	-1.28699196e+02	-7.42347600e-01	-1.26311757e+02
672949571.429	-7.88700021e-02	-2.40853100e+01	-4.84775052e+01	-1.28403868e+02	-4.87753097e+01	-1.29686321e+02	-7.37151139e-01	-1.26487086e+02
673235142.857	-7.98090181e-02	-2.40920996e+01	-4.84434662e+01	-1.29268157e+02	-4.87508278e+01	-1.30266226e+02	-7.39628524e-01	-1.26638586e+02
673520714.286	-8.63771677e-02	-2.40958842e+01	-4.84031590e+01	-1.29825741e+02	-4.87059840e+01	-1.30616229e+02	-7.56433471e-01	-1.26779155e+02
673806285.714	-7.97801839e-02	-2.40957118e+01	-4.83759560e+01	-1.30518281e+02	-4.86736411e+01	-1.31805748e+02	-7.53890896e-01	-1.26960008e+02
674091857.143	-8.05906613e-02	-2.41032577e+01	-4.83262898e+01	-1.31295254e+02	-4.86353457e+01	-1.32217550e+02	-7.57806599e-01	-1.27132683e+02
674377428.571	-8.10871545e-02	-2.40957718e+01	-4.83238420e+01	-1.32231468e+02	-4.86081908e+01	-1.32836191e+02	-7.63333846e-01	-1.27272212e+02
674663000	-8.26741396e-02	-2.40991805e+01	-4.83127244e+01	-1.32717000e+02	-4.85397011e+01	-1.33827106e+02	-7.56683234e-01	-1.27403918e+02
674948571.429	-8.23697355e-02	-2.40943443e+01	-4.82511128e+01	-1.33300554e+02	-4.85784959e+01	-1.34597498e+02	-7.53391409e-01	-1.27589834e+02
675234142.857	-7.99080813e-02	-2.41083228e+01	-4.82148828e+01	-1.34251204e+02	-4.84840281e+01	-1.35133677e+02	-7.51992026e-01	-1.27751841e+02
675519714.286	-8.11443689e-02	-2.41301123e+01	-4.81792814e+01	-1.34720303e+02	-4.85200518e+01	-1.35864034e+02	-7.50525863e-01	-1.27891210e+02
675805285.714	-7.93962043e-02	-2.41313168e+01	-4.81437300e+01	-1.35633300e+02	-4.84608054e+01	-1.36394474e+02	-7.48275133e-01	-1.27997831e+02
676090857.143	-8.14307058e-02	-2.41364839e+01	-4.81695035e+01	-1.36020194e+02	-4.84576657e+01	-1.37129003e+02	-7.54616783e-01	-1.28152292e+02
676376428.571	-7.76769939e-02	-2.41231335e+01	-4.81085954e+01	-1.36985600e+02	-4.84419150e+01	-1.37862551e+02	-7.58772492e-01	-1.28277806e+02
676662000	-8.12020427e-02	-2.41380747e+01	-4.81249411e+01	-1.37598281e+02	-4.84015032e+01	-1.38984402e+02	-7.52824721e-01	-1.28458836e+02
676947571.429	-8.27376479e-02	-2.41588217e+01	-4.81075463e+01	-1.38210832e+02	-4.84213290e+01	-1.39272715e+02	-7.66387348e-01	-1.28605635e+02
677233142.857	-7.94432137e-02	-2.41494693e+01	-4.81170889e+01	-1.39051017e+02	-4.84005542e+01	-1.39857758e+02	-7.71020685e-01	-1.28729463e+02
677518714.286	-8.23632820e-02	-2.41278652e+01	-4.80875404e+01	-1.39781542e+02	-4.84126070e+01	-1.40634876e+02	-7.83305217e-01	-1.28873007e+02
677804285.714	-7.98860908e-02	-2.41427773e+01	-4.80957127e+01	-1.40366644e+02	-4.83887890e+01	-1.40943625e+02	-7.88226788e-01	-1.28982650e+02
678089857.143	-7.75779261e-02	-2.41516396e+01	-4.80597719e+01	-1.41094513e+02	-4.83330394e+01	-1.41659392e+02	-7.90952954e-01	-1.29145544e+02
678375428.571	-7.74667029e-02	-2.41487639e+01	-4.80684493e+01	-1.41626176e+02	-4.83480966e+01	-1.42332425e+02	-7.92326677e-01	-1.29271805e+02
678661000	-7.56046089e-02	-2.41603057e+01	-4.80926954e+01	-1.41979507e+02	-4.83760537e+01	-1.43112274e+02	-7.92743967e-01	-1.29409490e+02
678946571.429	-7.86073392e-02	-2.41584123e+01	-4.80174586e+01	-1.42734292e+02	-4.83473978e+01	-1.43548413e+02	-7.95564179e-01	-1.29536306e+02
679232142.857	-7.94653693e-02	-2.41587786e+01	-4.80416592e+01	-1.43056194e+02	-4.83414908e+01	-1.44402469e+02	-7.92582272e-01	-1.29642933e+02
679517714.286	-8.19862396e-02	-2.41684986e+01	-4.80238248e+01	-1.44115891e+02	-4.83036724e+01	-1.44750335e+02	-7.97909551e-01	-1.29773302e+02
679803285.714	-7.70915856e-02	-2.41649180e+01	-4.80258788e+01	-1.44647638e+02	-4.82870332e+01	-1.45212956e+02	-7.96430870e-01	-1.29966474e+02
680088857.143	-8.46531843e-02	-2.41885238e+01	-4.79798589e+01	-1.45146125e+02	-4.83077003e+01	-1.46033032e+02	-8.06516853e-01	-1.30187928e+02
680374428.571	-8.13398888e-02	-2.41767780e+01	-4.79762224e+01	-1.45874656e+02	-4.83137681e+01	-1.46515255e+02	-8.08270457e-01	-1.30343754e+02
680660000	-8.12683837e-02	-2.41873335e+01	-4.79663320e+01	-1.46305665e+02	-4.83189744e+01	-1.46998846e+02	-8.15874289e-01	-1.30540020e+02
680945571.429	-7.80727771e-02	-2.42049729e+01	-4.79701366e+01	-1.47018724e+02	-4.83085608e+01	-1.47534800e+02	-8.23556395e-01	-1.30700942e+02
681231142.857	-8.24740428e-02	-2.42080200e+01	-4.80128646e+01	-1.47215085e+02	-4.82831203e+01	-1.48031092e+02	-8.24307476e-01	-1.30887021e+02
681516714.286	-8.29916213e-02	-2.42243207e+01	-4.79355352e+01	-1.48194517e+02	-4.82503504e+01	-1.48836985e+02	-8.23500443e-01	-1.31081049e+02
681802285.714	-8.44221824e-02	-2.42082341e+01	-4.79737090e+01	-1.48674465e+02	-4.82676530e+01	-1.49458948e+02	-8.30973677e-01	-1.31220793e+02
682087857.143	-8.50416563e-02	-2.42026572e+01	-4.79956018e+01	-1.49000463e+02	-4.82542717e+01	-1.49901806e+02	-8.33064858e-01	-1.31338222e+02
682373428.571	-8.35621486e-02	-2.42218419e+01	-4.79209835e+01	-1.49805681e+02	-4.82273542e+01	-1.50513721e+02	-8.29387531e-01	-1.31466399e+02
682659000	-8.21446068e-02	-2.42224127e+01	-4.78976613e+01	-1.50178866e+02	-4.82385111e+01	-1.50965668e+02	-8.32302491e-01	-1.31626097e+02
682944571.429	-8.21728264e-02	-2.42235871e+01	-4.79086115e+01	-1.51029543e+02	-4.82037161e+01	-1.51484999e+02	-8.35723192e-01	-1.31825046e+02
683230142.857	-8.42922638e-02	-2.42230939e+01	-4.79383458e+01	-1.51498893e+02	-4.82008596e+01	-1.52173325e+02	-8.44166140e-01	-1.31948620e+02
683515714.286	-8.55195106e-02	-2.42307831e+01	-4.78750216e+01	-1.52146999e+02	-4.81745490e+01	-1.52924142e+02	-8.50518084e-01	-1.32104874e+02
683801285.714	-8.49242113e-02	-2.42376336e+01	-4.79213255e+01	-1.52607001e+02	-4.81573571e+01	-1.53193099e+02	-8.52411636e-01	-1.32256419e+02
684086857.143	-8.37803446e-02	-2.42284324e+01	-4.78651705e+01	-1.53036921e+02	-4.81650197e+01	-1.53861967e+02	-8.48037141e-01	-1.32481743e+02
684372428.571	-8.42317051e-02	-2.42519865e+01	-4.78963096e+01	-1.53582173e+02	-4.82021460e+01	-1.54651324e+02	-8.55839565e-01	-1.32622332e+02
684658000	-8.30621824e-02	-2.42428319e+01	-4.78453506e+01	-1.54496922e+02	-4.81852561e+01	-1.55498858e+02	-8.67134277e-01	-1.32837592e+02
684943571.429	-8.19987647e-02	-2.42661747e+01	-4.78651287e+01	-1.55066877e+02	-4.81898422e+01	-1.55911476e+02	-8.72621675e-01	-1.32986815e+02
685229142.857	-8.53682740e-02	-2.42812424e+01	-4.78601831e+01	-1.55744058e+02	-4.81855371e+01	-1.56338869e+02	-8.63460306e-01	-1.33155100e+02
685514714.286	-8.67064202e-02	-2.42570608e+01	-4.79091830e+01	-1.56118821e+02	-4.81844647e+01	-1.57190568e+02	-8.75270971e-01	-1.33356095e+02
685800285.714	-8.69232904e-02	-2.42671662e+01	-4.78303650e+01	-1.57208537e+02	-4.81764812e+01	-1.57835871e+02	-8.82967509e-01	-1.33503487e+02
686085857.143	-8.75896917e-02	-2.42775476e+01	-4.78695096e+01	-1.57458064e+02	-4.82112967e+01	-1.58533699e+02	-8.80468497e-01	-1.33691997e+02
686371428.571	-8.59548301e-02	-2.42863927e+01	-4.78874961e+01	-1.58185722e+02	-4.81986716e+01	-1.58887617e+02	-8.82331418e-01	-1.33815832e+02
686657000	-8.72836074e-02	-2.42896706e+01	-4.79238689e+01	-1.58726685e+02	-4.82329048e+01	-1.59489245e+02	-8.76928321e-01	-1.33995419e+02
686942571.429	-8.62099299e-02	-2.43059771e+01	-4.78739137e+01	-1.59189855e+02	-4.82474698e+01	-1.60042007e+02	-8.90421232e-01	-1.34117090e+02
687228142.857	-8.80060590e-02	-2.42983549e+01	-4.79388999e+01	-1.59868494e+02	-4.82862404e+01	-1.60665465e+02	-8.98486448e-01	-1.34283088e+02
687513714.286	-8.68362309e-02	-2.43282208e+01	-4.79397118e+01	-1.60319458e+02	-4.83200722e+01	-1.61064465e+02	-9.04407025e-01	-1.34461109e+02
687799285.714	-8.72106930e-02	-2.43084211e+01	-4.79322428e+01	-1.60777154e+02	-4.83545262e+01	-1.61406600e+02	-9.05516994e-01	-1.34594307e+02
688084857.143	-8.78030797e-02	-2.43342647e+01	-4.79950986e+01	-1.61535561e+02	-4.83360119e+01	-1.61898047e+02	-9.11142322e-01	-1.34756295e+02
688370428.571	-9.15008200e-02	-2.43292131e+01	-4.79898536e+01	-1.62009939e+02	-4.83480739e+01	-1.62357502e+02	-9.11224892e-01	-1.34952770e+02
688656000	-9.30732042e-02	-2.43451540e+01	-4.79745835e+01	-1.62095863e+02	-4.83538558e+01	-1.62630321e+02	-9.16345461e-01	-1.35111456e+02
688941571.429	-9.11148136e-02	-2.43633890e+01	-4.80176330e+01	-1.62606028e+02	-4.83724447e+01	-1.63286142e+02	-9.17840929e-01	-1.35204883e+02
689227142.857	-9.25537411e-02	-2.43843937e+01	-4.80419237e+01	-1.62989052e+02	-4.84201659e+01	-1.63479924e+02	-9.20579358e-01	-1.35374042e+02
689512714.286	-9.68447188e-02	-2.43895824e+01	-4.80527917e+01	-1.63573026e+02	-4.84396772e+01	-1.63915365e+02	-9.15420185e-01	-1.35542753e+02
689798285.714	-9.57155938e-02	-2.43900626e+01	-4.80110765e+01	-1.63836035e+02	-4.84499982e+01	-1.64383164e+02	-9.10999937e-01	-1.35753383e+02
690083857.143	-9.63700324e-02	-2.44080203e+01	-4.80548354e+01	-1.64269879e+02	-4.84840189e+01	-1.64678160e+02	-9.22615877e-01	-1.35914303e+02
690369428.571	-9.71022404e-02	-2.44201484e+01	-4.79999804e+01	-1.64655761e+02	-4.84782655e+01	-1.64877616e+02	-9.25189301e-01	-1.36122248e+02
690655000	-9.91049692e-02	-2.44383026e+01	-4.80312432e+01	-1.65242827e+02	-4.84686154e+01	-1.65278318e+02	-9.40448568e-01	-1.36264870e+02
690940571.429	-9.62437213e-02	-2.44515627e+01	-4.80623927e+01	-1.65261408e+02	-4.84788513e+01	-1.65629333e+02	-9.42217298e-01	-1.36444098e+02
691226142.857	-9.68781448e-02	-2.44603169e+01	-4.80455575e+01	-1.65747506e+02	-4.85128026e+01	-1.65883215e+02	-9.47037497e-01	-1.36572419e+02
691511714.286	-9.72488720e-02	-2.44764767e+01	-4.80396453e+01	-1.66147285e+02	-4.85157370e+01	-1.66189063e+02	-9.49656141e-01	-1.36771786e+02
691797285.714	-9.80128146e-02	-2.44788516e+01	-4.80422493e+01	-1.66594420e+02	-4.84386874e+01	-1.66524759e+02	-9.44322080e-01	-1.37008043e+02
692082857.143	-9.70612189e-02	-2.44727031e+01	-4.80486164e+01	-1.67152487e+02	-4.84964267e+01	-1.67024939e+02	-9.52247568e-01	-1.37219042e+02
692368428.571	-9.81502642e-02	-2.44843281e+01	-4.80518966e+01	-1.67408796e+02	-4.84894631e+01	-1.67393685e+02	-9.56382335e-01	-1.37391533e+02
692654000	-9.84633852e-02	-2.45065347e+01	-4.80415233e+01	-1.67687490e+02	-4.84857713e+01	-1.67315202e+02	-9.61771217e-01	-1.37527431e+02
692939571.429	-9.79200133e-02	-2.45089841e+01	-4.80422785e+01	-1.68326264e+02	-4.84599778e+01	-1.67783160e+02	-9.63958674e-01	-1.37679008e+02
693225142.857	-9.93492166e-02	-2.45187717e+01	-4.80336223e+01	-1.68897578e+02	-4.84709010e+01	-1.68021576e+02	-9.67407215e-01	-1.37874781e+02
693510714.286	-9.95732630e-02	-2.45300446e+01	-4.80323482e+01	-1.69243055e+02	-4.84722990e+01	-1.68423275e+02	-9.74333901e-01	-1.38049142e+02
693796285.714	-9.87875846e-02	-2.45525711e+01	-4.80087236e+01	-1.69559125e+02	-4.84795858e+01	-1.68869816e+02	-9.77905702e-01	-1.38174839e+02
694081857.143	-9.80808739e-02	-2.45519972e+01	-4.80457500e+01	-1.69778603e+02	-4.84664810e+01	-1.69153498e+02	-9.78542525e-01	-1.38325954e+02
694367428.571	-1.00290295e-01	-2.45514322e+01	-4.80321558e+01	-1.70223482e+02	-4.84526947e+01	-1.69496023e+02	-9.80846875e-01	-1.38456410e+02
694653000	-9.77437372e-02	-2.45528725e+01	-4.79736186e+01	-1.70522275e+02	-4.84005883e+01	-1.69848302e+02	-9.86535203e-01	-1.38644124e+02
694938571.429	-9.66904204e-02	-2.45595166e+01	-4.79881850e+01	-1.70977102e+02	-4.84479734e+01	-1.70181819e+02	-9.98867334e-01	-1.38863293e+02
695224142.857	-9.81984057e-02	-2.45886768e+01	-4.80273615e+01	-1.71398343e+02	-4.84339807e+01	-1.70396856e+02	-9.94766347e-01	-1.39001274e+02
695509714.286	-1.00794949e-01	-2.46039762e+01	-4.79929326e+01	-1.71702304e+02	-4.84022411e+01	-1.70831927e+02	-9.89373311e-01	-1.39170571e+02
695795285.714	-1.02035341e-01	-2.46148521e+01	-4.80395254e+01	-1.72405186e+02	-4.83907075e+01	-1.71252851e+02	-1.00051275e+00	-1.39335151e+02
696080857.143	-1.02166648e-01	-2.46579984e+01	-4.80211528e+01	-1.72710333e+02	-4.83707237e+01	-1.71567738e+02	-9.99011861e-01	-1.39490281e+02
696366428.571	-1.01371973e-01	-2.46628306e+01	-4.80018412e+01	-1.72776868e+02	-4.83929523e+01	-1.71645570e+02	-1.00766158e+00	-1.39645342e+02
696652000	-1.03400645e-01	-2.46602116e+01	-4.79806085e+01	-1.73281461e+02	-4.83726846e+01	-1.72175054e+02	-1.01125521e+00	-1.39761685e+02
696937571.429	-1.04432122e-01	-2.46908910e+01	-4.80157827e+01	-1.73361127e+02	-4.83784472e+01	-1.72356372e+02	-1.01453744e+00	-1.39929768e+02
697223142.857	-1.02970481e-01	-2.47099584e+01	-4.80166586e+01	-1.73815329e+02	-4.83809614e+01	-1.72734053e+02	-1.01301342e+00	-1.40139814e+02
697508714.286	-1.01539877e-01	-2.47390454e+01	-4.79946004e+01	-1.74437386e+02	-4.83491853e+01	-1.72786061e+02	-1.01580315e+00	-1.40305983e+02
697794285.714	-1.03542188e-01	-2.47489109e+01	-4.80257333e+01	-1.74368421e+02	-4.83308254e+01	-1.73247088e+02	-1.02066727e+00	-1.40447416e+02
698079857.143	-1.03942132e-01	-2.47514287e+01	-4.80070379e+01	-1.74612589e+02	-4.83113758e+01	-1.73482536e+02	-1.02856492e+00	-1.40562190e+02
698365428.571	-1.07314139e-01	-2.47674806e+01	-4.79671608e+01	-1.74949622e+02	-4.83067840e+01	-1.73745591e+02	-1.02852912e+00	-1.40692335e+02
698651000	-1.09133373e-01	-2.47915572e+01	-4.80080081e+01	-1.75186978e+02	-4.82575103e+01	-1.74321933e+02	-1.02504275e+00	-1.40836920e+02
698936571.429	-1.09052044e-01	-2.47950015e+01	-4.79217717e+01	-1.75793410e+02	-4.82455095e+01	-1.74617625e+02	-1.02813093e+00	-1.41030128e+02
699222142.857	-1.09747174e-01	-2.48120686e+01	-4.79345356e+01	-1.75692974e+02	-4.81915499e+01	-1.74782928e+02	-1.02677793e+00	-1.41212759e+02
699507714.286	-1.07924489e-01	-2.48479147e+01	-4.78806049e+01	-1.76393410e+02	-4.81813115e+01	-1.75169164e+02	-1.02441819e+00	-1.41323675e+02
699793285.714	-1.09196661e-01	-2.48691012e+01	-4.79424146e+01	-1.76610893e+02	-4.81666080e+01	-1.75563913e+02	-1.03970153e+00	-1.41440477e+02
700078857.143	-1.07636058e-01	-2.48850200e+01	-4.78591710e+01	-1.77214872e+02	-4.81664486e+01	-1.75848621e+02	-1.04420799e+00	-1.41579715e+02
700364428.571	-1.06233563e-01	-2.49038228e+01	-4.79013743e+01	-1.77191772e+02	-4.81330906e+01	-1.76055812e+02	-1.03990021e+00	-1.41734002e+02
700650000	-1.08169033e-01	-2.49170805e+01	-4.78059440e+01	-1.77635166e+02	-4.81009734e+01	-1.76280277e+02	-1.03873757e+00	-1.41891155e+02
700935571.429	-1.10268051e-01	-2.49276571e+01	-4.78723987e+01	-1.78035657e+02	-4.80787931e+01	-1.76869226e+02	-1.04320275e+00	-1.42031202e+02
701221142.857	-1.09796618e-01	-2.49597689e+01	-4.78330372e+01	-1.78343566e+02	-4.80442735e+01	-1.77080336e+02	-1.05095571e+00	-1.42171379e+02
701506714.286	-1.07729320e-01	-2.49740558e+01	-4.77959695e+01	-1.78682117e+02	-4.80158166e+01	-1.77467820e+02	-1.05538600e+00	-1.42323041e+02
701792285.714	-1.07878888e-01	-2.49816640e+01	-4.77901151e+01	-1.79137570e+02	-4.79828768e+01	-1.77683205e+02	-1.06108600e+00	-1.42479060e+02
702077857.143	-1.06598994e-01	-2.49962348e+01	-4.77415480e+01	-1.79408233e+02	-4.79793679e+01	-1.78043750e+02	-1.06533287e+00	-1.42649994e+02
702363428.571	-1.06246111e-01	-2.50184633e+01	-4.77221843e+01	-1.79776610e+02	-4.79424719e+01	-1.78469534e+02	-1.06378125e+00	-1.42813371e+02
702649000	-1.07842307e-01	-2.50453401e+01	-4.77150664e+01	1.79629918e+02	-4.79237031e+01	-1.78672115e+02	-1.07135844e+00	-1.43004640e+02
702934571.429	-1.04719752e-01	-2.50631063e+01	-4.76890412e+01	1.79386038e+02	-4.78586482e+01	-1.79364217e+02	-1.07005255e+00	-1.43175798e+02
703220142.857	-1.04709857e-01	-2.50823364e+01	-4.76449359e+01	1.78973438e+02	-4.78582039e+01	-1.79759441e+02	-1.07207328e+00	-1.43351418e+02
703505714.286	-1.07794513e-01	-2.51117817e+01	-4.76140478e+01	1.78475364e+02	-4.77966929e+01	1.79925463e+02	-1.07265890e+00	-1.43486059e+02
703791285.714	-1.06102383e-01	-2.51385842e+01	-4.76377770e+01	1.78069284e+02	-4.77813908e+01	1.79561117e+02	-1.08267033e+00	-1.43629361e+02
704076857.143	-1.08816394e-01	-2.51653978e+01	-4.75663655e+01	1.77746236e+02	-4.77575022e+01	1.79116123e+02	-1.08524875e+00	-1.43740187e+02
704362428.571	-1.06620588e-01	-2.51642795e+01	-4.75408812e+01	1.77458365e+02	-4.77473202e+01	1.78690904e+02	-1.08798268e+00	-1.43821325e+02
704648000	-1.05429784e-01	-2.51562588e+01	-4.75517594e+01	1.77013907e+02	-4.76869032e+01	1.78170969e+02	-1.09101059e+00	-1.43909731e+02
704933571.429	-1.07012115e-01	-2.51684378e+01	-4.75200041e+01	1.76368195e+02	-4.76703946e+01	1.77548417e+02	-1.09396131e+00	-1.44084353e+02
705219142.857	-1.09519105e-01	-2.51932813e+01	-4.75207962e+01	1.76183315e+02	-4.76441229e+01	1.77199557e+02	-1.10328257e+00	-1.44264316e+02
705504714.286	-1.06616504e-01	-2.52255959e+01	-4.75003943e+01	1.75665398e+02	-4.76180915e+01	1.76925079e+02	-1.10555933e+00	-1.44419908e+02
705790285.714	-1.04133711e-01	-2.52708338e+01	-4.74685499e+01	1.75221881e+02	-4.76192244e+01	1.76208358e+02	-1.10856528e+00	-1.44565445e+02
706075857.143	-1.04816067e-01	-2.52977229e+01	-4.74832322e+01	1.74749125e+02	-4.75936954e+01	1.75997531e+02	-1.11096947e+00	-1.44763884e+02
706361428.571	-1.04810365e-01	-2.53158019e+01	-4.74704987e+01	1.74232131e+02	-4.75406399e+01	1.75417800e+02	-1.11342818e+00	-1.44898159e+02
706647000	-1.03005796e-01	-2.53423616e+01	-4.75096407e+01	1.73965937e+02	-4.75465729e+01	1.75079318e+02	-1.11518889e+00	-1.45055843e+02
706932571.429	-1.04191629e-01	-2.53337394e+01	-4.74372139e+01	1.73493890e+02	-4.75181997e+01	1.74685925e+02	-1.11411202e+00	-1.45172452e+02
707218142.857	-1.01492963e-01	-2.53232992e+01	-4.74540567e+01	1.73096160e+02	-4.75100675e+01	1.74430020e+02	-1.11274663e+00	-1.45315868e+02
707503714.286	-1.02926234e-01	-2.53673433e+01	-4.74371664e+01	1.72799446e+02	-4.74849156e+01	1.73897249e+02	-1.12062530e+00	-1.45450777e+02
707789285.714	-1.05904462e-01	-2.53907827e+01	-4.74062212e+01	1.72256416e+02	-4.74991504e+01	1.73484449e+02	-1.12793148e+00	-1.45523061e+02
708074857.143	-1.04757908e-01	-2.54116222e+01	-4.73791969e+01	1.72025595e+02	-4.74476595e+01	1.72876695e+02	-1.12823136e+00	-1.45637414e+02
708360428.571	-1.04715976e-01	-2.54491230e+01	-4.73679344e+01	1.71391823e+02	-4.74499709e+01	1.72590081e+02	-1.13357941e+00	-1.45707521e+02
708646000	-1.03950173e-01	-2.54584642e+01	-4.73436734e+01	1.71303313e+02	-4.73940342e+01	1.72223674e+02	-1.13456028e+00	-1.45814912e+02
708931571.429	-1.05567211e-01	-2.54806498e+01	-4.73450165e+01	1.71101039e+02	-4.74306884e+01	1.71769488e+02	-1.13634593e+00	-1.45988643e+02
709217142.857	-1.10375250e-01	-2.54647986e+01	-4.73115180e+01	1.70488567e+02	-4.73964029e+01	1.71404088e+02	-1.14040903e+00	-1.46137056e+02
709502714.286	-1.04629683e-01	-2.54732624e+01	-4.73325903e+01	1.70234811e+02	-4.73620001e+01	1.70841832e+02	-1.14638073e+00	-1.46300482e+02
709788285.714	-1.02669301e-01	-2.55297169e+01	-4.73054395e+01	1.69939988e+02	-4.73497260e+01	1.70415043e+02	-1.14916086e+00	-1.46446177e+02
710073857.143	-9.94950186e-02	-2.55364369e+01	-4.72874185e+01	1.69459198e+02	-4.72799151e+01	1.69875962e+02	-1.15704689e+00	-1.46608089e+02
710359428.571	-9.87629429e-02	-2.55773501e+01	-4.72487826e+01	1.69155540e+02	-4.72793394e+01	1.69636912e+02	-1.16266935e+00	-1.46793657e+02
710645000	-9.93718344e-02	-2.55645500e+01	-4.72051498e+01	1.68592309e+02	-4.72485162e+01	1.69092089e+02	-1.15974793e+00	-1.46919178e+02
710930571.429	-1.00016806e-01	-2.56037892e+01	-4.72270253e+01	1.68382937e+02	-4.72255412e+01	1.68789909e+02	-1.16531983e+00	-1.47090141e+02
711216142.857	-1.01040688e-01	-2.56272216e+01	-4.71902479e+01	1.67921714e+02	-4.72012557e+01	1.68298518e+02	-1.16799690e+00	-1.47222930e+02
711501714.286	-9.40893814e-02	-2.56503192e+01	-4.71454989e+01	1.67436418e+02	-4.71836684e+01	1.67720265e+02	-1.16825653e+00	-1.47347015e+02
711787285.714	-9.87264544e-02	-2.56617963e+01	-4.71268315e+01	1.67353446e+02	-4.71704607e+01	1.67454079e+02	-1.17523802e+00	-1.47501759e+02
712072857.143	-9.66699075e-02	-2.56699261e+01	-4.71078536e+01	1.66727198e+02	-4.71471851e+01	1.66817420e+02	-1.18143665e+00	-1.47567414e+02
712358428.571	-9.69733704e-02	-2.56971918e+01	-4.70953489e+01	1.66490115e+02	-4.71083497e+01	1.66290436e+02	-1.19392430e+00	-1.47718469e+02
712644000	-9.49409631e-02	-2.57039213e+01	-4.70619526e+01	1.65871447e+02	-4.71341146e+01	1.66027375e+02	-1.19767322e+00	-1.47807303e+02
712929571.429	-9.65327343e-02	-2.57006591e+01	-4.70279680e+01	1.65465606e+02	-4.70998658e+01	1.65495114e+02	-1.20242796e+00	-1.48003563e+02
713215142.857	-9.80533979e-02	-2.57403992e+01	-4.70141821e+01	1.64943493e+02	-4.70798037e+01	1.64999505e+02	-1.20080685e+00	-1.48156036e+02
713500714.286	-1.01590943e-01	-2.57023269e+01	-4.69739485e+01	1.64381982e+02	-4.70213533e+01	1.64447204e+02	-1.19758086e+00	-1.48349991e+02
713786285.714	-9.59397575e-02	-2.57240054e+01	-4.69342717e+01	1.63991222e+02	-4.70158334e+01	1.64079871e+02	-1.20200410e+00	-1.48503640e+02
714071857.143	-9.42142654e-02	-2.57470304e+01	-4.69048715e+01	1.63703208e+02	-4.70122854e+01	1.63611043e+02	-1.20528897e+00	-1.48626271e+02
714357428.571	-9.50227681e-02	-2.57508728e+01	-4.68942281e+01	1.63114171e+02	-4.69851282e+01	1.63043316e+02	-1.20758680e+00	-1.48762031e+02
714643000	-9.77384152e-02	-2.57752345e+01	-4.69076635e+01	1.62715512e+02	-4.69487318e+01	1.62720000e+02	-1.21005697e+00	-1.48915374e+02
714928571.429	-1.01039529e-01	-2.57871056e+01	-4.68711060e+01	1.62180253e+02	-4.69246553e+01	1.62050224e+02	-1.21951050e+00	-1.49065501e+02
715214142.857	-9.60342390e-02	-2.57776061e+01	-4.68333450e+01	1.61486802e+02	-4.69505768e+01	1.61351556e+02	-1.22003836e+00	-1.49223636e+02
715499714.286	-9.58966820e-02	-2.58176415e+01	-4.68440023e+01	1.60867528e+02	-4.69086001e+01	1.60893210e+02	-1.22476074e+00	-1.49398074e+02
715785285.714	-1.01323042e-01	-2.58226556e+01	-4.68621967e+01	1.60365745e+02	-4.69259361e+01	1.60419413e+02	-1.23123683e+00	-1.49511387e+02
716070857.143	-9.82211591e-02	-2.58530071e+01	-4.68085342e+01	1.60004968e+02	-4.69080427e+01	1.59799700e+02	-1.24036745e+00	-1.49676788e+02
716356428.571	-9.63008732e-02	-2.58591728e+01	-4.68214424e+01	1.59493622e+02	-4.68943633e+01	1.59101594e+02	-1.25402815e+00	-1.49814507e+02
716642000	-9.52300350e-02	-2.58219181e+01	-4.68193235e+01	1.58750784e+02	-4.68855317e+01	1.58698647e+02	-1.26030869e+00	-1.49975387e+02
716927571.429	-9.71139402e-02	-2.58761535e+01	-4.68629341e+01	1.58517809e+02	-4.69389346e+01	1.58080321e+02	-1.26398369e+00	-1.50165018e+02
717213142.857	-9.66155835e-02	-2.58775357e+01	-4.68339641e+01	1.57927967e+02	-4.69151102e+01	1.57830993e+02	-1.27201537e+00	-1.50262614e+02
717498714.286	-1.00658754e-01	-2.58768626e+01	-4.68294357e+01	1.57272552e+02	-4.69395373e+01	1.57169743e+02	-1.27057454e+00	-1.50398457e+02
717784285.714	-1.02617287e-01	-2.58558297e+01	-4.68437993e+01	1.56889642e+02	-4.69350604e+01	1.56668242e+02	-1.27232844e+00	-1.50524479e+02
718069857.143	-1.01059703e-01	-2.59096270e+01	-4.68783439e+01	1.56148321e+02	-4.69460501e+01	1.55928585e+02	-1.27336859e+00	-1.50657954e+02
718355428.571	-1.04739500e-01	-2.59198052e+01	-4.68780321e+01	1.55642908e+02	-4.69425257e+01	1.55651249e+02	-1.27793495e+00	-1.50774099e+02
718641000	-9.94517819e-02	-2.59574242e+01	-4.68835473e+01	1.55206345e+02	-4.69855070e+01	1.55030296e+02	-1.28396108e+00	-1.50940244e+02
718926571.429	-1.01340408e-01	-2.59827462e+01	-4.68533306e+01	1.54803562e+02	-4.70061995e+01	1.54453394e+02	-1.28602151e+00	-1.51062977e+02
719212142.857	-1.02382200e-01	-2.59611581e+01	-4.69360679e+01	1.54371858e+02	-4.70333276e+01	1.54238937e+02	-1.28441320e+00	-1.51275572e+02
719497714.286	-1.06144778e-01	-2.59927815e+01	-4.69478054e+01	1.54038844e+02	-4.70629590e+01	1.53660573e+02	-1.28439235e+00	-1.51433648e+02
719783285.714	-1.03229954e-01	-2.60013003e+01	-4.69533514e+01	1.53704764e+02	-4.70422061e+01	1.53072361e+02	-1.27885754e+00	-1.51630197e+02
720068857.143	-1.01033964e-01	-2.60105092e+01	-4.69975934e+01	1.53319158e+02	-4.70648535e+01	1.52791235e+02	-1.27702300e+00	-1.51826983e+02
720354428.571	-1.01955605e-01	-2.60385452e+01	-4.70027097e+01	1.52795063e+02	-4.70921712e+01	1.52643164e+02	-1.28414426e+00	-1.51946747e+02
720640000	-1.00313528e-01	-2.60622046e+01	-4.70134508e+01	1.52749425e+02	-4.71111273e+01	1.52362104e+02	-1.29179747e+00	-1.52128698e+02
720925571.429	-9.82161454e-02	-2.60915571e+01	-4.70616300e+01	1.52540485e+02	-4.71233950e+01	1.51879583e+02	-1.29004546e+00	-1.52260745e+02
721211142.857	-9.75947694e-02	-2.61063724e+01	-4.70640571e+01	1.52074622e+02	-4.71313323e+01	1.51832121e+02	-1.29339896e+00	-1.52331357e+02
721496714.286	-9.51387570e-02	-2.61132744e+01	-4.70799085e+01	1.51910685e+02	-4.71898718e+01	1.51664293e+02	-1.29440035e+00	-1.52421808e+02
721782285.714	-9.46165713e-02	-2.60980803e+01	-4.71035426e+01	1.51672491e+02	-4.71994335e+01	1.51348326e+02	-1.30499679e+00	-1.52547914e+02
722067857.143	-9.32999749e-02	-2.61269032e+01	-4.70559672e+01	1.51410645e+02	-4.72357960e+01	1.51120309e+02	-1.30692078e+00	-1.52657980e+02
722353428.571	-9.06394540e-02	-2.61533763e+01	-4.71460854e+01	1.51350677e+02	-4.72189183e+01	1.50945693e+02	-1.31066001e+00	-1.52715506e+02
722639000	-9.30210359e-02	-2.61593703e+01	-4.71199471e+01	1.50915220e+02	-4.72196495e+01	1.50905081e+02	-1.31823968e+00	-1.52868287e+02
722924571.429	-8.74712237e-02	-2.61497914e+01	-4.71248694e+01	1.50727703e+02	-4.72455529e+01	1.50741776e+02	-1.31527191e+00	-1.52998663e+02
723210142.857	-9.24394359e-02	-2.61943560e+01	-4.71502276e+01	1.50787831e+02	-4.72565791e+01	1.50364855e+02	-1.32447641e+00	-1.53184776e+02
723495714.286	-8.91750431e-02	-2.62026248e+01	-4.71408125e+01	1.50573089e+02	-4.72355975e+01	1.50630023e+02	-1.32897864e+00	-1.53308204e+02
723781285.714	-9.12463360e-02	-2.62438304e+01	-4.71357593e+01	1.50209445e+02	-4.72397513e+01	1.50131451e+02	-1.32731125e+00	-1.53419162e+02
724066857.143	-9.08477316e-02	-2.62431514e+01	-4.71673799e+01	1.49997079e+02	-4.72216649e+01	1.50037294e+02	-1.34081802e+00	-1.53562145e+02
724352428.571	-9.42163702e-02	-2.62482753e+01	-4.71041476e+01	1.50005714e+02	-4.71974085e+01	1.49927419e+02	-1.34694271e+00	-1.53753036e+02
724638000	-9.65054118e-02	-2.62405097e+01	-4.71106604e+01	1.50046932e+02	-4.72297096e+01	1.49695065e+02	-1.35420653e+00	-1.53831224e+02
724923571.429	-9.27516528e-02	-2.62830539e+01	-4.71317026e+01	1.49525321e+02	-4.71874711e+01	1.49646416e+02	-1.35871324e+00	-1.54039692e+02
725209142.857	-9.37726616e-02	-2.62446108e+01	-4.71395876e+01	1.49527407e+02	-4.71988066e+01	1.49287719e+02	-1.36148020e+00	-1.54159374e+02
725494714.286	-9.54173319e-02	-2.62831490e+01	-4.70717560e+01	1.49317089e+02	-4.71647926e+01	1.49320641e+02	-1.37244458e+00	-1.54305022e+02
725780285.714	-9.41922043e-02	-2.62506189e+01	-4.71106730e+01	1.49178650e+02	-4.71714375e+01	1.49100834e+02	-1.37801753e+00	-1.54478383e+02
726065857.143	-9.89819872e-02	-2.62736352e+01	-4.70807805e+01	1.49057632e+02	-4.71419441e+01	1.48907756e+02	-1.38473779e+00	-1.54611331e+02
726351428.571	-9.63551882e-02	-2.62892161e+01	-4.70633354e+01	1.49032967e+02	-4.71169552e+01	1.48812251e+02	-1.37918963e+00	-1.54703813e+02
726637000	-9.45826760e-02	-2.63199342e+01	-4.70652725e+01	1.48698313e+02	-4.70787359e+01	1.48552946e+02	-1.38269928e+00	-1.54802173e+02
726922571.429	-9.32243852e-02	-2.63131104e+01	-4.70263941e+01	1.48526930e+02	-4.70853474e+01	1.48721401e+02	-1.39962866e+00	-1.54962664e+02
727208142.857	-9.22920696e-02	-2.63317736e+01	-4.70092148e+01	1.48801801e+02	-4.70519466e+01	1.48417413e+02	-1.40204164e+00	-1.55101386e+02
727493714.286	-9.25179618e-02	-2.63566462e+01	-4.69274382e+01	1.48538333e+02	-4.70124506e+01	1.48215250e+02	-1.39400041e+00	-1.55216578e+02
727779285.714	-9.53347382e-02	-2.63699601e+01	-4.69285739e+01	1.48655023e+02	-4.69843436e+01	1.47986861e+02	-1.39978729e+00	-1.55351771e+02
728064857.143	-9.84000503e-02	-2.63613258e+01	-4.69070260e+01	1.48333270e+02	-4.69480082e+01	1.47919474e+02	-1.40381920e+00	-1.55493469e+02
728350428.571	-9.35698096e-02	-2.63708178e+01	-4.68802218e+01	1.48257197e+02	-4.69369950e+01	1.47846357e+02	-1.41203247e+00	-1.55658102e+02
728636000	-9.48583829e-02	-2.63831692e+01	-4.68343202e+01	1.48135699e+02	-4.68839627e+01	1.47873213e+02	-1.41918392e+00	-1.55786044e+02
728921571.429	-9.45187229e-02	-2.64135302e+01	-4.68260925e+01	1.47995731e+02	-4.68777308e+01	1.47451031e+02	-1.42342061e+00	-1.55978043e+02
729207142.857	-9.23836749e-02	-2.63982377e+01	-4.67226121e+01	1.47854900e+02	-4.68373891e+01	1.47077241e+02	-1.42831457e+00	-1.56104076e+02
729492714.286	-9.24479523e-02	-2.64266318e+01	-4.66609972e+01	1.47849538e+02	-4.67899667e+01	1.46999553e+02	-1.43003097e+00	-1.56246657e+02
729778285.714	-9.16597731e-02	-2.64320731e+01	-4.66382532e+01	1.47837758e+02	-4.67754515e+01	1.46883658e+02	-1.43022645e+00	-1.56418855e+02
730063857.143	-9.40800672e-02	-2.64370588e+01	-4.65925139e+01	1.47415248e+02	-4.67216882e+01	1.46785353e+02	-1.43285421e+00	-1.56543577e+02
730349428.571	-9.10470635e-02	-2.64343508e+01	-4.65428284e+01	1.47258914e+02	-4.66574980e+01	1.46227657e+02	-1.43445858e+00	-1.56665127e+02
730635000	-9.40449492e-02	-2.64391833e+01	-4.64794968e+01	1.47335115e+02	-4.66110754e+01	1.46341915e+02	-1.43276851e+00	-1.56808410e+02
730920571.429	-9.78540904e-02	-2.64748073e+01	-4.64430512e+01	1.46762882e+02	-4.65491742e+01	1.45948361e+02	-1.42371908e+00	-1.56929253e+02
731206142.857	-9.34154886e-02	-2.64962229e+01	-4.63741792e+01	1.46678701e+02	-4.65387073e+01	1.45709941e+02	-1.43411577e+00	-1.57072330e+02
731491714.286	-9.04659256e-02	-2.65242962e+01	-4.63559172e+01	1.46398919e+02	-4.64751029e+01	1.45547552e+02	-1.44429948e+00	-1.57265897e+02
731777285.714	-9.00735934e-02	-2.65018442e+01	-4.62736087e+01	1.46163983e+02	-4.64425841e+01	1.45220534e+02	-1.45312263e+00	-1.57409049e+02
732062857.143	-8.90028875e-02	-2.64938154e+01	-4.61706915e+01	1.45682795e+02	-4.63378796e+01	1.44838724e+02	-1.45777838e+00	-1.57572412e+02
732348428.571	-8.94733300e-02	-2.65113900e+01	-4.60860694e+01	1.45612766e+02	-4.63099160e+01	1.44750132e+02	-1.46339367e+00	-1.57670692e+02
732634000	-9.26102700e-02	-2.65185895e+01	-4.60640350e+01	1.45272128e+02	-4.62795881e+01	1.44477582e+02	-1.47196113e+00	-1.57766534e+02
732919571.429	-9.23221318e-02	-2.64902300e+01	-4.59885106e+01	1.44902624e+02	-4.61944739e+01	1.44083068e+02	-1.47768502e+00	-1.57880302e+02
733205142.857	-9.41488277e-02	-2.65492354e+01	-4.59117189e+01	1.44471062e+02	-4.61273513e+01	1.43818760e+02	-1.47997761e+00	-1.58064463e+02
733490714.286	-9.09583004e-02	-2.65613043e+01	-4.58850042e+01	1.44123667e+02	-4.61012645e+01	1.43458177e+02	-1.48482423e+00	-1.58208465e+02
733776285.714	-1.00799239e-01	-2.65672345e+01	-4.58108997e+01	1.43824659e+02	-4.60354178e+01	1.43019404e+02	-1.48843739e+00	-1.58324854e+02
734061857.143	-9.76483725e-02	-2.65702407e+01	-4.57379937e+01	1.43547670e+02	-4.59977835e+01	1.42677496e+02	-1.49572991e+00	-1.58465520e+02
734347428.571	-9.67385360e-02	-2.65686597e+01	-4.57105795e+01	1.42911668e+02	-4.59395696e+01	1.42332478e+02	-1.49459582e+00	-1.58611455e+02
734633000	-1.02692569e-01	-2.65786712e+01	-4.56149456e+01	1.42602864e+02	-4.58827549e+01	1.41921510e+02	-1.49400005e+00	-1.58794250e+02
734918571.429	-1.00163339e-01	-2.65722097e+01	-4.55788238e+01	1.42243094e+02	-4.58409417e+01	1.41391068e+02	-1.49953801e+00	-1.58980364e+02
735204142.857	-1.01294680e-01	-2.65978926e+01	-4.55149665e+01	1.41668783e+02	-4.57623811e+01	1.41257800e+02	-1.50808092e+00	-1.59114249e+02
735489714.286	-1.02164888e-01	-2.65796691e+01	-4.55052119e+01	1.41148400e+02	-4.57290740e+01	1.40653506e+02	-1.51942436e+00	-1.59286299e+02
735775285.714	-9.80735470e-02	-2.65866510e+01	-4.54135263e+01	1.40485945e+02	-4.56542742e+01	1.40331785e+02	-1.52115717e+00	-1.59427558e+02
736060857.143	-9.80681924e-02	-2.65878875e+01	-4.53784732e+01	1.40485965e+02	-4.56347260e+01	1.39892195e+02	-1.53465066e+00	-1.59673322e+02
736346428.571	-1.01534301e-01	-2.65825241e+01	-4.52988339e+01	1.39808616e+02	-4.55890227e+01	1.39500601e+02	-1.53733793e+00	-1.59762392e+02
736632000	-1.04221875e-01	-2.66035667e+01	-4.53084895e+01	1.39614613e+02	-4.55201789e+01	1.39128341e+02	-1.53797533e+00	-1.59899248e+02
736917571.429	-1.04445951e-01	-2.66131283e+01	-4.51975993e+01	1.38936013e+02	-4.54721842e+01	1.38895550e+02	-1.54076788e+00	-1.60044477e+02
737203142.857	-1.01695207e-01	-2.66064520e+01	-4.51231239e+01	1.38409391e+02	-4.54367465e+01	1.38330092e+02	-1.54350893e+00	-1.60230760e+02
737488714.286	-1.03313357e-01	-2.66260015e+01	-4.51058038e+01	1.38018656e+02	-4.53764259e+01	1.37908691e+02	-1.54570649e+00	-1.60385923e+02
737774285.714	-1.03098370e-01	-2.66152950e+01	-4.50530091e+01	1.37637304e+02	-4.53396165e+01	1.37323106e+02	-1.54675601e+00	-1.60515635e+02
738059857.143	-1.00576982e-01	-2.66405098e+01	-4.50244689e+01	1.36976765e+02	-4.52768054e+01	1.36974132e+02	-1.55550945e+00	-1.60678287e+02
738345428.571	-9.82589398e-02	-2.66441271e+01	-4.49863019e+01	1.36701694e+02	-4.51938703e+01	1.36555268e+02	-1.56153257e+00	-1.60843694e+02
738631000	-9.85215070e-02	-2.66605595e+01	-4.49198626e+01	1.35977167e+02	-4.51656765e+01	1.35964638e+02	-1.56996428e+00	-1.60985876e+02
738916571.429	-1.02693204e-01	-2.66256556e+01	-4.48890987e+01	1.35463508e+02	-4.51176736e+01	1.35725493e+02	-1.57881130e+00	-1.61178085e+02
739202142.857	-1.05684100e-01	-2.66691856e+01	-4.48573398e+01	1.35299649e+02	-4.50801914e+01	1.35152579e+02	-1.59234922e+00	-1.61363785e+02
739487714.286	-1.04915378e-01	-2.66687769e+01	-4.47869504e+01	1.34767333e+02	-4.50313268e+01	1.34921526e+02	-1.59368882e+00	-1.61501679e+02
739773285.714	-1.06594920e-01	-2.66443347e+01	-4.47650129e+01	1.34137407e+02	-4.49735065e+01	1.34565015e+02	-1.60001161e+00	-1.61717146e+02
740058857.143	-1.08158328e-01	-2.66834347e+01	-4.47217297e+01	1.33763694e+02	-4.49343088e+01	1.33785287e+02	-1.59997941e+00	-1.61880094e+02
740344428.571	-1.06621609e-01	-2.66573051e+01	-4.46733789e+01	1.33520503e+02	-4.48955678e+01	1.33470240e+02	-1.60556545e+00	-1.62009538e+02
740630000	-1.06711242e-01	-2.66725250e+01	-4.46334828e+01	1.32803044e+02	-4.48297613e+01	1.33062363e+02	-1.60935921e+00	-1.62132652e+02
740915571.429	-1.07577904e-01	-2.66594955e+01	-4.46076965e+01	1.32382840e+02	-4.48050568e+01	1.32409427e+02	-1.61704429e+00	-1.62286776e+02
741201142.857	-1.10433880e-01	-2.66819858e+01	-4.45112380e+01	1.32158893e+02	-4.47295937e+01	1.32009965e+02	-1.62405898e+00	-1.62367601e+02
741486714.286	-1.10806492e-01	-2.66639208e+01	-4.44505590e+01	1.31527557e+02	-4.46967427e+01	1.31544497e+02	-1.63120396e+00	-1.62577109e+02
741772285.714	-1.07945847e-01	-2.66692119e+01	-4.44479313e+01	1.31193233e+02	-4.46403807e+01	1.31158159e+02	-1.64306833e+00	-1.62766742e+02
742057857.143	-1.10436901e-01	-2.66605185e+01	-4.43676523e+01	1.30689480e+02	-4.45768152e+01	1.30700375e+02	-1.63837559e+00	-1.62906379e+02
742343428.571	-1.09850523e-01	-2.66694849e+01	-4.42848610e+01	1.30133103e+02	-4.45242572e+01	1.30097328e+02	-1.64469208e+00	-1.63052528e+02
742629000	-1.10773031e-01	-2.66900486e+01	-4.42647114e+01	1.29775238e+02	-4.44716482e+01	1.29604510e+02	-1.65232815e+00	-1.63177564e+02
742914571.429	-1.12034447e-01	-2.66829613e+01	-4.41891680e+01	1.29474072e+02	-4.43851473e+01	1.29058142e+02	-1.65513911e+00	-1.63352090e+02
743200142.857	-1.10463652e-01	-2.66952376e+01	-4.41563567e+01	1.28706194e+02	-4.43612089e+01	1.28532289e+02	-1.65631863e+00	-1.63536288e+02
743485714.286	-1.12032589e-01	-2.66807001e+01	-4.41162573e+01	1.28122874e+02	-4.42964661e+01	1.28027031e+02	-1.66293287e+00	-1.63654115e+02
743771285.714	-1.09989628e-01	-2.66872584e+01	-4.40495411e+01	1.27466208e+02	-4.42188208e+01	1.27333558e+02	-1.66794227e+00	-1.63850401e+02
744056857.143	-1.12069265e-01	-2.66986230e+01	-4.39950607e+01	1.26920394e+02	-4.41663753e+01	1.26857096e+02	-1.67804075e+00	-1.64027946e+02
744342428.571	-1.14431703e-01	-2.66972508e+01	-4.39218162e+01	1.26592106e+02	-4.41442583e+01	1.26301936e+02	-1.68102647e+00	-1.64186370e+02
744628000	-1.13666058e-01	-2.67028673e+01	-4.38809087e+01	1.25793212e+02	-4.40902385e+01	1.25739720e+02	-1.69131796e+00	-1.64308268e+02
744913571.429	-1.13466943e-01	-2.67116658e+01	-4.37841497e+01	1.25390492e+02	-4.40397153e+01	1.25192634e+02	-1.69571122e+00	-1.64474303e+02
745199142.857	-1.13452635e-01	-2.67212837e+01	-4.37416543e+01	1.24709947e+02	-4.39934228e+01	1.24514469e+02	-1.69548960e+00	-1.64613314e+02
745484714.286	-1.17591992e-01	-2.67114044e+01	-4.37133282e+01	1.24305203e+02	-4.39070688e+01	1.23907793e+02	-1.69870284e+00	-1.64802108e+02
745770285.714	-1.19929503e-01	-2.67207545e+01	-4.36370215e+01	1.23670097e+02	-4.38616397e+01	1.23253067e+02	-1.70675022e+00	-1.64949817e+02
746055857.143	-1.19293036e-01	-2.67221806e+01	-4.35711611e+01	1.23188045e+02	-4.38302084e+01	1.22619805e+02	-1.71538900e+00	-1.65055150e+02
746341428.571	-1.18671048e-01	-2.67214532e+01	-4.35311548e+01	1.22315130e+02	-4.37637417e+01	1.22115444e+02	-1.71148056e+00	-1.65218717e+02
746627000	-1.19483632e-01	-2.67275068e+01	-4.34650319e+01	1.21730059e+02	-4.37336548e+01	1.21624942e+02	-1.71869927e+00	-1.65358267e+02
746912571.429	-1.23092670e-01	-2.67395442e+01	-4.33963388e+01	1.21027282e+02	-4.36514664e+01	1.20930034e+02	-1.71837497e+00	-1.65463602e+02
747198142.857	-1.22351439e-01	-2.67355457e+01	-4.33573439e+01	1.20503154e+02	-4.35984126e+01	1.20200628e+02	-1.72382276e+00	-1.65639240e+02
747483714.286	-1.27506396e-01	-2.67498346e+01	-4.33049508e+01	1.19716606e+02	-4.35533357e+01	1.19427869e+02	-1.72853959e+00	-1.65815589e+02
747769285.714	-1.28352151e-01	-2.67393998e+01	-4.32395900e+01	1.18607223e+02	-4.34946480e+01	1.18781550e+02	-1.73176118e+00	-1.65978931e+02
748054857.143	-1.29436243e-01	-2.67471332e+01	-4.32728497e+01	1.18495925e+02	-4.34408883e+01	1.18155024e+02	-1.74167730e+00	-1.66190166e+02
748340428.571	-1.25832421e-01	-2.67454000e+01	-4.31521649e+01	1.17445240e+02	-4.33820361e+01	1.17311042e+02	-1.74449594e+00	-1.66376108e+02
748626000	-1.28894350e-01	-2.67514604e+01	-4.30977455e+01	1.16800125e+02	-4.33626522e+01	1.16698598e+02	-1.74582479e+00	-1.66509841e+02
748911571.429	-1.32717226e-01	-2.67696146e+01	-4.30358501e+01	1.15959395e+02	-4.33088426e+01	1.15833849e+02	-1.75749389e+00	-1.66667351e+02
749197142.857	-1.35468038e-01	-2.67578483e+01	-4.29739354e+01	1.15278153e+02	-4.34371486e+01	1.15056221e+02	-1.76164705e+00	-1.66799454e+02
749482714.286	-1.35492923e-01	-2.67499541e+01	-4.29729855e+01	1.14456839e+02	-4.33528808e+01	1.14427915e+02	-1.76731604e+00	-1.66972567e+02
749768285.714	-1.36190904e-01	-2.67841338e+01	-4.29239792e+01	1.13570506e+02	-4.33357082e+01	1.13717512e+02	-1.76732103e+00	-1.67145848e+02
750053857.143	-1.38536750e-01	-2.67822003e+01	-4.28933953e+01	1.12832447e+02	-4.32413146e+01	1.12881303e+02	-1.77076652e+00	-1.67290466e+02
750339428.571	-1.40325882e-01	-2.67864729e+01	-4.28730918e+01	1.12021650e+02	-4.32449634e+01	1.12572700e+02	-1.76625129e+00	-1.67439020e+02
750625000	-1.42777435e-01	-2.68020006e+01	-4.27951759e+01	1.11135883e+02	-4.32201304e+01	1.11131340e+02	-1.76889648e+00	-1.67621402e+02
750910571.429	-1.44745578e-01	-2.68122231e+01	-4.27600022e+01	1.10319872e+02	-4.32005603e+01	1.10830527e+02	-1.76526740e+00	-1.67749879e+02
751196142.857	-1.41332173e-01	-2.68028431e+01	-4.27003437e+01	1.09299994e+02	-4.31350395e+01	1.09774094e+02	-1.76913693e+00	-1.67893800e+02
751481714.286	-1.43874610e-01	-2.68067921e+01	-4.27362638e+01	1.08674198e+02	-4.31601798e+01	1.09025626e+02	-1.76934113e+00	-1.68074524e+02
751767285.714	-1.43597747e-01	-2.68224295e+01	-4.26944462e+01	1.07586789e+02	-4.31042769e+01	1.08451779e+02	-1.77567954e+00	-1.68219486e+02
752052857.143	-1.44862703e-01	-2.68368726e+01	-4.27227149e+01	1.06960419e+02	-4.30815399e+01	1.06813337e+02	-1.77782577e+00	-1.68314579e+02
752338428.571	-1.46260403e-01	-2.68178701e+01	-4.26321026e+01	1.06054889e+02	-4.30181737e+01	1.06503316e+02	-1.77897592e+00	-1.68488239e+02
752624000	-1.48234802e-01	-2.68422983e+01	-4.26474798e+01	1.05182039e+02	-4.30800923e+01	1.05922225e+02	-1.78193374e+00	-1.68644459e+02
752909571.429	-1.44963072e-01	-2.68391726e+01	-4.26046053e+01	1.04132725e+02	-4.30364186e+01	1.04574505e+02	-1.78143264e+00	-1.68797145e+02
753195142.857	-1.43959939e-01	-2.68395829e+01	-4.26172115e+01	1.03439432e+02	-4.30161665e+01	1.03835848e+02	-1.78755920e+00	-1.68934748e+02
753480714.286	-1.44142256e-01	-2.68296376e+01	-4.25627915e+01	1.02605049e+02	-4.30136857e+01	1.02871525e+02	-1.79448428e+00	-1.69084292e+02
753766285.714	-1.47798129e-01	-2.68521440e+01	-4.25719310e+01	1.01535372e+02	-4.29473469e+01	1.01941054e+02	-1.79928562e+00	-1.69252170e+02
754051857.143	-1.49862649e-01	-2.68564846e+01	-4.26195167e+01	1.00762220e+02	-4.29896038e+01	1.01707655e+02	-1.80251037e+00	-1.69420425e+02
754337428.571	-1.51921529e-01	-2.68314627e+01	-4.25455553e+01	1.00074969e+02	-4.29453489e+01	1.00721447e+02	-1.80336351e+00	-1.69573400e+02
754623000	-1.50769723e-01	-2.68289467e+01	-4.25313378e+01	9.91916993e+01	-4.29168543e+01	9.96449563e+01	-1.80724501e+00	-1.69751500e+02
754908571.429	-1.51053060e-01	-2.68347354e+01	-4.25649578e+01	9.84295846e+01	-4.29627991e+01	9.88749897e+01	-1.81069954e+00	-1.69912332e+02
755194142.857	-1.50651108e-01	-2.68644928e+01	-4.25607996e+01	9.76872457e+01	-4.29466026e+01	9.84424596e+01	-1.81642030e+00	-1.70013599e+02
755479714.286	-1.51628749e-01	-2.68601004e+01	-4.25517578e+01	9.70140683e+01	-4.29339259e+01	9.75969058e+01	-1.81865204e+00	-1.70144815e+02
755765285.714	-1.52444984e-01	-2.68568020e+01	-4.25869024e+01	9.61311603e+01	-4.29583566e+01	9.69884582e+01	-1.81803622e+00	-1.70333889e+02
756050857.143	-1.53619759e-01	-2.68417187e+01	-4.25741388e+01	9.52652721e+01	-4.29679397e+01	9.60240759e+01	-1.82419921e+00	-1.70455921e+02
756336428.571	-1.53124318e-01	-2.68734745e+01	-4.25750170e+01	9.45093711e+01	-4.29491228e+01	9.54787807e+01	-1.82536897e+00	-1.70603211e+02
756622000	-1.52665762e-01	-2.68777113e+01	-4.25817250e+01	9.37598951e+01	-4.29272152e+01	9.44160367e+01	-1.82337648e+00	-1.70752615e+02
756907571.429	-1.53426067e-01	-2.68863267e+01	-4.26020883e+01	9.29149005e+01	-4.29112837e+01	9.32729571e+01	-1.82568948e+00	-1.70964362e+02
757193142.857	-1.55828385e-01	-2.68994276e+01	-4.25955341e+01	9.21877792e+01	-4.29406713e+01	9.29835418e+01	-1.82642080e+00	-1.71131460e+02
757478714.286	-1.56021226e-01	-2.69028384e+01	-4.26335408e+01	9.13774015e+01	-4.28928146e+01	9.21151864e+01	-1.83112582e+00	-1.71330263e+02
757764285.714	-1.58164877e-01	-2.69007816e+01	-4.26172842e+01	9.05861660e+01	-4.28989177e+01	9.13854660e+01	-1.83831696e+00	-1.71483641e+02
758049857.143	-1.59431572e-01	-2.68961862e+01	-4.26318830e+01	8.98203354e+01	-4.29490320e+01	9.05788954e+01	-1.84050584e+00	-1.71637353e+02
758335428.571	-1.58889087e-01	-2.69141577e+01	-4.26460301e+01	8.93070044e+01	-4.29218366e+01	8.97390781e+01	-1.84845943e+00	-1.71758882e+02
758621000	-1.57207820e-01	-2.69334096e+01	-4.26404736e+01	8.85022335e+01	-4.29034889e+01	8.88296583e+01	-1.85662134e+00	-1.71863136e+02
758906571.429	-1.63038726e-01	-2.69464962e+01	-4.26660607e+01	8.76089979e+01	-4.29953187e+01	8.77922413e+01	-1.85389131e+00	-1.72021606e+02
759192142.857	-1.63754649e-01	-2.69416463e+01	-4.26742645e+01	8.69509209e+01	-4.29369713e+01	8.73178335e+01	-1.86614537e+00	-1.72202804e+02
759477714.286	-1.67400253e-01	-2.69810323e+01	-4.26638103e+01	8.61132755e+01	-4.29989445e+01	8.62416650e+01	-1.86455213e+00	-1.72369751e+02
759763285.714	-1.68313589e-01	-2.69910937e+01	-4.26893288e+01	8.54184514e+01	-4.29801342e+01	8.56170792e+01	-1.87531497e+00	-1.72544621e+02
760048857.143	-1.64657819e-01	-2.69758033e+01	-4.26826184e+01	8.46801967e+01	-4.30061890e+01	8.46057823e+01	-1.87837895e+00	-1.72705764e+02
760334428.571	-1.63440537e-01	-2.69831118e+01	-4.26741629e+01	8.39302471e+01	-4.30044028e+01	8.40510586e+01	-1.89264528e+00	-1.72863382e+02
760620000	-1.61976791e-01	-2.69931079e+01	-4.26945037e+01	8.31727671e+01	-4.30049534e+01	8.34639879e+01	-1.89275549e+00	-1.73039741e+02
760905571.429	-1.63392734e-01	-2.70167185e+01	-4.27065666e+01	8.22599334e+01	-4.30706259e+01	8.23383706e+01	-1.88908906e+00	-1.73196196e+02
761191142.857	-1.63051399e-01	-2.70452729e+01	-4.27195431e+01	8.17273270e+01	-4.30347736e+01	8.14055775e+01	-1.89488867e+00	-1.73336051e+02
761476714.286	-1.61802232e-01	-2.70258988e+01	-4.27439341e+01	8.07828172e+01	-4.30234640e+01	8.08872147e+01	-1.89865557e+00	-1.73436837e+02
761762285.714	-1.64319163e-01	-2.70477828e+01	-4.27451587e+01	8.00630703e+01	-4.31122281e+01	7.97472572e+01	-1.90677618e+00	-1.73576283e+02
762047857.143	-1.63711087e-01	-2.70363307e+01	-4.27393341e+01	7.92641359e+01	-4.30787987e+01	7.92261506e+01	-1.91226536e+00	-1.73648307e+02
762333428.571	-1.64600289e-01	-2.70595086e+01	-4.27459954e+01	7.83079865e+01	-4.31508130e+01	7.81761584e+01	-1.91810377e+00	-1.73781639e+02
762619000	-1.66160118e-01	-2.70483942e+01	-4.28107068e+01	7.78224791e+01	-4.31237552e+01	7.76206397e+01	-1.92348231e+00	-1.73884827e+02
762904571.429	-1.68139929e-01	-2.70755041e+01	-4.27981040e+01	7.66880220e+01	-4.32191143e+01	7.65345464e+01	-1.92176800e+00	-1.74023028e+02
763190142.857	-1.66477648e-01	-2.71011096e+01	-4.28304918e+01	7.59401860e+01	-4.33005364e+01	7.60359842e+01	-1.92417008e+00	-1.74172313e+02
763475714.286	-1.66410196e-01	-2.71144156e+01	-4.28162043e+01	7.51032552e+01	-4.32398651e+01	7.48462757e+01	-1.93554650e+00	-1.74324223e+02
763761285.714	-1.68389264e-01	-2.71115643e+01	-4.28875820e+01	7.42698775e+01	-4.33142916e+01	7.41320620e+01	-1.94113571e+00	-1.74505622e+02
764046857.143	-1.65212706e-01	-2.71326598e+01	-4.29152392e+01	7.33999600e+01	-4.33629054e+01	7.34140099e+01	-1.95125870e+00	-1.74708783e+02
764332428.571	-1.65275185e-01	-2.71503640e+01	-4.29320307e+01	7.26997722e+01	-4.34196164e+01	7.26119677e+01	-1.95617001e+00	-1.74908059e+02
764618000	-1.64619804e-01	-2.71588910e+01	-4.29749050e+01	7.18497641e+01	-4.34158327e+01	7.19683112e+01	-1.96628292e+00	-1.75051941e+02
764903571.429	-1.67948494e-01	-2.71799242e+01	-4.29974407e+01	7.09081047e+01	-4.35038323e+01	7.09592320e+01	-1.96822275e+00	-1.75204228e+02
765189142.857	-1.66278534e-01	-2.72027398e+01	-4.30407082e+01	6.99989227e+01	-4.35873604e+01	6.98703991e+01	-1.97574170e+00	-1.75354698e+02
765474714.286	-1.69543747e-01	-2.72263164e+01	-4.30825117e+01	6.92315358e+01	-4.36049279e+01	6.93211904e+01	-1.98265853e+00	-1.75469355e+02
765760285.714	-1.70628545e-01	-2.72357681e+01	-4.31318404e+01	6.85057754e+01	-4.36174442e+01	6.83139014e+01	-1.99114731e+00	-1.75629231e+02
766045857.143	-1.67204036e-01	-2.72195744e+01	-4.31668157e+01	6.75488898e+01	-4.37260939e+01	6.79922932e+01	-1.99122057e+00	-1.75724590e+02
766331428.571	-1.65516407e-01	-2.72056978e+01	-4.32075350e+01	6.67429042e+01	-4.38246265e+01	6.72939733e+01	-2.00193183e+00	-1.75846370e+02
766617000	-1.67929301e-01	-2.72140423e+01	-4.32631733e+01	6.59217249e+01	-4.37902791e+01	6.63885783e+01	-2.01285507e+00	-1.75975462e+02
766902571.429	-1.69017863e-01	-2.72493640e+01	-4.33153861e+01	6.49629547e+01	-4.38521854e+01	6.49606976e+01	-2.02350790e+00	-1.76179704e+02
767188142.857	-1.68251280e-01	-2.72460262e+01	-4.33749595e+01	6.41782724e+01	-4.38788800e+01	6.44980294e+01	-2.03630234e+00	-1.76284607e+02
767473714.286	-1.69620888e-01	-2.72715269e+01	-4.34122590e+01	6.32841244e+01	-4.39772503e+01	6.39236106e+01	-2.04404126e+00	-1.76460089e+02
767759285.714	-1.67831342e-01	-2.73089274e+01	-4.34978092e+01	6.23509400e+01	-4.40817789e+01	6.28071434e+01	-2.04308954e+00	-1.76599062e+02
768044857.143	-1.69725934e-01	-2.73239949e+01	-4.35470489e+01	6.15122236e+01	-4.41073446e+01	6.24647139e+01	-2.04381074e+00	-1.76794422e+02
768330428.571	-1.68813595e-01	-2.73265712e+01	-4.36276472e+01	6.07569469e+01	-4.41706151e+01	6.13049810e+01	-2.04855881e+00	-1.76997932e+02
768616000	-1.66965302e-01	-2.73133292e+01	-4.38485016e+01	5.95723683e+01	-4.42390416e+01	6.06319088e+01	-2.05733074e+00	-1.77209357e+02
768901571.429	-1.63919398e-01	-2.73142246e+01	-4.37806738e+01	5.99518942e+01	-4.43291558e+01	5.98688130e+01	-2.06533521e+00	-1.77357129e+02
769187142.857	-1.60680110e-01	-2.73514058e+01	-4.38392973e+01	5.78790069e+01	-4.44392593e+01	5.92086242e+01	-2.07297811e+00	-1.77519272e+02
769472714.286	-1.61579914e-01	-2.73735921e+01	-4.39358103e+01	5.70927074e+01	-4.44537007e+01	5.84568211e+01	-2.07840232e+00	-1.77641934e+02
769758285.714	-1.66780464e-01	-2.73912565e+01	-4.41012791e+01	5.66478746e+01	-4.45412523e+01	5.74663572e+01	-2.08613678e+00	-1.77848614e+02
770043857.143	-1.65916256e-01	-2.74009180e+01	-4.41428875e+01	5.56668263e+01	-4.46802493e+01	5.67015631e+01	-2.09137910e+00	-1.77966768e+02
770329428.571	-1.64112478e-01	-2.74427195e+01	-4.42524396e+01	5.49379795e+01	-4.48433912e+01	5.62395558e+01	-2.09816236e+00	-1.78178311e+02
770615000	-1.66352936e-01	-2.74367368e+01	-4.42690469e+01	5.43934510e+01	-4.49348034e+01	5.55014267e+01	-2.10778089e+00	-1.78270440e+02
770900571.429	-1.64637278e-01	-2.74303134e+01	-4.44848637e+01	5.42104840e+01	-4.50047228e+01	5.46280592e+01	-2.11237567e+00	-1.78445592e+02
771186142.857	-1.61786086e-01	-2.74699138e+01	-4.45646173e+01	5.28455571e+01	-4.50893373e+01	5.40078397e+01	-2.10897161e+00	-1.78561957e+02
771471714.286	-1.60758645e-01	-2.74865663e+01	-4.46359275e+01	5.21084523e+01	-4.54141315e+01	5.36453086e+01	-2.11822489e+00	-1.78669284e+02
771757285.714	-1.61147788e-01	-2.74965321e+01	-4.47877042e+01	5.14083153e+01	-4.56034332e+01	5.31640035e+01	-2.13113096e+00	-1.78782555e+02
772042857.143	-1.61092542e-01	-2.75000778e+01	-4.50218618e+01	5.09897105e+01	-4.55902214e+01	5.24758027e+01	-2.13390330e+00	-1.78938740e+02
772328428.571	-1.61072520e-01	-2.75044970e+01	-4.49925737e+01	5.04600184e+01	-4.57446778e+01	5.16478825e+01	-2.13672931e+00	-1.79148713e+02
772614000	-1.57603405e-01	-2.75237796e+01	-4.51436329e+01	4.97555656e+01	-4.57997019e+01	5.13787555e+01	-2.14320119e+00	-1.79322774e+02
772899571.429	-1.61826784e-01	-2.75455855e+01	-4.52784960e+01	4.87494756e+01	-4.59769410e+01	5.07920194e+01	-2.15813562e+00	-1.79487334e+02
773185142.857	-1.57756858e-01	-2.75614792e+01	-4.53726049e+01	4.85936808e+01	-4.61958413e+01	4.97440853e+01	-2.15688533e+00	-1.79679025e+02
773470714.286	-1.57458610e-01	-2.75527955e+01	-4.55224088e+01	4.82391631e+01	-4.63593832e+01	5.02533253e+01	-2.17171076e+00	-1.79784902e+02
773756285.714	-1.57723734e-01	-2.75686601e+01	-4.56631490e+01	4.75847555e+01	-4.65057101e+01	4.98839390e+01	-2.18008038e+00	-1.79898638e+02
774041857.143	-1.55605137e-01	-2.75888127e+01	-4.58316943e+01	4.82112909e+01	-4.67302528e+01	4.94458184e+01	-2.19336272e+00	1.79913537e+02
774327428.571	-1.54078354e-01	-2.75966148e+01	-4.59515128e+01	4.67747138e+01	-4.69379835e+01	4.93199278e+01	-2.20250992e+00	1.79709497e+02
774613000	-1.47621365e-01	-2.75978169e+01	-4.61402283e+01	4.64334324e+01	-4.70069834e+01	4.92971691e+01	-2.21065167e+00	1.79535275e+02
774898571.429	-1.54073464e-01	-2.75881710e+01	-4.64064450e+01	4.64162064e+01	-4.71994661e+01	4.92518945e+01	-2.21832163e+00	1.79379744e+02
775184142.857	-1.55102195e-01	-2.76005537e+01	-4.64332653e+01	4.64140732e+01	-4.73502796e+01	4.91803641e+01	-2.22367303e+00	1.79287467e+02
775469714.286	-1.53758738e-01	-2.76006625e+01	-4.65806164e+01	4.57607469e+01	-4.74117508e+01	4.86054693e+01	-2.22861274e+00	1.79174565e+02
775755285.714	-1.53582288e-01	-2.76115310e+01	-4.67677554e+01	4.57913403e+01	-4.76172627e+01	4.89155061e+01	-2.23629674e+00	1.79005450e+02
776040857.143	-1.52186557e-01	-2.76010465e+01	-4.69892436e+01	4.58279199e+01	-4.78199445e+01	4.88845889e+01	-2.24124329e+00	1.78930265e+02
776326428.571	-1.54375503e-01	-2.76324539e+01	-4.71050750e+01	4.54298340e+01	-4.79748489e+01	4.96871305e+01	-2.24901351e+00	1.78809010e+02
776612000	-1.57458998e-01	-2.76178887e+01	-4.72879408e+01	4.58156301e+01	-4.81567595e+01	5.00038947e+01	-2.25679807e+00	1.78733410e+02
776897571.429	-1.56585522e-01	-2.76438175e+01	-4.74511647e+01	4.57304808e+01	-4.81053031e+01	4.97552523e+01	-2.25886130e+00	1.78615330e+02
777183142.857	-1.53634927e-01	-2.76401041e+01	-4.76290867e+01	4.62641044e+01	-4.82095381e+01	5.08552205e+01	-2.27329248e+00	1.78495303e+02
777468714.286	-1.53403066e-01	-2.76578679e+01	-4.78278428e+01	4.64680020e+01	-4.84393069e+01	5.09369813e+01	-2.27656853e+00	1.78310404e+02
777754285.714	-1.52990298e-01	-2.76627961e+01	-4.79841764e+01	4.68572168e+01	-4.84952720e+01	5.11481652e+01	-2.27595816e+00	1.78090991e+02
778039857.143	-1.56638302e-01	-2.76875275e+01	-4.81296896e+01	4.71851604e+01	-4.86505467e+01	5.17093455e+01	-2.28750910e+00	1.77929518e+02
778325428.571	-1.55386152e-01	-2.76818194e+01	-4.82136717e+01	4.77061413e+01	-4.88205115e+01	5.25008049e+01	-2.29663929e+00	1.77794423e+02
778611000	-1.55394193e-01	-2.77187668e+01	-4.83729916e+01	4.86326003e+01	-4.89023787e+01	5.28809068e+01	-2.30624902e+00	1.77698320e+02
778896571.429	-1.53157529e-01	-2.77184564e+01	-4.84673325e+01	4.82445847e+01	-4.89179463e+01	5.46192311e+01	-2.30809466e+00	1.77583032e+02
779182142.857	-1.52001259e-01	-2.77229970e+01	-4.86100704e+01	4.88761858e+01	-4.91020275e+01	5.51932125e+01	-2.31754029e+00	1.77402311e+02
779467714.286	-1.54040253e-01	-2.77498984e+01	-4.88122175e+01	5.08639464e+01	-4.92007114e+01	5.45648351e+01	-2.31740729e+00	1.77252217e+02
779753285.714	-1.53883531e-01	-2.77642576e+01	-4.86916364e+01	5.06793255e+01	-4.92690076e+01	5.62331946e+01	-2.32335559e+00	1.77076298e+02
780038857.143	-1.54187740e-01	-2.77698158e+01	-4.88450211e+01	5.19536233e+01	-4.91397457e+01	5.73737927e+01	-2.33072414e+00	1.76890053e+02
780324428.571	-1.49673441e-01	-2.77718152e+01	-4.89102483e+01	5.29903393e+01	-4.93517513e+01	5.75424574e+01	-2.34976592e+00	1.76780287e+02
780610000	-1.51440916e-01	-2.78135301e+01	-4.89699932e+01	5.27932787e+01	-4.92765700e+01	5.88075620e+01	-2.35296254e+00	1.76652010e+02
780895571.429	-1.50799147e-01	-2.78326379e+01	-4.90578644e+01	5.39762109e+01	-4.93276671e+01	5.95368326e+01	-2.35448315e+00	1.76528264e+02
781181142.857	-1.49284278e-01	-2.78663276e+01	-4.90712266e+01	5.45263491e+01	-4.92616273e+01	5.98813627e+01	-2.36310285e+00	1.76423110e+02
781466714.286	-1.48630246e-01	-2.78772741e+01	-4.91574605e+01	5.56027861e+01	-4.93006698e+01	6.03537469e+01	-2.37316350e+00	1.76263644e+02
781752285.714	-1.53966562e-01	-2.78548724e+01	-4.91493030e+01	5.61832558e+01	-4.94512675e+01	6.10478341e+01	-2.38255324e+00	1.76134511e+02
782037857.143	-1.55148656e-01	-2.78953361e+01	-4.91842886e+01	5.70827880e+01	-4.93654627e+01	6.18362889e+01	-2.38863597e+00	1.75990498e+02
782323428.571	-1.47652438e-01	-2.79119217e+01	-4.91017899e+01	5.79686374e+01	-4.93849259e+01	6.19602447e+01	-2.39598709e+00	1.75858562e+02
782609000	-1.42921664e-01	-2.78993052e+01	-4.92615250e+01	5.85841031e+01	-4.92187625e+01	6.23640555e+01	-2.40456833e+00	1.75713398e+02
782894571.429	-1.45247249e-01	-2.79271720e+01	-4.91600651e+01	5.96558371e+01	-4.91347493e+01	6.30460364e+01	-2.40767748e+00	1.75573074e+02
783180142.857	-1.43101630e-01	-2.79467564e+01	-4.91045723e+01	5.90200117e+01	-4.92531096e+01	6.31802753e+01	-2.42049936e+00	1.75464301e+02
783465714.286	-1.41411839e-01	-2.79905102e+01	-4.91654071e+01	5.91250270e+01	-4.92021387e+01	6.33596381e+01	-2.42895194e+00	1.75267050e+02
783751285.714	-1.39529773e-01	-2.79918362e+01	-4.90061890e+01	6.02355087e+01	-4.92392864e+01	6.33565829e+01	-2.43457284e+00	1.75124105e+02
784036857.143	-1.38096826e-01	-2.79853696e+01	-4.90396517e+01	6.18857716e+01	-4.92880523e+01	6.40611742e+01	-2.43634195e+00	1.74903152e+02
784322428.571	-1.38117639e-01	-2.80005605e+01	-4.90955166e+01	6.23966617e+01	-4.91595840e+01	6.51751978e+01	-2.43859377e+00	1.74772421e+02
784608000	-1.39585546e-01	-2.80300261e+01	-4.91672829e+01	6.30340164e+01	-4.91619013e+01	6.46619753e+01	-2.44490902e+00	1.74585758e+02
784893571.429	-1.35644139e-01	-2.80732766e+01	-4.90948718e+01	6.26867024e+01	-4.91776972e+01	6.49367187e+01	-2.44244973e+00	1.74486130e+02
785179142.857	-1.31057902e-01	-2.80798274e+01	-4.89854158e+01	6.35678501e+01	-4.91688681e+01	6.63560261e+01	-2.45000263e+00	1.74340427e+02
785464714.286	-1.33349786e-01	-2.80815694e+01	-4.91189191e+01	6.38218190e+01	-4.91408129e+01	6.56659666e+01	-2.45651545e+00	1.74144794e+02
785750285.714	-1.38044765e-01	-2.81193386e+01	-4.88305718e+01	6.45676973e+01	-4.92236392e+01	6.60122677e+01	-2.46427687e+00	1.74001011e+02
786035857.143	-1.34962502e-01	-2.81476078e+01	-4.90086997e+01	6.40397297e+01	-4.92112974e+01	6.73286408e+01	-2.46658400e+00	1.73867361e+02
786321428.571	-1.41074945e-01	-2.81508973e+01	-4.88796360e+01	6.53997280e+01	-4.91440284e+01	6.74176065e+01	-2.47573710e+00	1.73700699e+02
786607000	-1.36766246e-01	-2.81594024e+01	-4.88240142e+01	6.45641941e+01	-4.88955820e+01	6.75035473e+01	-2.48067638e+00	1.73556696e+02
786892571.429	-1.35761710e-01	-2.81800764e+01	-4.88521911e+01	6.57434159e+01	-4.89485640e+01	6.84605060e+01	-2.49030162e+00	1.73402538e+02
787178142.857	-1.33846896e-01	-2.81837940e+01	-4.86180631e+01	6.69816788e+01	-4.90363747e+01	6.84732954e+01	-2.49564491e+00	1.73219695e+02
787463714.286	-1.34206571e-01	-2.82006434e+01	-4.87030023e+01	6.71380481e+01	-4.89771077e+01	6.82975008e+01	-2.50380373e+00	1.73009797e+02
787749285.714	-1.29900820e-01	-2.82200931e+01	-4.87550353e+01	6.76178424e+01	-4.88987195e+01	6.91448487e+01	-2.51225465e+00	1.72877942e+02
788034857.143	-1.34639208e-01	-2.82122635e+01	-4.85870936e+01	6.76660712e+01	-4.85859803e+01	6.97062781e+01	-2.52022509e+00	1.72703880e+02
788320428.571	-1.31317112e-01	-2.82606493e+01	-4.86190468e+01	6.85925815e+01	-4.87385051e+01	6.99366879e+01	-2.53271320e+00	1.72578610e+02
788606000	-1.28817129e-01	-2.82420717e+01	-4.84182938e+01	6.84786774e+01	-4.88115036e+01	7.02428308e+01	-2.54121777e+00	1.72457491e+02
788891571.429	-1.26603306e-01	-2.82709621e+01	-4.85037550e+01	6.96536484e+01	-4.86959944e+01	7.16708687e+01	-2.55211278e+00	1.72269328e+02
789177142.857	-1.31908259e-01	-2.82965740e+01	-4.83732041e+01	6.87649271e+01	-4.85327944e+01	7.10023356e+01	-2.55562643e+00	1.72143306e+02
789462714.286	-1.31912920e-01	-2.83626081e+01	-4.82910257e+01	6.96598327e+01	-4.85248516e+01	7.23435009e+01	-2.56604953e+00	1.71958815e+02
789748285.714	-1.28892035e-01	-2.83515763e+01	-4.81927920e+01	6.99152948e+01	-4.85673341e+01	7.14167863e+01	-2.57653747e+00	1.71821220e+02
790033857.143	-1.29753222e-01	-2.83781788e+01	-4.81481635e+01	7.03791034e+01	-4.84879820e+01	7.31509603e+01	-2.59252810e+00	1.71660581e+02
790319428.571	-1.31913436e-01	-2.83613105e+01	-4.80606290e+01	7.06899973e+01	-4.82425423e+01	7.30288075e+01	-2.60566574e+00	1.71544044e+02
790605000	-1.29917290e-01	-2.83914101e+01	-4.79412886e+01	7.03514775e+01	-4.82115756e+01	7.22013872e+01	-2.60983187e+00	1.71350174e+02
790890571.429	-1.24412352e-01	-2.83959548e+01	-4.79066505e+01	7.13239466e+01	-4.79950612e+01	7.28459027e+01	-2.62231437e+00	1.71166887e+02
791176142.857	-1.25857598e-01	-2.84344304e+01	-4.77298104e+01	7.10273513e+01	-4.81482794e+01	7.36115974e+01	-2.62375403e+00	1.71030747e+02
791461714.286	-1.28653758e-01	-2.84788354e+01	-4.74880019e+01	7.16511611e+01	-4.78551970e+01	7.36667790e+01	-2.62870156e+00	1.70843666e+02
791747285.714	-1.25681282e-01	-2.84888049e+01	-4.75439778e+01	7.07853837e+01	-4.77911467e+01	7.40773008e+01	-2.63566322e+00	1.70741574e+02
792032857.143	-1.26193244e-01	-2.85040300e+01	-4.75774758e+01	7.15413588e+01	-4.77615500e+01	7.43675715e+01	-2.64382886e+00	1.70563613e+02
792318428.571	-1.28790793e-01	-2.85229889e+01	-4.75059432e+01	7.20910526e+01	-4.76980789e+01	7.44759814e+01	-2.64925142e+00	1.70444689e+02
792604000	-1.28262351e-01	-2.85245708e+01	-4.73286686e+01	7.24376235e+01	-4.75356805e+01	7.44244812e+01	-2.66000470e+00	1.70321844e+02
792889571.429	-1.22046013e-01	-2.85286537e+01	-4.73540367e+01	7.24098016e+01	-4.74603277e+01	7.46030970e+01	-2.67214682e+00	1.70110746e+02
793175142.857	-1.27170353e-01	-2.85481694e+01	-4.72655864e+01	7.20956837e+01	-4.73035116e+01	7.46831190e+01	-2.68196349e+00	1.69912875e+02
793460714.286	-1.23287393e-01	-2.85776451e+01	-4.71836681e+01	7.26738985e+01	-4.71890631e+01	7.46162644e+01	-2.69126740e+00	1.69763255e+02
793746285.714	-1.22531958e-01	-2.85981348e+01	-4.70906720e+01	7.25823058e+01	-4.71171285e+01	7.46746446e+01	-2.70091369e+00	1.69590878e+02
794031857.143	-1.28405731e-01	-2.86012965e+01	-4.69974869e+01	7.28663173e+01	-4.69420980e+01	7.48806839e+01	-2.70104347e+00	1.69429170e+02
794317428.571	-1.26513057e-01	-2.85977695e+01	-4.68667868e+01	7.29951117e+01	-4.68908548e+01	7.44199993e+01	-2.70818443e+00	1.69299431e+02
794603000	-1.28943518e-01	-2.86207424e+01	-4.67855444e+01	7.31347425e+01	-4.68131129e+01	7.54164255e+01	-2.71740561e+00	1.69106736e+02
794888571.429	-1.26904894e-01	-2.86608876e+01	-4.66983082e+01	7.31474963e+01	-4.66104402e+01	7.50647953e+01	-2.72633844e+00	1.68942142e+02
795174142.857	-1.26337018e-01	-2.86481830e+01	-4.66238720e+01	7.30564024e+01	-4.65317622e+01	7.53748071e+01	-2.73387685e+00	1.68791627e+02
795459714.286	-1.24656760e-01	-2.86622378e+01	-4.65225397e+01	7.32914737e+01	-4.64588354e+01	7.59838920e+01	-2.73457710e+00	1.68667662e+02
795745285.714	-1.22988120e-01	-2.86777638e+01	-4.63046338e+01	7.30805147e+01	-4.63594306e+01	7.53165730e+01	-2.74001753e+00	1.68511024e+02
796030857.143	-1.23009432e-01	-2.87055842e+01	-4.62673391e+01	7.38001306e+01	-4.62838167e+01	7.48475805e+01	-2.75369291e+00	1.68369948e+02
796316428.571	-1.27440060e-01	-2.86945120e+01	-4.62230479e+01	7.32444174e+01	-4.60440075e+01	7.48209684e+01	-2.75413828e+00	1.68196442e+02
796602000	-1.24636973e-01	-2.87362148e+01	-4.61000944e+01	7.34099489e+01	-4.60127168e+01	7.49883776e+01	-2.76182457e+00	1.68011071e+02
796887571.429	-1.26473888e-01	-2.87298079e+01	-4.60101231e+01	7.39989643e+01	-4.58906104e+01	7.49401068e+01	-2.76987699e+00	1.67825463e+02
797173142.857	-1.24153673e-01	-2.87743049e+01	-4.58673638e+01	7.34390665e+01	-4.57356931e+01	7.45594329e+01	-2.78152628e+00	1.67683128e+02
797458714.286	-1.22122401e-01	-2.88164499e+01	-4.57836001e+01	7.35177907e+01	-4.57431346e+01	7.43886138e+01	-2.78563624e+00	1.67466042e+02
797744285.714	-1.23366683e-01	-2.88163739e+01	-4.55755042e+01	7.29044649e+01	-4.55603338e+01	7.44071940e+01	-2.79542683e+00	1.67283878e+02
798029857.143	-1.22012237e-01	-2.88183031e+01	-4.55100114e+01	7.28070150e+01	-4.55062402e+01	7.41214469e+01	-2.79454677e+00	1.67118038e+02
798315428.571	-1.20740789e-01	-2.88435835e+01	-4.53678444e+01	7.25732675e+01	-4.53351381e+01	7.40797889e+01	-2.80123421e+00	1.66958311e+02
798601000	-1.19732345e-01	-2.88410645e+01	-4.52758686e+01	7.31764747e+01	-4.53504837e+01	7.35817875e+01	-2.81068263e+00	1.66769009e+02
798886571.429	-1.24169841e-01	-2.88800732e+01	-4.51394954e+01	7.23680022e+01	-4.51232339e+01	7.35695982e+01	-2.81339596e+00	1.66612073e+02
799172142.857	-1.23222560e-01	-2.88746296e+01	-4.50692330e+01	7.24534958e+01	-4.51533306e+01	7.24116206e+01	-2.81341947e+00	1.66423525e+02
799457714.286	-1.21441131e-01	-2.88833238e+01	-4.49273532e+01	7.20184956e+01	-4.50454489e+01	7.24559935e+01	-2.83140571e+00	1.66193855e+02
799743285.714	-1.22685357e-01	-2.89226127e+01	-4.47950061e+01	7.20501856e+01	-4.49138162e+01	7.24126892e+01	-2.83383232e+00	1.66021720e+02
800028857.143	-1.22032748e-01	-2.89411850e+01	-4.47058453e+01	7.13485509e+01	-4.48091216e+01	7.13199342e+01	-2.84044778e+00	1.65844178e+02
800314428.571	-1.26730177e-01	-2.89719280e+01	-4.46006179e+01	7.10806858e+01	-4.46641657e+01	7.14020299e+01	-2.85364361e+00	1.65701494e+02
800600000	-1.24994010e-01	-2.89730098e+01	-4.45106281e+01	7.06224186e+01	-4.44760026e+01	7.06881806e+01	-2.86409238e+00	1.65516750e+02
800885571.429	-1.21353578e-01	-2.89789389e+01	-4.43752240e+01	7.03212985e+01	-4.44364026e+01	7.04311672e+01	-2.86936047e+00	1.65338279e+02
801171142.857	-1.21879926e-01	-2.89818521e+01	-4.42863320e+01	6.99748253e+01	-4.43111334e+01	7.00548425e+01	-2.88111306e+00	1.65167622e+02
801456714.286	-1.22716737e-01	-2.89773938e+01	-4.42378415e+01	6.93980841e+01	-4.42935267e+01	6.97162021e+01	-2.88384572e+00	1.64941534e+02
801742285.714	-1.22888189e-01	-2.89897621e+01	-4.40983952e+01	6.93095308e+01	-4.41671346e+01	6.95367603e+01	-2.89558664e+00	1.64801373e+02
802027857.143	-1.20703932e-01	-2.90017572e+01	-4.39859012e+01	6.82908889e+01	-4.39699784e+01	6.87784505e+01	-2.90540549e+00	1.64575133e+02
802313428.571	-1.25642552e-01	-2.90559234e+01	-4.39559505e+01	6.81134142e+01	-4.38513724e+01	6.87262566e+01	-2.91279229e+00	1.64396994e+02
802599000	-1.22922122e-01	-2.90615008e+01	-4.38587438e+01	6.82479285e+01	-4.36948308e+01	6.75396620e+01	-2.91682470e+00	1.64203895e+02
802884571.429	-1.23506707e-01	-2.90575543e+01	-4.37009891e+01	6.71031670e+01	-4.36627672e+01	6.71988153e+01	-2.92015109e+00	1.64037775e+02
803170142.857	-1.21881583e-01	-2.90681238e+01	-4.36726809e+01	6.70720147e+01	-4.36306349e+01	6.72959526e+01	-2.93328455e+00	1.63855158e+02
803455714.286	-1.24652812e-01	-2.90845269e+01	-4.35655129e+01	6.66291621e+01	-4.35992451e+01	6.62583386e+01	-2.94885844e+00	1.63748644e+02
803741285.714	-1.23634118e-01	-2.90927367e+01	-4.35087991e+01	6.60533025e+01	-4.33970167e+01	6.64100452e+01	-2.95895547e+00	1.63574512e+02
804026857.143	-1.22247035e-01	-2.90976446e+01	-4.34054518e+01	6.55135753e+01	-4.33467397e+01	6.62450659e+01	-2.96522954e+00	1.63345593e+02
804312428.571	-1.23569236e-01	-2.91003178e+01	-4.33292267e+01	6.50809786e+01	-4.32571445e+01	6.51956385e+01	-2.97382528e+00	1.63215730e+02
804598000	-1.24355246e-01	-2.91184408e+01	-4.32299219e+01	6.50101090e+01	-4.31885816e+01	6.49134346e+01	-2.98530756e+00	1.63030766e+02
804883571.429	-1.25725832e-01	-2.91288881e+01	-4.31463380e+01	6.44509540e+01	-4.30719234e+01	6.40872830e+01	-2.99226596e+00	1.62875777e+02
805169142.857	-1.27141639e-01	-2.91411555e+01	-4.30935157e+01	6.38360951e+01	-4.29593955e+01	6.35358364e+01	-3.00200986e+00	1.62751719e+02
805454714.286	-1.27060128e-01	-2.91715942e+01	-4.30144373e+01	6.33178646e+01	-4.28901638e+01	6.30475110e+01	-3.01905815e+00	1.62579321e+02
805740285.714	-1.25443816e-01	-2.91664823e+01	-4.28980730e+01	6.26480426e+01	-4.28388324e+01	6.27215213e+01	-3.02217786e+00	1.62401850e+02
806025857.143	-1.25472739e-01	-2.91927971e+01	-4.28378276e+01	6.23671583e+01	-4.27871076e+01	6.22385714e+01	-3.03581013e+00	1.62198576e+02
806311428.571	-1.25517181e-01	-2.92233136e+01	-4.27982313e+01	6.15461752e+01	-4.26843286e+01	6.15773160e+01	-3.04845375e+00	1.62038040e+02
806597000	-1.26663890e-01	-2.92240184e+01	-4.26907049e+01	6.12863743e+01	-4.26442712e+01	6.10325788e+01	-3.06206650e+00	1.61915890e+02
806882571.429	-1.27362686e-01	-2.92411168e+01	-4.26358913e+01	6.02772799e+01	-4.25614901e+01	6.04194350e+01	-3.07080503e+00	1.61728197e+02
807168142.857	-1.29410431e-01	-2.92544628e+01	-4.25381950e+01	5.98712053e+01	-4.25306445e+01	6.01109147e+01	-3.07588040e+00	1.61559139e+02
807453714.286	-1.32129887e-01	-2.92947839e+01	-4.25014852e+01	5.91490514e+01	-4.24645904e+01	5.93318537e+01	-3.09461680e+00	1.61370270e+02
807739285.714	-1.30047383e-01	-2.92900031e+01	-4.23857719e+01	5.88911757e+01	-4.24682231e+01	5.88713050e+01	-3.11186775e+00	1.61169671e+02
808024857.143	-1.31541301e-01	-2.93035189e+01	-4.23504651e+01	5.86003215e+01	-4.23729992e+01	5.80980037e+01	-3.12389529e+00	1.61004346e+02
808310428.571	-1.32980912e-01	-2.93268721e+01	-4.23253868e+01	5.79017434e+01	-4.23057752e+01	5.80004270e+01	-3.13924983e+00	1.60833467e+02
808596000	-1.34234518e-01	-2.93235522e+01	-4.22985594e+01	5.72315213e+01	-4.22666762e+01	5.72013781e+01	-3.15696396e+00	1.60653904e+02
808881571.429	-1.35091925e-01	-2.93565023e+01	-4.22317328e+01	5.67481858e+01	-4.22835304e+01	5.68217457e+01	-3.16058924e+00	1.60563945e+02
809167142.857	-1.35615516e-01	-2.93965291e+01	-4.22338831e+01	5.66584247e+01	-4.22235209e+01	5.60226752e+01	-3.17403011e+00	1.60397657e+02
809452714.286	-1.36203864e-01	-2.94072909e+01	-4.21263536e+01	5.57889739e+01	-4.21772261e+01	5.56679712e+01	-3.18335474e+00	1.60264809e+02
809738285.714	-1.37355890e-01	-2.94134504e+01	-4.21005585e+01	5.54350869e+01	-4.20728336e+01	5.52472450e+01	-3.19684998e+00	1.60155140e+02
810023857.143	-1.39449350e-01	-2.94207252e+01	-4.20589956e+01	5.51684923e+01	-4.20861545e+01	5.44550637e+01	-3.20901054e+00	1.60008721e+02
810309428.571	-1.37151350e-01	-2.94471591e+01	-4.20540949e+01	5.43069429e+01	-4.20348268e+01	5.42023953e+01	-3.22047358e+00	1.59843506e+02
810595000	-1.38449648e-01	-2.94807614e+01	-4.19622520e+01	5.39881769e+01	-4.19294443e+01	5.37508737e+01	-3.22713792e+00	1.59708394e+02
810880571.429	-1.37649939e-01	-2.94857500e+01	-4.18923503e+01	5.35208518e+01	-4.19317665e+01	5.33196088e+01	-3.23896671e+00	1.59581660e+02
811166142.857	-1.40964250e-01	-2.95008235e+01	-4.18663247e+01	5.30701413e+01	-4.18659202e+01	5.28686772e+01	-3.24859442e+00	1.59458399e+02
811451714.286	-1.42003604e-01	-2.95034324e+01	-4.18194900e+01	5.26411741e+01	-4.18820255e+01	5.21429147e+01	-3.26260770e+00	1.59315337e+02
811737285.714	-1.42147335e-01	-2.95422057e+01	-4.17563800e+01	5.23445898e+01	-4.18087367e+01	5.16767788e+01	-3.28087860e+00	1.59178862e+02
812022857.143	-1.42473911e-01	-2.95528689e+01	-4.17126191e+01	5.16692058e+01	-4.17287025e+01	5.15585318e+01	-3.29715247e+00	1.59026703e+02
812308428.571	-1.43646245e-01	-2.95821569e+01	-4.16361606e+01	5.16432056e+01	-4.16519896e+01	5.11092209e+01	-3.30554313e+00	1.58902906e+02
812594000	-1.40192636e-01	-2.95840938e+01	-4.16039184e+01	5.11907209e+01	-4.16130488e+01	5.05946112e+01	-3.31282956e+00	1.58783307e+02
812879571.429	-1.38896077e-01	-2.95926596e+01	-4.15512017e+01	5.03303579e+01	-4.15720858e+01	4.99580834e+01	-3.33250722e+00	1.58636854e+02
813165142.857	-1.38363524e-01	-2.96153442e+01	-4.15023106e+01	5.00781929e+01	-4.15540709e+01	4.96767817e+01	-3.34968001e+00	1.58505291e+02
813450714.286	-1.35771760e-01	-2.96210452e+01	-4.14713431e+01	5.00182492e+01	-4.14373474e+01	4.96301979e+01	-3.36234924e+00	1.58391253e+02
813736285.714	-1.36728895e-01	-2.96259565e+01	-4.13725531e+01	4.96669750e+01	-4.13861123e+01	4.96095402e+01	-3.37776745e+00	1.58306108e+02
814021857.143	-1.36130420e-01	-2.96468065e+01	-4.13361652e+01	4.94500881e+01	-4.13365335e+01	4.85318547e+01	-3.38774468e+00	1.58171844e+02
814307428.571	-1.37870091e-01	-2.96517843e+01	-4.12744624e+01	4.89787022e+01	-4.12638884e+01	4.83510667e+01	-3.39722071e+00	1.58041624e+02
814593000	-1.37204916e-01	-2.96713975e+01	-4.11873454e+01	4.86109264e+01	-4.12249049e+01	4.77543796e+01	-3.41235129e+00	1.57902632e+02
814878571.429	-1.39527938e-01	-2.96665039e+01	-4.11408701e+01	4.82855531e+01	-4.11715033e+01	4.76077810e+01	-3.42281196e+00	1.57814245e+02
815164142.857	-1.38001596e-01	-2.96774108e+01	-4.10557323e+01	4.77908855e+01	-4.11233611e+01	4.72506874e+01	-3.43350795e+00	1.57751235e+02
815449714.286	-1.38909226e-01	-2.96904111e+01	-4.09934403e+01	4.75127109e+01	-4.10468606e+01	4.72756195e+01	-3.45054308e+00	1.57661188e+02
815735285.714	-1.40106766e-01	-2.97048285e+01	-4.10213472e+01	4.73562916e+01	-4.10335439e+01	4.68743273e+01	-3.46563698e+00	1.57508638e+02
816020857.143	-1.42541597e-01	-2.97265681e+01	-4.09872221e+01	4.67927307e+01	-4.09256054e+01	4.60154902e+01	-3.47789965e+00	1.57434045e+02
816306428.571	-1.39040649e-01	-2.97256644e+01	-4.08857493e+01	4.60362044e+01	-4.09144161e+01	4.55912320e+01	-3.49760469e+00	1.57380949e+02
816592000	-1.40323598e-01	-2.97633460e+01	-4.08295092e+01	4.53407231e+01	-4.08482228e+01	4.49153408e+01	-3.50504807e+00	1.57369492e+02
816877571.429	-1.41006929e-01	-2.98186637e+01	-4.07202206e+01	4.51653973e+01	-4.07647108e+01	4.48941649e+01	-3.52198787e+00	1.57260029e+02
817163142.857	-1.40430873e-01	-2.98363471e+01	-4.05953845e+01	4.47851716e+01	-4.07161653e+01	4.43998852e+01	-3.54505308e+00	1.57215372e+02
817448714.286	-1.40933153e-01	-2.98289455e+01	-4.06600093e+01	4.44262392e+01	-4.06708582e+01	4.36855054e+01	-3.55107138e+00	1.57117472e+02
817734285.714	-1.43976012e-01	-2.98390624e+01	-4.04838858e+01	4.36985901e+01	-4.06071591e+01	4.33557177e+01	-3.57066750e+00	1.56984067e+02
818019857.143	-1.42987351e-01	-2.98511735e+01	-4.04052957e+01	4.33646082e+01	-4.05571583e+01	4.32770711e+01	-3.57844003e+00	1.56856333e+02
818305428.571	-1.44278299e-01	-2.98682786e+01	-4.02947365e+01	4.23247657e+01	-4.04349201e+01	4.26546545e+01	-3.59596637e+00	1.56713015e+02
818591000	-1.42081343e-01	-2.98742354e+01	-4.02321535e+01	4.22458838e+01	-4.04062330e+01	4.21246695e+01	-3.60686912e+00	1.56597200e+02
818876571.429	-1.42685542e-01	-2.98909077e+01	-4.01783340e+01	4.14829352e+01	-4.03127302e+01	4.13486849e+01	-3.62399474e+00	1.56530653e+02
819162142.857	-1.41542062e-01	-2.99110302e+01	-4.00597788e+01	4.08150789e+01	-4.01986146e+01	4.10065843e+01	-3.63510448e+00	1.56396156e+02
819447714.286	-1.40232882e-01	-2.99444546e+01	-3.99751581e+01	4.03263860e+01	-4.01558971e+01	4.04075353e+01	-3.64422801e+00	1.56319744e+02
819733285.714	-1.41068173e-01	-2.99597108e+01	-3.99445457e+01	3.96460636e+01	-4.00997890e+01	3.98944346e+01	-3.65515963e+00	1.56178952e+02
820018857.143	-1.46122091e-01	-2.99842343e+01	-3.98913729e+01	3.91918059e+01	-3.99863223e+01	3.94622669e+01	-3.66411316e+00	1.56127492e+02
820304428.571	-1.48289775e-01	-2.99998850e+01	-3.98104816e+01	3.86538044e+01	-3.99442695e+01	3.88512493e+01	-3.67307196e+00	1.56043598e+02
820590000	-1.44700318e-01	-3.00164233e+01	-3.97161899e+01	3.82579828e+01	-3.98587280e+01	3.81183529e+01	-3.68701063e+00	1.55974986e+02
820875571.429	-1.44233370e-01	-3.00425176e+01	-3.96551877e+01	3.75640332e+01	-3.98456916e+01	3.76296546e+01	-3.70202802e+00	1.55879499e+02
821161142.857	-1.44978123e-01	-3.00417414e+01	-3.96910739e+01	3.70692516e+01	-3.97474965e+01	3.70638256e+01	-3.70757610e+00	1.55790971e+02
821446714.286	-1.43857439e-01	-3.00845902e+01	-3.95588971e+01	3.58440269e+01	-3.96781606e+01	3.66257141e+01	-3.72042807e+00	1.55722448e+02
821732285.714	-1.45559548e-01	-3.01038946e+01	-3.94781459e+01	3.58002901e+01	-3.96495658e+01	3.59370049e+01	-3.73329051e+00	1.55618909e+02
822017857.143	-1.44417723e-01	-3.01273203e+01	-3.94982109e+01	3.49283170e+01	-3.95531144e+01	3.54246566e+01	-3.74420394e+00	1.55504569e+02
822303428.571	-1.46669819e-01	-3.01479546e+01	-3.94162860e+01	3.45000430e+01	-3.95425132e+01	3.46670211e+01	-3.75312246e+00	1.55403080e+02
822589000	-1.47133735e-01	-3.01552302e+01	-3.93778111e+01	3.37846661e+01	-3.94849306e+01	3.42886284e+01	-3.76416804e+00	1.55309116e+02
822874571.429	-1.45675318e-01	-3.01513611e+01	-3.93325214e+01	3.32744148e+01	-3.94511852e+01	3.35816824e+01	-3.77226762e+00	1.55210898e+02
823160142.857	-1.44793917e-01	-3.01818424e+01	-3.92843116e+01	3.25896656e+01	-3.94075968e+01	3.31833220e+01	-3.78848173e+00	1.55156012e+02
823445714.286	-1.44223499e-01	-3.01888742e+01	-3.92381599e+01	3.15412049e+01	-3.93535108e+01	3.24910089e+01	-3.79800282e+00	1.55072645e+02
823731285.714	-1.44274911e-01	-3.02010429e+01	-3.92539827e+01	3.15156573e+01	-3.93309539e+01	3.18372236e+01	-3.80762953e+00	1.54981600e+02
824016857.143	-1.44632128e-01	-3.02292351e+01	-3.91609087e+01	3.08354005e+01	-3.92891689e+01	3.11645374e+01	-3.82295926e+00	1.54920554e+02
824302428.571	-1.43897840e-01	-3.02604623e+01	-3.91281189e+01	2.99960706e+01	-3.92085828e+01	3.10238341e+01	-3.83308347e+00	1.54840636e+02
824588000	-1.40760211e-01	-3.03039985e+01	-3.91172960e+01	2.92688900e+01	-3.91744958e+01	3.01030471e+01	-3.84292525e+00	1.54731849e+02
824873571.429	-1.40106175e-01	-3.03084430e+01	-3.90381347e+01	2.88321943e+01	-3.91515794e+01	2.98206714e+01	-3.85827669e+00	1.54660354e+02
825159142.857	-1.40369865e-01	-3.03120861e+01	-3.90431952e+01	2.82194562e+01	-3.90560924e+01	2.91585911e+01	-3.86502707e+00	1.54498922e+02
825444714.286	-1.42596743e-01	-3.03018478e+01	-3.89889127e+01	2.76378738e+01	-3.90519661e+01	2.84234837e+01	-3.88018604e+00	1.54457365e+02
825730285.714	-1.39447023e-01	-3.03250811e+01	-3.89533428e+01	2.73623125e+01	-3.90083296e+01	2.82128159e+01	-3.89531837e+00	1.54378711e+02
826015857.143	-1.40424320e-01	-3.03430175e+01	-3.88872601e+01	2.65375038e+01	-3.89447595e+01	2.74303210e+01	-3.91165406e+00	1.54255722e+02
826301428.571	-1.41468351e-01	-3.03784632e+01	-3.88493442e+01	2.59849361e+01	-3.89033133e+01	2.70531963e+01	-3.91496099e+00	1.54113337e+02
826587000	-1.42076157e-01	-3.03972552e+01	-3.88254943e+01	2.51904600e+01	-3.88699750e+01	2.63495817e+01	-3.92599055e+00	1.54044466e+02
826872571.429	-1.41696232e-01	-3.04458734e+01	-3.87514866e+01	2.48089582e+01	-3.88257708e+01	2.57505555e+01	-3.94166395e+00	1.53923094e+02
827158142.857	-1.43192942e-01	-3.04645078e+01	-3.86994101e+01	2.42921255e+01	-3.87676025e+01	2.51170116e+01	-3.95502773e+00	1.53873015e+02
827443714.286	-1.40030957e-01	-3.04801513e+01	-3.86404681e+01	2.39786697e+01	-3.87042213e+01	2.46456965e+01	-3.96855185e+00	1.53760953e+02
827729285.714	-1.44628338e-01	-3.04748871e+01	-3.86420771e+01	2.32849661e+01	-3.86569546e+01	2.40686650e+01	-3.97893481e+00	1.53615768e+02
828014857.143	-1.43759048e-01	-3.04874195e+01	-3.86059484e+01	2.26974317e+01	-3.85560943e+01	2.36507203e+01	-3.99896400e+00	1.53513847e+02
828300428.571	-1.43963501e-01	-3.04841185e+01	-3.85113644e+01	2.23165908e+01	-3.85478603e+01	2.30150175e+01	-4.00341396e+00	1.53418616e+02
828586000	-1.42867792e-01	-3.05084494e+01	-3.84940489e+01	2.15414417e+01	-3.85217421e+01	2.25820944e+01	-4.01900409e+00	1.53335591e+02
828871571.429	-1.41427541e-01	-3.05225761e+01	-3.84120326e+01	2.07731232e+01	-3.84463990e+01	2.19256127e+01	-4.03055351e+00	1.53292158e+02
829157142.857	-1.41435066e-01	-3.05640482e+01	-3.83739616e+01	2.04187749e+01	-3.83899864e+01	2.14071429e+01	-4.03836404e+00	1.53240235e+02
829442714.286	-1.44088733e-01	-3.05769493e+01	-3.83908552e+01	1.98322422e+01	-3.83447505e+01	2.08686242e+01	-4.05818001e+00	1.53181539e+02
829728285.714	-1.42035607e-01	-3.06275303e+01	-3.82312897e+01	1.92522077e+01	-3.82851668e+01	2.03059337e+01	-4.07102567e+00	1.53093190e+02
830013857.143	-1.43343935e-01	-3.06382532e+01	-3.82383953e+01	1.89461278e+01	-3.82265987e+01	1.98342833e+01	-4.08502992e+00	1.53079416e+02
830299428.571	-1.42836136e-01	-3.06294042e+01	-3.81510609e+01	1.80026213e+01	-3.82064702e+01	1.89495635e+01	-4.09436459e+00	1.53042527e+02
830585000	-1.35996864e-01	-3.06418250e+01	-3.80859973e+01	1.73146722e+01	-3.81055637e+01	1.85049609e+01	-4.09879967e+00	1.52973248e+02
830870571.429	-1.42450189e-01	-3.06511173e+01	-3.80570627e+01	1.69085520e+01	-3.80744826e+01	1.80449592e+01	-4.10582572e+00	1.52994106e+02
831156142.857	-1.41694827e-01	-3.06719034e+01	-3.79717469e+01	1.59819023e+01	-3.80064330e+01	1.74201643e+01	-4.11562397e+00	1.52975253e+02
831441714.286	-1.39572875e-01	-3.07061307e+01	-3.79631272e+01	1.55069193e+01	-3.79485200e+01	1.67766279e+01	-4.12579830e+00	1.52928517e+02
831727285.714	-1.37754427e-01	-3.07532130e+01	-3.79037704e+01	1.50628489e+01	-3.79145765e+01	1.59319240e+01	-4.13797693e+00	1.52936843e+02
832012857.143	-1.34564492e-01	-3.07777850e+01	-3.79011211e+01	1.43285827e+01	-3.78529367e+01	1.55212206e+01	-4.14652882e+00	1.52867761e+02
832298428.571	-1.38088362e-01	-3.07720848e+01	-3.78167220e+01	1.38682393e+01	-3.78026086e+01	1.48692763e+01	-4.16918176e+00	1.52835520e+02
832584000	-1.36004602e-01	-3.07923949e+01	-3.77463467e+01	1.27949719e+01	-3.77578858e+01	1.42639364e+01	-4.17395572e+00	1.52726186e+02
832869571.429	-1.36598613e-01	-3.08072094e+01	-3.77145193e+01	1.25165775e+01	-3.77143377e+01	1.36999006e+01	-4.18899161e+00	1.52694860e+02
833155142.857	-1.33898388e-01	-3.08209573e+01	-3.76754091e+01	1.17985326e+01	-3.76737470e+01	1.28915525e+01	-4.19989220e+00	1.52623950e+02
833440714.286	-1.35069121e-01	-3.08341593e+01	-3.76671176e+01	1.10297984e+01	-3.76189674e+01	1.22475491e+01	-4.20810185e+00	1.52553100e+02
833726285.714	-1.37143119e-01	-3.08249129e+01	-3.75112556e+01	1.04840258e+01	-3.75945333e+01	1.17996948e+01	-4.21740316e+00	1.52467212e+02
834011857.143	-1.35421897e-01	-3.08555023e+01	-3.74932896e+01	9.87963008e+00	-3.75705249e+01	1.12909766e+01	-4.22508875e+00	1.52411949e+02
834297428.571	-1.33887945e-01	-3.08666297e+01	-3.75134827e+01	9.32715014e+00	-3.74654965e+01	1.06310530e+01	-4.22648447e+00	1.52448349e+02
834583000	-1.30232180e-01	-3.08952594e+01	-3.74105499e+01	8.65086900e+00	-3.74519022e+01	9.61331489e+00	-4.23495946e+00	1.52353313e+02
834868571.429	-1.32753742e-01	-3.08897898e+01	-3.74194932e+01	7.82029541e+00	-3.73511816e+01	9.24415386e+00	-4.24493131e+00	1.52274699e+02
835154142.857	-1.33528258e-01	-3.09136693e+01	-3.73774007e+01	7.05548932e+00	-3.73224052e+01	8.32658819e+00	-4.26135384e+00	1.52183585e+02
835439714.286	-1.30912697e-01	-3.09134927e+01	-3.73366118e+01	6.50995640e+00	-3.72971803e+01	7.68046977e+00	-4.26027220e+00	1.52097356e+02
835725285.714	-1.32716550e-01	-3.09341320e+01	-3.72494825e+01	5.89439513e+00	-3.72500788e+01	7.07796866e+00	-4.26748892e+00	1.52105630e+02
836010857.143	-1.31445167e-01	-3.09237504e+01	-3.72110427e+01	5.18108368e+00	-3.72336262e+01	6.50254379e+00	-4.28053023e+00	1.52029786e+02
836296428.571	-1.30699519e-01	-3.09332927e+01	-3.71525080e+01	4.41423531e+00	-3.71741852e+01	5.87551579e+00	-4.29351250e+00	1.51934912e+02
836582000	-1.30388636e-01	-3.09478737e+01	-3.71487802e+01	3.88336340e+00	-3.71337167e+01	5.21864421e+00	-4.28826468e+00	1.51908613e+02
836867571.429	-1.33672260e-01	-3.09676328e+01	-3.70813400e+01	2.95082870e+00	-3.71028575e+01	4.44028636e+00	-4.29503918e+00	1.51872211e+02
837153142.857	-1.32745708e-01	-3.09897506e+01	-3.70647375e+01	2.40902623e+00	-3.70457552e+01	3.73908965e+00	-4.29899232e+00	1.51778461e+02
837438714.286	-1.32547962e-01	-3.09742268e+01	-3.69417146e+01	1.49605233e+00	-3.70334250e+01	3.21022177e+00	-4.30436959e+00	1.51802086e+02
837724285.714	-1.30553980e-01	-3.09696552e+01	-3.69296303e+01	1.01426306e+00	-3.69636558e+01	2.61054371e+00	-4.30738768e+00	1.51694190e+02
838009857.143	-1.31568969e-01	-3.09736052e+01	-3.69465497e+01	5.12357986e-01	-3.69280993e+01	2.00117356e+00	-4.31624016e+00	1.51613513e+02
838295428.571	-1.34266105e-01	-3.09639991e+01	-3.68912539e+01	-2.36376306e-01	-3.68716837e+01	1.01838911e+00	-4.31645327e+00	1.51547679e+02
838581000	-1.29827445e-01	-3.10014770e+01	-3.68255177e+01	-9.83195311e-01	-3.68348864e+01	4.30727611e-01	-4.32825077e+00	1.51495256e+02
838866571.429	-1.29563640e-01	-3.09852526e+01	-3.68470319e+01	-1.59264806e+00	-3.68029395e+01	-3.29827353e-01	-4.33873447e+00	1.51397320e+02
839152142.857	-1.29998007e-01	-3.09836518e+01	-3.67502855e+01	-2.22905860e+00	-3.67858979e+01	-8.03030044e-01	-4.34043218e+00	1.51328423e+02
839437714.286	-1.34018421e-01	-3.10395727e+01	-3.66784122e+01	-2.81934361e+00	-3.67354403e+01	-1.38628888e+00	-4.33405041e+00	1.51275306e+02
839723285.714	-1.36134160e-01	-3.10197159e+01	-3.66614256e+01	-3.53031718e+00	-3.66957081e+01	-2.36534583e+00	-4.33234900e+00	1.51250154e+02
840008857.143	-1.31709107e-01	-3.10319146e+01	-3.66787081e+01	-4.41734240e+00	-3.66475111e+01	-2.84290841e+00	-4.33592926e+00	1.51097078e+02
840294428.571	-1.27960664e-01	-3.10211831e+01	-3.66031933e+01	-5.36856313e+00	-3.66091033e+01	-3.38468872e+00	-4.34992812e+00	1.51084430e+02
840580000	-1.31881534e-01	-3.10504621e+01	-3.65935000e+01	-5.83076129e+00	-3.65823432e+01	-4.41186496e+00	-4.34331420e+00	1.50983533e+02
840865571.429	-1.30667037e-01	-3.10660043e+01	-3.65708220e+01	-6.50110813e+00	-3.65397790e+01	-5.02304381e+00	-4.35260409e+00	1.50891910e+02
841151142.857	-1.33101468e-01	-3.10885954e+01	-3.64883757e+01	-7.30446519e+00	-3.65271828e+01	-5.83107257e+00	-4.35438460e+00	1.50806441e+02
841436714.286	-1.28302810e-01	-3.10984244e+01	-3.64897582e+01	-8.20123414e+00	-3.64922050e+01	-6.40834817e+00	-4.35424927e+00	1.50665528e+02
841722285.714	-1.28126623e-01	-3.11008717e+01	-3.64015408e+01	-8.78279491e+00	-3.64564234e+01	-7.11768108e+00	-4.34660725e+00	1.50559899e+02
842007857.143	-1.31359172e-01	-3.11140619e+01	-3.64109318e+01	-9.63745321e+00	-3.64160977e+01	-7.80555148e+00	-4.35005753e+00	1.50499189e+02
842293428.571	-1.30589358e-01	-3.10793037e+01	-3.63461846e+01	-9.93637991e+00	-3.63839336e+01	-8.47770725e+00	-4.35471122e+00	1.50302796e+02
842579000	-1.30544052e-01	-3.11380895e+01	-3.63875847e+01	-1.08341770e+01	-3.63558196e+01	-9.29473216e+00	-4.36291284e+00	1.50268024e+02
842864571.429	-1.36417215e-01	-3.11404776e+01	-3.63271564e+01	-1.13489858e+01	-3.62994816e+01	-1.00431555e+01	-4.35984356e+00	1.50109334e+02
843150142.857	-1.33642456e-01	-3.11519672e+01	-3.62639149e+01	-1.22970978e+01	-3.62598004e+01	-1.04889351e+01	-4.35818137e+00	1.50022962e+02
843435714.286	-1.35554697e-01	-3.11747503e+01	-3.62438347e+01	-1.31012024e+01	-3.62792121e+01	-1.13510222e+01	-4.36249321e+00	1.49941853e+02
843721285.714	-1.34411213e-01	-3.11728838e+01	-3.62551053e+01	-1.40530085e+01	-3.61653837e+01	-1.19496736e+01	-4.36470699e+00	1.49826375e+02
844006857.143	-1.32534244e-01	-3.11761046e+01	-3.61876470e+01	-1.44397226e+01	-3.61855999e+01	-1.27159874e+01	-4.36311141e+00	1.49694149e+02
844292428.571	-1.30595091e-01	-3.11800159e+01	-3.61500061e+01	-1.53001788e+01	-3.61291996e+01	-1.34809565e+01	-4.36802036e+00	1.49625442e+02
844578000	-1.35618527e-01	-3.12114230e+01	-3.61351567e+01	-1.60420757e+01	-3.61383559e+01	-1.40994423e+01	-4.38142545e+00	1.49481300e+02
844863571.429	-1.33163651e-01	-3.12231956e+01	-3.60941589e+01	-1.67167773e+01	-3.60974082e+01	-1.47734943e+01	-4.37787152e+00	1.49366740e+02
845149142.857	-1.28670672e-01	-3.12288647e+01	-3.60753606e+01	-1.72871192e+01	-3.60416526e+01	-1.58046116e+01	-4.39043393e+00	1.49182229e+02
845434714.286	-1.28219503e-01	-3.12274376e+01	-3.60403583e+01	-1.84217445e+01	-3.60304661e+01	-1.63421392e+01	-4.39512301e+00	1.49120051e+02
845720285.714	-1.30668370e-01	-3.12310703e+01	-3.60322008e+01	-1.91969262e+01	-3.59960451e+01	-1.70288130e+01	-4.40236796e+00	1.49008876e+02
846005857.143	-1.33398743e-01	-3.12624446e+01	-3.59959572e+01	-1.98162982e+01	-3.59841937e+01	-1.79983500e+01	-4.39356200e+00	1.48835373e+02
846291428.571	-1.29580241e-01	-3.12588965e+01	-3.60009570e+01	-2.11562611e+01	-3.59587201e+01	-1.85174859e+01	-4.39726221e+00	1.48780300e+02
846577000	-1.32291930e-01	-3.12673216e+01	-3.59501512e+01	-2.14322414e+01	-3.59307086e+01	-1.96575532e+01	-4.40823831e+00	1.48685691e+02
846862571.429	-1.28467929e-01	-3.12946941e+01	-3.59349622e+01	-2.23587210e+01	-3.58725553e+01	-2.02086035e+01	-4.41786242e+00	1.48522147e+02
847148142.857	-1.25467768e-01	-3.13118142e+01	-3.59299902e+01	-2.31219843e+01	-3.59225979e+01	-2.08721767e+01	-4.42172314e+00	1.48406539e+02
847433714.286	-1.23971439e-01	-3.12902880e+01	-3.59188826e+01	-2.35246887e+01	-3.58656706e+01	-2.14960221e+01	-4.43513818e+00	1.48302040e+02
847719285.714	-1.24162408e-01	-3.13134261e+01	-3.59021146e+01	-2.44775552e+01	-3.58577812e+01	-2.25746290e+01	-4.44265785e+00	1.48173891e+02
848004857.143	-1.24625751e-01	-3.13010100e+01	-3.58525282e+01	-2.53392843e+01	-3.58383225e+01	-2.32232765e+01	-4.44204710e+00	1.48019197e+02
848290428.571	-1.28465078e-01	-3.13032851e+01	-3.58630636e+01	-2.62440261e+01	-3.58274379e+01	-2.40511622e+01	-4.44906045e+00	1.47869480e+02
848576000	-1.25829798e-01	-3.13593292e+01	-3.58265463e+01	-2.69652730e+01	-3.57952200e+01	-2.46961379e+01	-4.45147938e+00	1.47775448e+02
848861571.429	-1.23708532e-01	-3.13358768e+01	-3.58461365e+01	-2.76967578e+01	-3.58267139e+01	-2.55658557e+01	-4.45847997e+00	1.47681399e+02
849147142.857	-1.28176012e-01	-3.13440908e+01	-3.58691624e+01	-2.82813422e+01	-3.57902869e+01	-2.63285727e+01	-4.47625571e+00	1.47619924e+02
849432714.286	-1.25051604e-01	-3.13356301e+01	-3.58332607e+01	-2.91235330e+01	-3.57571631e+01	-2.69775699e+01	-4.47638598e+00	1.47424911e+02
849718285.714	-1.24437925e-01	-3.13576473e+01	-3.58487314e+01	-3.02998433e+01	-3.57389785e+01	-2.76380945e+01	-4.48296213e+00	1.47363400e+02
850003857.143	-1.25389470e-01	-3.13713607e+01	-3.58442027e+01	-3.10897453e+01	-3.57535908e+01	-2.84825225e+01	-4.48556471e+00	1.47199751e+02
850289428.571	-1.23208572e-01	-3.13700275e+01	-3.58651318e+01	-3.17757561e+01	-3.57818003e+01	-2.91321349e+01	-4.48308134e+00	1.47132160e+02
850575000	-1.24541817e-01	-3.13680257e+01	-3.57965673e+01	-3.23260776e+01	-3.57566365e+01	-2.98744919e+01	-4.48580754e+00	1.47042051e+02
850860571.429	-1.27557179e-01	-3.13498722e+01	-3.58212040e+01	-3.28493508e+01	-3.57141765e+01	-3.07173431e+01	-4.49351811e+00	1.46921562e+02
851146142.857	-1.27342980e-01	-3.13804888e+01	-3.58481923e+01	-3.37744590e+01	-3.57512518e+01	-3.13782957e+01	-4.48936604e+00	1.46811755e+02
851431714.286	-1.24175027e-01	-3.13934859e+01	-3.58151979e+01	-3.42187623e+01	-3.57207497e+01	-3.20788552e+01	-4.49380315e+00	1.46692782e+02
851717285.714	-1.28778623e-01	-3.13881272e+01	-3.58225106e+01	-3.52140877e+01	-3.57359091e+01	-3.27065372e+01	-4.49369462e+00	1.46512146e+02
852002857.143	-1.29762185e-01	-3.14277506e+01	-3.58129883e+01	-3.58635579e+01	-3.56953081e+01	-3.37126689e+01	-4.49579892e+00	1.46413400e+02
852288428.571	-1.28582889e-01	-3.14191072e+01	-3.58664457e+01	-3.64557680e+01	-3.57137435e+01	-3.43779086e+01	-4.49120646e+00	1.46268003e+02
852574000	-1.25606466e-01	-3.14264232e+01	-3.58419386e+01	-3.73160101e+01	-3.57106287e+01	-3.50758259e+01	-4.49502355e+00	1.46136312e+02
852859571.429	-1.29555141e-01	-3.14167566e+01	-3.57849915e+01	-3.79231764e+01	-3.56906609e+01	-3.57137173e+01	-4.49677529e+00	1.45988821e+02
853145142.857	-1.27983472e-01	-3.14426585e+01	-3.57922120e+01	-3.84355540e+01	-3.56990108e+01	-3.61840275e+01	-4.50458346e+00	1.45837561e+02
853430714.286	-1.22450759e-01	-3.14363046e+01	-3.58545045e+01	-3.89897703e+01	-3.56911552e+01	-3.69042976e+01	-4.50350490e+00	1.45710576e+02
853716285.714	-1.23065142e-01	-3.14166078e+01	-3.57822146e+01	-4.01571863e+01	-3.56901736e+01	-3.75918817e+01	-4.50211258e+00	1.45561055e+02
854001857.143	-1.26223210e-01	-3.14251312e+01	-3.58281753e+01	-4.04829130e+01	-3.56697349e+01	-3.85449010e+01	-4.49776031e+00	1.45446263e+02
854287428.571	-1.29967378e-01	-3.14328216e+01	-3.57659707e+01	-4.14720459e+01	-3.56614211e+01	-3.90528649e+01	-4.50866310e+00	1.45373722e+02
854573000	-1.31722355e-01	-3.14473152e+01	-3.57964085e+01	-4.22309537e+01	-3.56850224e+01	-3.99020493e+01	-4.50671372e+00	1.45208690e+02
854858571.429	-1.31497976e-01	-3.14371798e+01	-3.58072363e+01	-4.26322473e+01	-3.56504911e+01	-4.05326740e+01	-4.50234561e+00	1.45015193e+02
855144142.857	-1.31122164e-01	-3.14436002e+01	-3.57879171e+01	-4.33850174e+01	-3.56295782e+01	-4.13232570e+01	-4.50168603e+00	1.44877670e+02
855429714.286	-1.30480663e-01	-3.14304942e+01	-3.58284970e+01	-4.43328502e+01	-3.56523593e+01	-4.20605916e+01	-4.49958176e+00	1.44695300e+02
855715285.714	-1.28737771e-01	-3.14538102e+01	-3.58146459e+01	-4.50927105e+01	-3.56426734e+01	-4.27911346e+01	-4.50049000e+00	1.44599222e+02
856000857.143	-1.29475052e-01	-3.14549455e+01	-3.57836592e+01	-4.54268386e+01	-3.56395743e+01	-4.31921047e+01	-4.50395238e+00	1.44383781e+02
856286428.571	-1.29423716e-01	-3.14638961e+01	-3.57898164e+01	-4.62719279e+01	-3.56621819e+01	-4.39214088e+01	-4.51078829e+00	1.44200291e+02
856572000	-1.33044277e-01	-3.14788363e+01	-3.57503998e+01	-4.69465702e+01	-3.56354228e+01	-4.47574451e+01	-4.50495748e+00	1.44074064e+02
856857571.429	-1.29809608e-01	-3.14809533e+01	-3.58514709e+01	-4.76560464e+01	-3.56413336e+01	-4.54039549e+01	-4.51610530e+00	1.43913166e+02
857143142.857	-1.31259384e-01	-3.15000390e+01	-3.58039204e+01	-4.85221338e+01	-3.56546541e+01	-4.60579811e+01	-4.51704723e+00	1.43745396e+02
857428714.286	-1.29260728e-01	-3.14902373e+01	-3.58387137e+01	-4.90624771e+01	-3.56375201e+01	-4.65524651e+01	-4.51874588e+00	1.43593545e+02
857714285.714	-1.29702102e-01	-3.15231057e+01	-3.58274918e+01	-4.98296219e+01	-3.56702297e+01	-4.72805395e+01	-4.52441594e+00	1.43445152e+02
857999857.143	-1.29763568e-01	-3.15079319e+01	-3.58163916e+01	-5.07396005e+01	-3.56674102e+01	-4.82289403e+01	-4.52623866e+00	1.43287202e+02
858285428.571	-1.29377882e-01	-3.15058905e+01	-3.58157117e+01	-5.13020120e+01	-3.56447783e+01	-4.87303228e+01	-4.53294630e+00	1.43147555e+02
858571000	-1.24840517e-01	-3.15038150e+01	-3.58743644e+01	-5.18819249e+01	-3.56607256e+01	-4.93760777e+01	-4.53620812e+00	1.43001194e+02
858856571.429	-1.23619259e-01	-3.15183349e+01	-3.58547397e+01	-5.22857009e+01	-3.56533116e+01	-4.99242239e+01	-4.54780194e+00	1.42760474e+02
859142142.857	-1.24880462e-01	-3.15230290e+01	-3.58691750e+01	-5.31569996e+01	-3.56750025e+01	-5.08047631e+01	-4.55309889e+00	1.42629962e+02
859427714.286	-1.25335018e-01	-3.15115332e+01	-3.58834284e+01	-5.40792365e+01	-3.56839549e+01	-5.14430191e+01	-4.56927503e+00	1.42465098e+02
859713285.714	-1.23550394e-01	-3.15512639e+01	-3.58651898e+01	-5.45951056e+01	-3.56835250e+01	-5.20867822e+01	-4.56780087e+00	1.42338001e+02
859998857.143	-1.22030298e-01	-3.15403323e+01	-3.58867128e+01	-5.52295816e+01	-3.56644439e+01	-5.26403797e+01	-4.57844945e+00	1.42217758e+02
860284428.571	-1.25680596e-01	-3.15218045e+01	-3.58682474e+01	-5.57315844e+01	-3.56880789e+01	-5.34276591e+01	-4.58030752e+00	1.42042056e+02
860570000	-1.23526813e-01	-3.15571958e+01	-3.59159741e+01	-5.64055606e+01	-3.56846307e+01	-5.42051365e+01	-4.58385274e+00	1.41853208e+02
860855571.429	-1.28375305e-01	-3.15493912e+01	-3.59240324e+01	-5.72792195e+01	-3.57014112e+01	-5.47686301e+01	-4.58608874e+00	1.41741928e+02
861141142.857	-1.25574528e-01	-3.15422658e+01	-3.59436279e+01	-5.79532577e+01	-3.57084872e+01	-5.53073110e+01	-4.59333683e+00	1.41563022e+02
861426714.286	-1.27485106e-01	-3.15418346e+01	-3.59490844e+01	-5.84012643e+01	-3.56826580e+01	-5.59682174e+01	-4.59904690e+00	1.41413683e+02
861712285.714	-1.21312759e-01	-3.15008948e+01	-3.59728304e+01	-5.88944292e+01	-3.57249486e+01	-5.63229473e+01	-4.59950664e+00	1.41260949e+02
861997857.143	-1.25545157e-01	-3.15179193e+01	-3.59810715e+01	-5.96338334e+01	-3.57217924e+01	-5.70716471e+01	-4.60201172e+00	1.41080659e+02
862283428.571	-1.22660112e-01	-3.15182212e+01	-3.59921686e+01	-6.04864163e+01	-3.57228035e+01	-5.78389087e+01	-4.60637889e+00	1.40969471e+02
862569000	-1.27128499e-01	-3.15153639e+01	-3.60135159e+01	-6.09133914e+01	-3.57739192e+01	-5.85052918e+01	-4.60512858e+00	1.40815441e+02
862854571.429	-1.25398044e-01	-3.15249995e+01	-3.60282358e+01	-6.17121382e+01	-3.57205356e+01	-5.90074557e+01	-4.60901201e+00	1.40681958e+02
863140142.857	-1.22383157e-01	-3.15496395e+01	-3.60172441e+01	-6.20230027e+01	-3.57646862e+01	-5.95853457e+01	-4.60301424e+00	1.40549409e+02
863425714.286	-1.22358942e-01	-3.15473001e+01	-3.60645897e+01	-6.27315694e+01	-3.57771870e+01	-6.02221776e+01	-4.60643746e+00	1.40299305e+02
863711285.714	-1.24942352e-01	-3.15641294e+01	-3.60631792e+01	-6.33446178e+01	-3.57933728e+01	-6.07824429e+01	-4.61152195e+00	1.40174426e+02
863996857.143	-1.24403658e-01	-3.15704289e+01	-3.60613269e+01	-6.39380294e+01	-3.57866064e+01	-6.12080884e+01	-4.61079682e+00	1.40021377e+02
864282428.571	-1.24874480e-01	-3.15639910e+01	-3.60987235e+01	-6.40041784e+01	-3.57944825e+01	-6.18741619e+01	-4.61417228e+00	1.39865753e+02
864568000	-1.27698035e-01	-3.15811687e+01	-3.61513276e+01	-6.47642926e+01	-3.57933825e+01	-6.25813486e+01	-4.61564764e+00	1.39714974e+02
864853571.429	-1.27443486e-01	-3.15730004e+01	-3.61059134e+01	-6.53720742e+01	-3.57850596e+01	-6.32623703e+01	-4.61706370e+00	1.39542380e+02
865139142.857	-1.29517961e-01	-3.15828864e+01	-3.60981273e+01	-6.62512339e+01	-3.58190543e+01	-6.35817811e+01	-4.61745432e+00	1.39382724e+02
865424714.286	-1.29579599e-01	-3.15696144e+01	-3.61315210e+01	-6.64033544e+01	-3.58051718e+01	-6.42172989e+01	-4.61775630e+00	1.39204732e+02
865710285.714	-1.30261666e-01	-3.15636329e+01	-3.61587996e+01	-6.73433151e+01	-3.58358099e+01	-6.47695919e+01	-4.62158257e+00	1.39047054e+02
865995857.143	-1.34274537e-01	-3.15608948e+01	-3.61625917e+01	-6.74944738e+01	-3.58316058e+01	-6.53269859e+01	-4.61545427e+00	1.38907112e+02
866281428.571	-1.31275182e-01	-3.15705103e+01	-3.61636207e+01	-6.81324717e+01	-3.58559119e+01	-6.59150844e+01	-4.62557561e+00	1.38718767e+02
866567000	-1.31303693e-01	-3.15631060e+01	-3.61095393e+01	-6.85163130e+01	-3.58313192e+01	-6.66076624e+01	-4.63461967e+00	1.38531730e+02
866852571.429	-1.35855121e-01	-3.15828982e+01	-3.61591940e+01	-6.91291217e+01	-3.58698278e+01	-6.68048906e+01	-4.63529243e+00	1.38349616e+02
867138142.857	-1.37202454e-01	-3.15740909e+01	-3.61007320e+01	-6.96828144e+01	-3.58739761e+01	-6.76408167e+01	-4.63557545e+00	1.38190107e+02
867423714.286	-1.40083784e-01	-3.15797627e+01	-3.61995252e+01	-7.05402306e+01	-3.58582967e+01	-6.83085897e+01	-4.63843153e+00	1.37981813e+02
867709285.714	-1.37718736e-01	-3.15909659e+01	-3.61690560e+01	-7.07832575e+01	-3.59026455e+01	-6.86139355e+01	-4.64265693e+00	1.37872803e+02
867994857.143	-1.37288316e-01	-3.15984609e+01	-3.61767094e+01	-7.12748949e+01	-3.59040275e+01	-6.94143827e+01	-4.64937022e+00	1.37639731e+02
868280428.571	-1.37887348e-01	-3.16140104e+01	-3.61699998e+01	-7.21133990e+01	-3.59229187e+01	-6.98832952e+01	-4.64792044e+00	1.37432205e+02
868566000	-1.39752285e-01	-3.16228619e+01	-3.61821149e+01	-7.24185884e+01	-3.59449607e+01	-7.03125154e+01	-4.65910212e+00	1.37192071e+02
868851571.429	-1.40972753e-01	-3.16218810e+01	-3.62470325e+01	-7.31215275e+01	-3.59293917e+01	-7.07350017e+01	-4.66000615e+00	1.37092714e+02
869137142.857	-1.42903774e-01	-3.16265487e+01	-3.62331282e+01	-7.35496523e+01	-3.59218495e+01	-7.13420502e+01	-4.66625547e+00	1.36950524e+02
869422714.286	-1.42556362e-01	-3.16323145e+01	-3.62209321e+01	-7.36295238e+01	-3.59418347e+01	-7.19042147e+01	-4.67120602e+00	1.36722575e+02
869708285.714	-1.46230710e-01	-3.16308857e+01	-3.62215681e+01	-7.45503371e+01	-3.59567904e+01	-7.24766547e+01	-4.68008743e+00	1.36556943e+02
869993857.143	-1.44953910e-01	-3.16353799e+01	-3.62961435e+01	-7.49920391e+01	-3.59719966e+01	-7.30483308e+01	-4.68462676e+00	1.36388200e+02
870279428.571	-1.44964656e-01	-3.16399439e+01	-3.62505411e+01	-7.57114772e+01	-3.59813026e+01	-7.33254074e+01	-4.69684324e+00	1.36215448e+02
870565000	-1.46117903e-01	-3.16637983e+01	-3.62984677e+01	-7.61048494e+01	-3.59871776e+01	-7.41241422e+01	-4.70613880e+00	1.36041999e+02
870850571.429	-1.45202091e-01	-3.16764674e+01	-3.62808363e+01	-7.66077774e+01	-3.59808150e+01	-7.46808280e+01	-4.71232890e+00	1.35949448e+02
871136142.857	-1.47560171e-01	-3.16790263e+01	-3.62542623e+01	-7.71545030e+01	-3.59809437e+01	-7.51323135e+01	-4.71623939e+00	1.35820805e+02
871421714.286	-1.49492160e-01	-3.16921476e+01	-3.62759439e+01	-7.74778484e+01	-3.60007321e+01	-7.55192243e+01	-4.72946442e+00	1.35678824e+02
871707285.714	-1.45841551e-01	-3.17166188e+01	-3.62649782e+01	-7.79350226e+01	-3.60044807e+01	-7.62552799e+01	-4.73852338e+00	1.35503570e+02
871992857.143	-1.45378507e-01	-3.17132458e+01	-3.62828877e+01	-7.86126248e+01	-3.59904239e+01	-7.65751935e+01	-4.75544640e+00	1.35395539e+02
872278428.571	-1.51058678e-01	-3.17079899e+01	-3.63454488e+01	-7.90615426e+01	-3.59992449e+01	-7.71798443e+01	-4.77034265e+00	1.35293332e+02
872564000	-1.49748878e-01	-3.17019094e+01	-3.62771489e+01	-7.94080635e+01	-3.60191352e+01	-7.75982176e+01	-4.78032081e+00	1.35119745e+02
872849571.429	-1.48227141e-01	-3.17012223e+01	-3.63406769e+01	-7.99453788e+01	-3.60220518e+01	-7.80245981e+01	-4.78994844e+00	1.34987778e+02
873135142.857	-1.47654077e-01	-3.17006785e+01	-3.62754132e+01	-8.02384976e+01	-3.59972413e+01	-7.85301045e+01	-4.80105924e+00	1.34847228e+02
873420714.286	-1.53821915e-01	-3.16987210e+01	-3.62870233e+01	-8.06647625e+01	-3.60182577e+01	-7.88823487e+01	-4.81648136e+00	1.34656344e+02
873706285.714	-1.49484710e-01	-3.17002761e+01	-3.62825087e+01	-8.12091885e+01	-3.59730209e+01	-7.94661923e+01	-4.82994140e+00	1.34523400e+02
873991857.143	-1.49475316e-01	-3.17184818e+01	-3.62751856e+01	-8.16973556e+01	-3.59943869e+01	-7.99258101e+01	-4.83640660e+00	1.34364196e+02
874277428.571	-1.50055964e-01	-3.17119528e+01	-3.62998619e+01	-8.20670695e+01	-3.59678739e+01	-8.05473974e+01	-4.84953160e+00	1.34124846e+02
874563000	-1.48888539e-01	-3.17245161e+01	-3.62510816e+01	-8.23286996e+01	-3.59354278e+01	-8.07953183e+01	-4.85940946e+00	1.33977464e+02
874848571.429	-1.46321311e-01	-3.17413314e+01	-3.62660877e+01	-8.31134801e+01	-3.59525062e+01	-8.12253038e+01	-4.87341864e+00	1.33820880e+02
875134142.857	-1.48383648e-01	-3.17218490e+01	-3.62496343e+01	-8.35272219e+01	-3.59180600e+01	-8.17119863e+01	-4.89179005e+00	1.33630468e+02
875419714.286	-1.50635336e-01	-3.17392551e+01	-3.62666137e+01	-8.37378827e+01	-3.59227367e+01	-8.24246720e+01	-4.90550781e+00	1.33546254e+02
875705285.714	-1.52329303e-01	-3.17119084e+01	-3.62622736e+01	-8.44086562e+01	-3.58755561e+01	-8.28506231e+01	-4.91445907e+00	1.33348001e+02
875990857.143	-1.55526394e-01	-3.17190303e+01	-3.62468022e+01	-8.46988455e+01	-3.58609925e+01	-8.35295433e+01	-4.92794486e+00	1.33273233e+02
876276428.571	-1.53281854e-01	-3.17256493e+01	-3.62698401e+01	-8.54053168e+01	-3.58459120e+01	-8.39805563e+01	-4.94357226e+00	1.33109099e+02
876562000	-1.52445117e-01	-3.17366486e+01	-3.61916298e+01	-8.59043167e+01	-3.58423179e+01	-8.44485468e+01	-4.95906087e+00	1.32969965e+02
876847571.429	-1.52133310e-01	-3.17376547e+01	-3.62351505e+01	-8.65155401e+01	-3.58032241e+01	-8.50773721e+01	-4.96323885e+00	1.32774723e+02
877133142.857	-1.53447963e-01	-3.17596778e+01	-3.61627384e+01	-8.69946185e+01	-3.58069490e+01	-8.55160897e+01	-4.98593702e+00	1.32664381e+02
877418714.286	-1.55128823e-01	-3.17785983e+01	-3.61719014e+01	-8.74098464e+01	-3.58180935e+01	-8.62511149e+01	-5.00042778e+00	1.32505611e+02
877704285.714	-1.53268605e-01	-3.17817281e+01	-3.61583025e+01	-8.85230454e+01	-3.57875747e+01	-8.67743371e+01	-5.01934311e+00	1.32400493e+02
877989857.143	-1.55030398e-01	-3.17787702e+01	-3.62044084e+01	-8.87730096e+01	-3.57967510e+01	-8.75382733e+01	-5.02134304e+00	1.32229292e+02
878275428.571	-1.56727362e-01	-3.18020047e+01	-3.61607247e+01	-8.93049673e+01	-3.57818855e+01	-8.78776618e+01	-5.03544392e+00	1.32108641e+02
878561000	-1.55362908e-01	-3.17900722e+01	-3.61268461e+01	-8.98276267e+01	-3.57680816e+01	-8.85716138e+01	-5.05429892e+00	1.31996435e+02
878846571.429	-1.54984576e-01	-3.18278049e+01	-3.61252358e+01	-9.04543304e+01	-3.57440129e+01	-8.91571450e+01	-5.06474242e+00	1.31891825e+02
879132142.857	-1.54467705e-01	-3.18287520e+01	-3.61143213e+01	-9.10577193e+01	-3.57363657e+01	-8.97986266e+01	-5.08495628e+00	1.31755593e+02
879417714.286	-1.54071979e-01	-3.18133360e+01	-3.61279504e+01	-9.15420655e+01	-3.57318127e+01	-9.02968656e+01	-5.09811727e+00	1.31727378e+02
879703285.714	-1.56443097e-01	-3.18285333e+01	-3.60987042e+01	-9.22744317e+01	-3.57184642e+01	-9.08897554e+01	-5.11701190e+00	1.31570506e+02
879988857.143	-1.57108773e-01	-3.18282671e+01	-3.60923484e+01	-9.26941764e+01	-3.57076577e+01	-9.15313441e+01	-5.12995235e+00	1.31438943e+02
880274428.571	-1.57126106e-01	-3.18463930e+01	-3.60866625e+01	-9.33958021e+01	-3.57021231e+01	-9.18937432e+01	-5.14962044e+00	1.31402516e+02
880560000	-1.59004553e-01	-3.18671345e+01	-3.60798910e+01	-9.41594575e+01	-3.57072103e+01	-9.27860355e+01	-5.15384324e+00	1.31270644e+02
880845571.429	-1.58062976e-01	-3.18736539e+01	-3.60605333e+01	-9.45127613e+01	-3.56923794e+01	-9.32753266e+01	-5.17135954e+00	1.31127712e+02
881131142.857	-1.58442282e-01	-3.18924887e+01	-3.60930916e+01	-9.52231304e+01	-3.56866326e+01	-9.38817057e+01	-5.18305950e+00	1.30967175e+02
881416714.286	-1.61081175e-01	-3.18843914e+01	-3.60746637e+01	-9.57670862e+01	-3.56922542e+01	-9.46630070e+01	-5.20011418e+00	1.30910668e+02
881702285.714	-1.59516697e-01	-3.18768548e+01	-3.60839182e+01	-9.61327602e+01	-3.56499930e+01	-9.50047064e+01	-5.21256104e+00	1.30662945e+02
881987857.143	-1.62020672e-01	-3.18759942e+01	-3.60492323e+01	-9.69163984e+01	-3.56697653e+01	-9.55606130e+01	-5.23354335e+00	1.30561054e+02
882273428.571	-1.62943564e-01	-3.18932709e+01	-3.60754599e+01	-9.75831953e+01	-3.56536375e+01	-9.61597094e+01	-5.25309170e+00	1.30454085e+02
882559000	-1.64122424e-01	-3.19180023e+01	-3.60769109e+01	-9.79792762e+01	-3.56587927e+01	-9.68196626e+01	-5.26846510e+00	1.30419274e+02
882844571.429	-1.64069743e-01	-3.19480476e+01	-3.60714912e+01	-9.86095783e+01	-3.56327664e+01	-9.74585855e+01	-5.27986019e+00	1.30289949e+02
883130142.857	-1.61751508e-01	-3.19733950e+01	-3.60470795e+01	-9.93648299e+01	-3.56070414e+01	-9.80051372e+01	-5.29977173e+00	1.30164761e+02
883415714.286	-1.62834780e-01	-3.19815819e+01	-3.60351021e+01	-9.96444132e+01	-3.55958291e+01	-9.86847848e+01	-5.31900635e+00	1.30089631e+02
883701285.714	-1.63781129e-01	-3.19871201e+01	-3.60077527e+01	-1.00612527e+02	-3.56097385e+01	-9.92363965e+01	-5.33029197e+00	1.29951780e+02
883986857.143	-1.65731985e-01	-3.20116738e+01	-3.60120898e+01	-1.01155384e+02	-3.55714276e+01	-9.97741450e+01	-5.33808343e+00	1.29857391e+02
884272428.571	-1.65294799e-01	-3.20166501e+01	-3.59847851e+01	-1.01715220e+02	-3.55667903e+01	-1.00450999e+02	-5.35984876e+00	1.29789812e+02
884558000	-1.60563420e-01	-3.19962907e+01	-3.60164304e+01	-1.02555188e+02	-3.55640194e+01	-1.01164550e+02	-5.38001629e+00	1.29743937e+02
884843571.429	-1.61773050e-01	-3.20383845e+01	-3.59640771e+01	-1.02788522e+02	-3.55366181e+01	-1.01889290e+02	-5.38951588e+00	1.29617506e+02
885129142.857	-1.61662410e-01	-3.20519244e+01	-3.59792369e+01	-1.03807227e+02	-3.55426200e+01	-1.02507733e+02	-5.40294697e+00	1.29502934e+02
885414714.286	-1.59257871e-01	-3.20667914e+01	-3.59685687e+01	-1.04468467e+02	-3.55572233e+01	-1.03221597e+02	-5.41215473e+00	1.29462722e+02
885700285.714	-1.58973393e-01	-3.20671968e+01	-3.59690644e+01	-1.04870906e+02	-3.55455871e+01	-1.03917887e+02	-5.43218415e+00	1.29419108e+02
885985857.143	-1.60172721e-01	-3.20871624e+01	-3.59820676e+01	-1.05626069e+02	-3.55234612e+01	-1.04648290e+02	-5.45699418e+00	1.29338914e+02
886271428.571	-1.60176743e-01	-3.20780852e+01	-3.59557886e+01	-1.06439475e+02	-3.55345455e+01	-1.05293549e+02	-5.46209207e+00	1.29354051e+02
886557000	-1.59987693e-01	-3.20941967e+01	-3.59693645e+01	-1.06815947e+02	-3.55273194e+01	-1.06008577e+02	-5.47982114e+00	1.29307563e+02
886842571.429	-1.58935799e-01	-3.21268598e+01	-3.59412967e+01	-1.07688562e+02	-3.55182883e+01	-1.06738137e+02	-5.49913424e+00	1.29244681e+02
887128142.857	-1.59872061e-01	-3.21140178e+01	-3.59186569e+01	-1.08251483e+02	-3.54900587e+01	-1.07674906e+02	-5.51869784e+00	1.29273355e+02
887413714.286	-1.61335660e-01	-3.21477658e+01	-3.59843825e+01	-1.08781616e+02	-3.55340677e+01	-1.08100299e+02	-5.54136660e+00	1.29241081e+02
887699285.714	-1.59645792e-01	-3.21285704e+01	-3.59592979e+01	-1.10156318e+02	-3.54967635e+01	-1.08915154e+02	-5.56870244e+00	1.29142867e+02
887984857.143	-1.60548685e-01	-3.21598355e+01	-3.59450219e+01	-1.10494900e+02	-3.54961801e+01	-1.09553355e+02	-5.58929547e+00	1.29080120e+02
888270428.571	-1.58473367e-01	-3.22028418e+01	-3.59550763e+01	-1.10954209e+02	-3.55046904e+01	-1.10401797e+02	-5.60842779e+00	1.29006021e+02
888556000	-1.62633720e-01	-3.22075085e+01	-3.59300185e+01	-1.11745672e+02	-3.55209155e+01	-1.11117483e+02	-5.63875514e+00	1.28879221e+02
888841571.429	-1.63882606e-01	-3.22208533e+01	-3.59734149e+01	-1.12663350e+02	-3.55053909e+01	-1.11845979e+02	-5.64854175e+00	1.28917656e+02
889127142.857	-1.60955790e-01	-3.21997781e+01	-3.59771050e+01	-1.13311746e+02	-3.55101913e+01	-1.12496487e+02	-5.67072426e+00	1.28801350e+02
889412714.286	-1.62267242e-01	-3.21988500e+01	-3.59356521e+01	-1.13880139e+02	-3.55415772e+01	-1.13400885e+02	-5.68306081e+00	1.28825555e+02
889698285.714	-1.64436288e-01	-3.22113953e+01	-3.59878143e+01	-1.14758130e+02	-3.55457250e+01	-1.14141778e+02	-5.70820714e+00	1.28713717e+02
889983857.143	-1.62238692e-01	-3.22520704e+01	-3.60225684e+01	-1.15504076e+02	-3.55484862e+01	-1.14778326e+02	-5.72933370e+00	1.28723732e+02
890269428.571	-1.63968808e-01	-3.22830287e+01	-3.60118711e+01	-1.16340383e+02	-3.55722263e+01	-1.15493330e+02	-5.74340189e+00	1.28626268e+02
890555000	-1.64504761e-01	-3.22944627e+01	-3.60274740e+01	-1.16884667e+02	-3.55783240e+01	-1.16329827e+02	-5.76862684e+00	1.28688789e+02
890840571.429	-1.61108525e-01	-3.23093377e+01	-3.60333727e+01	-1.17410185e+02	-3.56058645e+01	-1.17159149e+02	-5.79105931e+00	1.28715961e+02
891126142.857	-1.58260469e-01	-3.23104347e+01	-3.60867543e+01	-1.18332037e+02	-3.56145894e+01	-1.17803580e+02	-5.81595091e+00	1.28658867e+02
891411714.286	-1.58191236e-01	-3.23224974e+01	-3.60734381e+01	-1.19125408e+02	-3.56060298e+01	-1.18535311e+02	-5.82981723e+00	1.28614131e+02
891697285.714	-1.58438487e-01	-3.23241684e+01	-3.60869608e+01	-1.19586716e+02	-3.56605287e+01	-1.19338140e+02	-5.84486439e+00	1.28637321e+02
891982857.143	-1.59106761e-01	-3.23229659e+01	-3.61277944e+01	-1.20394419e+02	-3.56883335e+01	-1.20013447e+02	-5.86178179e+00	1.28677905e+02
892268428.571	-1.59718103e-01	-3.23431935e+01	-3.61356374e+01	-1.21190520e+02	-3.57350038e+01	-1.20769964e+02	-5.88632558e+00	1.28670498e+02
892554000	-1.61341005e-01	-3.23571080e+01	-3.61585995e+01	-1.21875407e+02	-3.57140566e+01	-1.21564522e+02	-5.90495965e+00	1.28755309e+02
892839571.429	-1.60406305e-01	-3.23574601e+01	-3.61990044e+01	-1.22507954e+02	-3.57616877e+01	-1.22217739e+02	-5.91797341e+00	1.28814749e+02
893125142.857	-1.59068148e-01	-3.24035100e+01	-3.62052953e+01	-1.23187714e+02	-3.57728991e+01	-1.22832106e+02	-5.93210852e+00	1.28817075e+02
893410714.286	-1.58751496e-01	-3.24280776e+01	-3.62592201e+01	-1.23755034e+02	-3.58430827e+01	-1.23509280e+02	-5.95072862e+00	1.28824469e+02
893696285.714	-1.57263278e-01	-3.24440457e+01	-3.62507380e+01	-1.24326337e+02	-3.58813474e+01	-1.24290101e+02	-5.95862175e+00	1.28810433e+02
893981857.143	-1.56197165e-01	-3.24719628e+01	-3.62780485e+01	-1.24986329e+02	-3.58898277e+01	-1.24952559e+02	-5.97315485e+00	1.28880062e+02
894267428.571	-1.52929816e-01	-3.24733040e+01	-3.63015527e+01	-1.25653122e+02	-3.59309047e+01	-1.25516814e+02	-5.98129437e+00	1.28950300e+02
894553000	-1.58247473e-01	-3.24658408e+01	-3.63223490e+01	-1.26393755e+02	-3.59803092e+01	-1.26332764e+02	-5.99011208e+00	1.29000433e+02
894838571.429	-1.58189401e-01	-3.24837831e+01	-3.64053525e+01	-1.27085987e+02	-3.60029873e+01	-1.26992830e+02	-5.99725760e+00	1.29023982e+02
895124142.857	-1.54520281e-01	-3.25315674e+01	-3.63963611e+01	-1.27947743e+02	-3.60420125e+01	-1.27756011e+02	-6.00224971e+00	1.28985734e+02
895409714.286	-1.50042030e-01	-3.25395431e+01	-3.64137862e+01	-1.28276974e+02	-3.60667244e+01	-1.28275345e+02	-6.00497467e+00	1.28979690e+02
895695285.714	-1.52586689e-01	-3.25472985e+01	-3.64554284e+01	-1.28809961e+02	-3.60542815e+01	-1.29185309e+02	-6.02371366e+00	1.28981699e+02
895980857.143	-1.53338148e-01	-3.25486937e+01	-3.65192743e+01	-1.29765669e+02	-3.61033108e+01	-1.29562389e+02	-6.02516774e+00	1.28968967e+02
896266428.571	-1.52794171e-01	-3.25682799e+01	-3.65555918e+01	-1.30278463e+02	-3.61327574e+01	-1.30303617e+02	-6.02672545e+00	1.28978674e+02
896552000	-1.53797286e-01	-3.25760149e+01	-3.65608864e+01	-1.30972512e+02	-3.61711094e+01	-1.30926349e+02	-6.02101298e+00	1.28917014e+02
896837571.429	-1.49605129e-01	-3.25529164e+01	-3.66165814e+01	-1.31373053e+02	-3.62287430e+01	-1.31757600e+02	-6.03364395e+00	1.28880491e+02
897123142.857	-1.48942553e-01	-3.25737037e+01	-3.66614368e+01	-1.31728840e+02	-3.62368560e+01	-1.32339477e+02	-6.02439966e+00	1.28908937e+02
897408714.286	-1.45494155e-01	-3.26022635e+01	-3.66852994e+01	-1.32319884e+02	-3.62640694e+01	-1.32868878e+02	-6.02969705e+00	1.28816780e+02
897694285.714	-1.49290492e-01	-3.26022218e+01	-3.67077356e+01	-1.33210635e+02	-3.62903057e+01	-1.33590142e+02	-6.03079135e+00	1.28865127e+02
897979857.143	-1.47653656e-01	-3.26479875e+01	-3.67928063e+01	-1.33924640e+02	-3.63080768e+01	-1.34198824e+02	-6.02923360e+00	1.28758122e+02
898265428.571	-1.48844419e-01	-3.26449844e+01	-3.67939645e+01	-1.34648225e+02	-3.63659340e+01	-1.34863958e+02	-6.04202240e+00	1.28786503e+02
898551000	-1.54318243e-01	-3.26437217e+01	-3.69037227e+01	-1.34996657e+02	-3.64184973e+01	-1.35548538e+02	-6.04754674e+00	1.28743412e+02
898836571.429	-1.49029416e-01	-3.26337581e+01	-3.69295007e+01	-1.35503859e+02	-3.64559644e+01	-1.36085181e+02	-6.05097659e+00	1.28679799e+02
899122142.857	-1.49027976e-01	-3.26735191e+01	-3.69764503e+01	-1.36202502e+02	-3.65146270e+01	-1.36770575e+02	-6.06038448e+00	1.28652431e+02
899407714.286	-1.47565279e-01	-3.26471817e+01	-3.69916112e+01	-1.36747191e+02	-3.65371633e+01	-1.37321369e+02	-6.04054765e+00	1.28634771e+02
899693285.714	-1.50229297e-01	-3.26661628e+01	-3.70479546e+01	-1.37105619e+02	-3.66124836e+01	-1.38220908e+02	-6.05603877e+00	1.28557677e+02
899978857.143	-1.49741390e-01	-3.26735453e+01	-3.70457908e+01	-1.37500639e+02	-3.66896196e+01	-1.38634724e+02	-6.05563876e+00	1.28501004e+02
900264428.571	-1.49829127e-01	-3.27111224e+01	-3.70855206e+01	-1.38398123e+02	-3.67187715e+01	-1.39435812e+02	-6.06392912e+00	1.28500806e+02
900550000	-1.50634642e-01	-3.27175904e+01	-3.71254520e+01	-1.39077628e+02	-3.67805214e+01	-1.39968381e+02	-6.06554971e+00	1.28393864e+02
900835571.429	-1.47780436e-01	-3.26850357e+01	-3.71837684e+01	-1.39587594e+02	-3.68232578e+01	-1.40574098e+02	-6.07953676e+00	1.28376652e+02
901121142.857	-1.46508408e-01	-3.27196950e+01	-3.72341144e+01	-1.39908539e+02	-3.68868892e+01	-1.41181084e+02	-6.09203943e+00	1.28317745e+02
901406714.286	-1.50119048e-01	-3.27326304e+01	-3.72919374e+01	-1.40228458e+02	-3.69333362e+01	-1.41534769e+02	-6.09020395e+00	1.28279079e+02
901692285.714	-1.48607279e-01	-3.27519753e+01	-3.73120854e+01	-1.40965474e+02	-3.70198016e+01	-1.42111906e+02	-6.09784601e+00	1.28205211e+02
901977857.143	-1.47981780e-01	-3.27618931e+01	-3.73656739e+01	-1.41649061e+02	-3.70517532e+01	-1.42844934e+02	-6.10373767e+00	1.28137475e+02
902263428.571	-1.48890612e-01	-3.27736330e+01	-3.73848727e+01	-1.41943895e+02	-3.71108890e+01	-1.43276368e+02	-6.09902928e+00	1.28123556e+02
902549000	-1.46753181e-01	-3.27703217e+01	-3.74424540e+01	-1.42295031e+02	-3.71207288e+01	-1.43689179e+02	-6.09328182e+00	1.28055182e+02
902834571.429	-1.46198747e-01	-3.27952217e+01	-3.74612781e+01	-1.43117456e+02	-3.71935482e+01	-1.44408303e+02	-6.09718924e+00	1.28043535e+02
903120142.857	-1.45079145e-01	-3.27845758e+01	-3.75125928e+01	-1.43373280e+02	-3.72414465e+01	-1.44511491e+02	-6.10468640e+00	1.27983754e+02
903405714.286	-1.44548059e-01	-3.28033319e+01	-3.75459254e+01	-1.43456985e+02	-3.72926462e+01	-1.45199501e+02	-6.10417097e+00	1.27833691e+02
903691285.714	-1.48072485e-01	-3.28295777e+01	-3.75871397e+01	-1.44342049e+02	-3.73372944e+01	-1.45718942e+02	-6.09810163e+00	1.27806409e+02
903976857.143	-1.47170832e-01	-3.28571411e+01	-3.76110564e+01	-1.44497259e+02	-3.74176043e+01	-1.45809645e+02	-6.11924620e+00	1.27703356e+02
904262428.571	-1.48240403e-01	-3.28772693e+01	-3.76406037e+01	-1.45488568e+02	-3.74462864e+01	-1.46505700e+02	-6.11859650e+00	1.27640806e+02
904548000	-1.46409440e-01	-3.28666930e+01	-3.77015961e+01	-1.45413870e+02	-3.75216115e+01	-1.46857121e+02	-6.11769266e+00	1.27595551e+02
904833571.429	-1.44497310e-01	-3.28967264e+01	-3.77106119e+01	-1.45883687e+02	-3.75501036e+01	-1.47341772e+02	-6.12776857e+00	1.27534249e+02
905119142.857	-1.43128869e-01	-3.29029149e+01	-3.77546768e+01	-1.46346070e+02	-3.76005360e+01	-1.47850505e+02	-6.13928714e+00	1.27506450e+02
905404714.286	-1.42774473e-01	-3.29076594e+01	-3.77806307e+01	-1.46699883e+02	-3.76587239e+01	-1.48013834e+02	-6.14745496e+00	1.27424312e+02
905690285.714	-1.42443490e-01	-3.29385015e+01	-3.78444876e+01	-1.46969399e+02	-3.77368538e+01	-1.48611675e+02	-6.15277256e+00	1.27404755e+02
905975857.143	-1.42077257e-01	-3.29549057e+01	-3.78759304e+01	-1.47634469e+02	-3.78152476e+01	-1.48921939e+02	-6.15559022e+00	1.27259441e+02
906261428.571	-1.41703551e-01	-3.29553596e+01	-3.79209206e+01	-1.48112575e+02	-3.78823216e+01	-1.49201303e+02	-6.15184060e+00	1.27226853e+02
906547000	-1.40088671e-01	-3.29995167e+01	-3.79342743e+01	-1.48174782e+02	-3.79382719e+01	-1.49596078e+02	-6.16062405e+00	1.27134715e+02
906832571.429	-1.42012314e-01	-3.30052090e+01	-3.79782552e+01	-1.48655617e+02	-3.79790705e+01	-1.49990872e+02	-6.16913802e+00	1.27019772e+02
907118142.857	-1.39462008e-01	-3.30028259e+01	-3.80621712e+01	-1.49079460e+02	-3.80436267e+01	-1.50211338e+02	-6.18363003e+00	1.26897316e+02
907403714.286	-1.42927944e-01	-3.30550896e+01	-3.81006259e+01	-1.49494956e+02	-3.81312438e+01	-1.50577226e+02	-6.17845693e+00	1.26813737e+02
907689285.714	-1.47795490e-01	-3.30571020e+01	-3.82038327e+01	-1.49903192e+02	-3.81548771e+01	-1.50798723e+02	-6.17800306e+00	1.26683169e+02
907974857.143	-1.45243962e-01	-3.30903530e+01	-3.81995435e+01	-1.49830759e+02	-3.82329547e+01	-1.51362425e+02	-6.19957083e+00	1.26631465e+02
908260428.571	-1.42929999e-01	-3.30744614e+01	-3.82386383e+01	-1.50545432e+02	-3.82628621e+01	-1.51375055e+02	-6.20906808e+00	1.26581228e+02
908546000	-1.41155644e-01	-3.30750440e+01	-3.82790881e+01	-1.50992645e+02	-3.82843929e+01	-1.51685914e+02	-6.21532558e+00	1.26514191e+02
908831571.429	-1.43300931e-01	-3.30954940e+01	-3.83501515e+01	-1.51347466e+02	-3.83082266e+01	-1.52006486e+02	-6.21790284e+00	1.26475726e+02
909117142.857	-1.44784629e-01	-3.30931432e+01	-3.84303062e+01	-1.51547066e+02	-3.84209407e+01	-1.52513814e+02	-6.23010418e+00	1.26381140e+02
909402714.286	-1.41634514e-01	-3.31115655e+01	-3.84100988e+01	-1.51544347e+02	-3.84304040e+01	-1.52466877e+02	-6.23428519e+00	1.26298543e+02
909688285.714	-1.47007465e-01	-3.31251421e+01	-3.85010878e+01	-1.51798051e+02	-3.84932891e+01	-1.52545311e+02	-6.23893613e+00	1.26252115e+02
909973857.143	-1.46654819e-01	-3.31528173e+01	-3.84734362e+01	-1.52009893e+02	-3.85186848e+01	-1.52744785e+02	-6.24331859e+00	1.26175290e+02
910259428.571	-1.40518144e-01	-3.32206332e+01	-3.85125138e+01	-1.52541637e+02	-3.85357162e+01	-1.53307073e+02	-6.24644081e+00	1.26133438e+02
910545000	-1.43843762e-01	-3.32023792e+01	-3.85440597e+01	-1.52996051e+02	-3.85799473e+01	-1.53147836e+02	-6.26321646e+00	1.26032888e+02
910830571.429	-1.42624434e-01	-3.31948995e+01	-3.85859386e+01	-1.53176463e+02	-3.86237147e+01	-1.53334379e+02	-6.27849021e+00	1.25988061e+02
911116142.857	-1.40091449e-01	-3.32218797e+01	-3.86810782e+01	-1.53152413e+02	-3.86014725e+01	-1.53824817e+02	-6.28464374e+00	1.25950662e+02
911401714.286	-1.35716291e-01	-3.32409952e+01	-3.86776756e+01	-1.53567809e+02	-3.86776829e+01	-1.53756348e+02	-6.28108630e+00	1.25792859e+02
911687285.714	-1.38189594e-01	-3.32620819e+01	-3.87083436e+01	-1.53894401e+02	-3.87086770e+01	-1.53695282e+02	-6.29168754e+00	1.25804736e+02
911972857.143	-1.39937433e-01	-3.32454918e+01	-3.87196394e+01	-1.53805248e+02	-3.86710630e+01	-1.54387892e+02	-6.30178126e+00	1.25719919e+02
912258428.571	-1.37803732e-01	-3.32708171e+01	-3.86893118e+01	-1.53904433e+02	-3.87483268e+01	-1.54350153e+02	-6.30998120e+00	1.25633938e+02
912544000	-1.41886550e-01	-3.32660693e+01	-3.88028349e+01	-1.54907661e+02	-3.87204664e+01	-1.54472666e+02	-6.31951068e+00	1.25674780e+02
912829571.429	-1.47442590e-01	-3.33218259e+01	-3.88265879e+01	-1.54894983e+02	-3.87697121e+01	-1.54556269e+02	-6.33231095e+00	1.25677818e+02
913115142.857	-1.41114954e-01	-3.33184591e+01	-3.88127815e+01	-1.55110838e+02	-3.87934491e+01	-1.54919515e+02	-6.34134168e+00	1.25640888e+02
913400714.286	-1.37449013e-01	-3.33230929e+01	-3.88702727e+01	-1.54941541e+02	-3.87950304e+01	-1.54858518e+02	-6.33998488e+00	1.25555699e+02
913686285.714	-1.35631792e-01	-3.33570347e+01	-3.88912438e+01	-1.55582687e+02	-3.88020279e+01	-1.55334682e+02	-6.34611157e+00	1.25515747e+02
913971857.143	-1.35303557e-01	-3.33445499e+01	-3.88828348e+01	-1.56137638e+02	-3.87939622e+01	-1.55190508e+02	-6.35278434e+00	1.25455811e+02
914257428.571	-1.36718362e-01	-3.33815765e+01	-3.88655192e+01	-1.56462755e+02	-3.88389677e+01	-1.55532782e+02	-6.35320446e+00	1.25418659e+02
914543000	-1.33222415e-01	-3.33931791e+01	-3.89268147e+01	-1.56864190e+02	-3.88529708e+01	-1.55456819e+02	-6.35313904e+00	1.25395166e+02
914828571.429	-1.34886796e-01	-3.34392499e+01	-3.89079055e+01	-1.56779171e+02	-3.88326661e+01	-1.55837428e+02	-6.35826920e+00	1.25356148e+02
915114142.857	-1.33434510e-01	-3.34262850e+01	-3.88978072e+01	-1.57461915e+02	-3.88485590e+01	-1.56325207e+02	-6.34785780e+00	1.25314350e+02
915399714.286	-1.34734550e-01	-3.34514191e+01	-3.89649947e+01	-1.57169247e+02	-3.88606938e+01	-1.56144088e+02	-6.35015717e+00	1.25284050e+02
915685285.714	-1.37791648e-01	-3.34419085e+01	-3.89162240e+01	-1.57346985e+02	-3.88321315e+01	-1.56666069e+02	-6.35075586e+00	1.25225614e+02
915970857.143	-1.37786858e-01	-3.34886686e+01	-3.89066823e+01	-1.57562646e+02	-3.88316240e+01	-1.56887912e+02	-6.34526292e+00	1.25160314e+02
916256428.571	-1.35017688e-01	-3.34724126e+01	-3.89375151e+01	-1.58391523e+02	-3.88037389e+01	-1.57234906e+02	-6.34970896e+00	1.25102503e+02
916542000	-1.35727258e-01	-3.34548559e+01	-3.88858253e+01	-1.58730683e+02	-3.88381532e+01	-1.57244298e+02	-6.34713735e+00	1.25092826e+02
916827571.429	-1.31014806e-01	-3.34873641e+01	-3.90594414e+01	-1.58896605e+02	-3.88058085e+01	-1.57865662e+02	-6.35244080e+00	1.25029745e+02
917113142.857	-1.30854245e-01	-3.35177441e+01	-3.88928757e+01	-1.59076570e+02	-3.88128066e+01	-1.57843849e+02	-6.34834479e+00	1.24979753e+02
917398714.286	-1.31894822e-01	-3.35205228e+01	-3.89635417e+01	-1.59545321e+02	-3.88203910e+01	-1.58326016e+02	-6.33518022e+00	1.24958840e+02
917684285.714	-1.29708081e-01	-3.35025219e+01	-3.89281943e+01	-1.59746165e+02	-3.88587674e+01	-1.58514009e+02	-6.34062473e+00	1.24864335e+02
917969857.143	-1.29370311e-01	-3.35260888e+01	-3.89293231e+01	-1.60418751e+02	-3.87878035e+01	-1.58976614e+02	-6.33185975e+00	1.24778822e+02
918255428.571	-1.28853317e-01	-3.35387660e+01	-3.89161071e+01	-1.60355523e+02	-3.88300253e+01	-1.59279096e+02	-6.31699669e+00	1.24745902e+02
918541000	-1.33023140e-01	-3.35594581e+01	-3.89409703e+01	-1.61636362e+02	-3.88031349e+01	-1.59887120e+02	-6.31785391e+00	1.24670799e+02
918826571.429	-1.32078376e-01	-3.35539004e+01	-3.89818041e+01	-1.61262211e+02	-3.88332696e+01	-1.60048304e+02	-6.30670697e+00	1.24586941e+02
919112142.857	-1.32867924e-01	-3.35877470e+01	-3.90114599e+01	-1.61809441e+02	-3.88274467e+01	-1.60745221e+02	-6.29125238e+00	1.24446656e+02
919397714.286	-1.29536433e-01	-3.35861241e+01	-3.89925480e+01	-1.62085524e+02	-3.88399946e+01	-1.61121253e+02	-6.27976932e+00	1.24404488e+02
919683285.714	-1.32679483e-01	-3.36045885e+01	-3.90988228e+01	-1.62561625e+02	-3.88167740e+01	-1.61358511e+02	-6.27136550e+00	1.24304446e+02
919968857.143	-1.32947122e-01	-3.35792434e+01	-3.91090444e+01	-1.62716720e+02	-3.88595474e+01	-1.61679847e+02	-6.25843294e+00	1.24208980e+02
920254428.571	-1.36361383e-01	-3.36141086e+01	-3.91156712e+01	-1.63861460e+02	-3.89083235e+01	-1.61954836e+02	-6.24573782e+00	1.24127995e+02
920540000	-1.37038938e-01	-3.36313442e+01	-3.91600613e+01	-1.63697227e+02	-3.88830190e+01	-1.62424257e+02	-6.24452241e+00	1.24016972e+02
920825571.429	-1.34510087e-01	-3.36374342e+01	-3.91132761e+01	-1.64062689e+02	-3.89011268e+01	-1.62925875e+02	-6.22706828e+00	1.23901287e+02
921111142.857	-1.36733371e-01	-3.36327493e+01	-3.91735193e+01	-1.64365717e+02	-3.89193463e+01	-1.62902213e+02	-6.21875761e+00	1.23799138e+02
921396714.286	-1.37013357e-01	-3.36259679e+01	-3.91636886e+01	-1.64874790e+02	-3.89405663e+01	-1.63493669e+02	-6.20830247e+00	1.23723775e+02
921682285.714	-1.33436958e-01	-3.36508577e+01	-3.92567590e+01	-1.64830238e+02	-3.90132889e+01	-1.63865610e+02	-6.19078192e+00	1.23577502e+02
921967857.143	-1.35945411e-01	-3.36716087e+01	-3.92236424e+01	-1.65249888e+02	-3.89794681e+01	-1.64102501e+02	-6.17741944e+00	1.23480719e+02
922253428.571	-1.39080951e-01	-3.36822519e+01	-3.92861862e+01	-1.65162790e+02	-3.90110995e+01	-1.64080655e+02	-6.16615665e+00	1.23351134e+02
922539000	-1.41118853e-01	-3.37147686e+01	-3.93294130e+01	-1.65894019e+02	-3.90584248e+01	-1.64223194e+02	-6.16735641e+00	1.23142591e+02
922824571.429	-1.37927328e-01	-3.37074912e+01	-3.93392656e+01	-1.65832247e+02	-3.90488561e+01	-1.64809974e+02	-6.16085172e+00	1.22965342e+02
923110142.857	-1.40726108e-01	-3.37186800e+01	-3.93416864e+01	-1.65869871e+02	-3.90733363e+01	-1.64830251e+02	-6.15512798e+00	1.22831775e+02
923395714.286	-1.38313745e-01	-3.37265346e+01	-3.93919291e+01	-1.65925926e+02	-3.91018547e+01	-1.65159884e+02	-6.14548626e+00	1.22610971e+02
923681285.714	-1.40074621e-01	-3.37247874e+01	-3.93924921e+01	-1.66332290e+02	-3.91122967e+01	-1.65257958e+02	-6.14876508e+00	1.22487593e+02
923966857.143	-1.44765076e-01	-3.37478256e+01	-3.93341899e+01	-1.66306337e+02	-3.91210075e+01	-1.65417322e+02	-6.14996112e+00	1.22265305e+02
924252428.571	-1.40736075e-01	-3.37364775e+01	-3.94621984e+01	-1.66696972e+02	-3.91330870e+01	-1.65641423e+02	-6.14715939e+00	1.22110490e+02
924538000	-1.37708590e-01	-3.37748131e+01	-3.94472448e+01	-1.66180452e+02	-3.91413769e+01	-1.66041578e+02	-6.14681607e+00	1.21933974e+02
924823571.429	-1.40892333e-01	-3.37740013e+01	-3.94482669e+01	-1.67004128e+02	-3.91465672e+01	-1.66248783e+02	-6.14257091e+00	1.21785941e+02
925109142.857	-1.46745369e-01	-3.37826422e+01	-3.94622784e+01	-1.67066012e+02	-3.91450641e+01	-1.66195971e+02	-6.14213990e+00	1.21601804e+02
925394714.286	-1.48100355e-01	-3.37954850e+01	-3.93701380e+01	-1.67002215e+02	-3.91709446e+01	-1.66501246e+02	-6.13368511e+00	1.21362942e+02
925680285.714	-1.50570527e-01	-3.38296495e+01	-3.93603930e+01	-1.67180861e+02	-3.91404007e+01	-1.66512457e+02	-6.13609133e+00	1.21237223e+02
925965857.143	-1.48834559e-01	-3.38044421e+01	-3.93567859e+01	-1.67699405e+02	-3.91420756e+01	-1.66872773e+02	-6.13880443e+00	1.21052643e+02
926251428.571	-1.51151424e-01	-3.38092559e+01	-3.93454807e+01	-1.67779827e+02	-3.91184234e+01	-1.66918902e+02	-6.13262905e+00	1.20927817e+02
926537000	-1.48645679e-01	-3.38354011e+01	-3.94002920e+01	-1.67779708e+02	-3.91170959e+01	-1.67379066e+02	-6.13851422e+00	1.20837615e+02
926822571.429	-1.52229152e-01	-3.38579006e+01	-3.93883614e+01	-1.68060476e+02	-3.90906556e+01	-1.67561873e+02	-6.13838885e+00	1.20704317e+02
927108142.857	-1.54583783e-01	-3.38620396e+01	-3.92949558e+01	-1.68494838e+02	-3.90609346e+01	-1.67883029e+02	-6.14390139e+00	1.20573757e+02
927393714.286	-1.52201765e-01	-3.38799621e+01	-3.92757832e+01	-1.68847590e+02	-3.90551672e+01	-1.67926017e+02	-6.14158970e+00	1.20497456e+02
927679285.714	-1.53786802e-01	-3.39042406e+01	-3.92325612e+01	-1.69134170e+02	-3.90222012e+01	-1.68228084e+02	-6.13622408e+00	1.20379978e+02
927964857.143	-1.55274928e-01	-3.38913677e+01	-3.91648146e+01	-1.69046241e+02	-3.90082084e+01	-1.68456743e+02	-6.14045496e+00	1.20196811e+02
928250428.571	-1.54329764e-01	-3.39087572e+01	-3.91423969e+01	-1.69283584e+02	-3.89976717e+01	-1.68837718e+02	-6.14195530e+00	1.20067310e+02
928536000	-1.56458900e-01	-3.39120623e+01	-3.91331197e+01	-1.69988344e+02	-3.89868410e+01	-1.69291775e+02	-6.14123820e+00	1.19883458e+02
928821571.429	-1.56535347e-01	-3.39483829e+01	-3.91132837e+01	-1.70025564e+02	-3.89874171e+01	-1.69190336e+02	-6.15047390e+00	1.19790878e+02
929107142.857	-1.55524141e-01	-3.39438787e+01	-3.91042048e+01	-1.70866291e+02	-3.89550118e+01	-1.70085329e+02	-6.15356323e+00	1.19603905e+02
929392714.286	-1.56344109e-01	-3.39686866e+01	-3.90678550e+01	-1.71074519e+02	-3.89454504e+01	-1.70121429e+02	-6.15654399e+00	1.19551811e+02
929678285.714	-1.59423479e-01	-3.39621045e+01	-3.90834831e+01	-1.71339008e+02	-3.89597811e+01	-1.70622835e+02	-6.16711961e+00	1.19438434e+02
929963857.143	-1.57955075e-01	-3.39714938e+01	-3.90269567e+01	-1.71904624e+02	-3.89167012e+01	-1.71026030e+02	-6.16983612e+00	1.19265834e+02
930249428.571	-1.61066173e-01	-3.39788282e+01	-3.90199340e+01	-1.71894666e+02	-3.88462056e+01	-1.71329952e+02	-6.17015013e+00	1.19158989e+02
930535000	-1.62076351e-01	-3.39935068e+01	-3.89904483e+01	-1.72623973e+02	-3.88590844e+01	-1.71567560e+02	-6.17045163e+00	1.19000892e+02
930820571.429	-1.60878289e-01	-3.40001850e+01	-3.89758790e+01	-1.72970531e+02	-3.88776272e+01	-1.72013923e+02	-6.17558673e+00	1.18832919e+02
931106142.857	-1.62284664e-01	-3.40232493e+01	-3.89936302e+01	-1.73570147e+02	-3.88630750e+01	-1.72407678e+02	-6.17474936e+00	1.18738655e+02
931391714.286	-1.65519001e-01	-3.40435624e+01	-3.89528197e+01	-1.73624290e+02	-3.88523898e+01	-1.72560703e+02	-6.18167936e+00	1.18520048e+02
931677285.714	-1.63005768e-01	-3.40524749e+01	-3.89264210e+01	-1.74252849e+02	-3.88154548e+01	-1.73183816e+02	-6.18844348e+00	1.18325941e+02
931962857.143	-1.61476569e-01	-3.40464464e+01	-3.89542233e+01	-1.74208144e+02	-3.88517809e+01	-1.73451507e+02	-6.18697460e+00	1.18211004e+02
932248428.571	-1.60986989e-01	-3.40460358e+01	-3.89184682e+01	-1.74893224e+02	-3.88125488e+01	-1.73776333e+02	-6.20236155e+00	1.18030446e+02
932534000	-1.60734838e-01	-3.40570597e+01	-3.89324439e+01	-1.75287361e+02	-3.87809258e+01	-1.74267500e+02	-6.20324999e+00	1.17863815e+02
932819571.429	-1.64233616e-01	-3.40545271e+01	-3.89376700e+01	-1.75665598e+02	-3.87727225e+01	-1.74706326e+02	-6.21019105e+00	1.17738137e+02
933105142.857	-1.64601794e-01	-3.40669054e+01	-3.89421691e+01	-1.76069242e+02	-3.87507914e+01	-1.75178526e+02	-6.21002355e+00	1.17531849e+02
933390714.286	-1.65216526e-01	-3.40983189e+01	-3.88651168e+01	-1.76762115e+02	-3.87599985e+01	-1.75254863e+02	-6.21474890e+00	1.17344580e+02
933676285.714	-1.68345633e-01	-3.40892610e+01	-3.89136341e+01	-1.76560961e+02	-3.87615814e+01	-1.75850686e+02	-6.22365767e+00	1.17169226e+02
933961857.143	-1.68351241e-01	-3.41161331e+01	-3.88834798e+01	-1.77395978e+02	-3.87317048e+01	-1.76112215e+02	-6.22466772e+00	1.17056101e+02
934247428.571	-1.66736054e-01	-3.40809629e+01	-3.89502448e+01	-1.77321849e+02	-3.87519622e+01	-1.76609325e+02	-6.23609577e+00	1.16925834e+02
934533000	-1.65080035e-01	-3.40798487e+01	-3.89213224e+01	-1.77960294e+02	-3.87159259e+01	-1.77037431e+02	-6.24346564e+00	1.16849166e+02
934818571.429	-1.63987865e-01	-3.40628774e+01	-3.88735175e+01	-1.78283675e+02	-3.86833774e+01	-1.77157852e+02	-6.24449402e+00	1.16687535e+02
935104142.857	-1.65897010e-01	-3.41021850e+01	-3.88340854e+01	-1.78721401e+02	-3.86998301e+01	-1.77597537e+02	-6.25951045e+00	1.16533534e+02
935389714.286	-1.70411497e-01	-3.40991473e+01	-3.88660303e+01	-1.78985806e+02	-3.86433213e+01	-1.77995363e+02	-6.26290146e+00	1.16370395e+02
935675285.714	-1.70829564e-01	-3.41070588e+01	-3.88864777e+01	-1.78806494e+02	-3.86717340e+01	-1.78401105e+02	-6.27307483e+00	1.16251173e+02
935960857.143	-1.69773666e-01	-3.40969334e+01	-3.88866034e+01	-1.79449166e+02	-3.86711519e+01	-1.78603372e+02	-6.27987163e+00	1.16076334e+02
936246428.571	-1.71232665e-01	-3.41068411e+01	-3.88571348e+01	-1.79798998e+02	-3.86547891e+01	-1.79137791e+02	-6.27772073e+00	1.15923355e+02
936532000	-1.70390228e-01	-3.40957757e+01	-3.88155193e+01	1.79748265e+02	-3.86517689e+01	-1.79437593e+02	-6.28572932e+00	1.15813977e+02
936817571.429	-1.71234950e-01	-3.41168089e+01	-3.88145744e+01	1.79187367e+02	-3.86853042e+01	-1.79701391e+02	-6.29038847e+00	1.15660084e+02
937103142.857	-1.71271527e-01	-3.41274046e+01	-3.88332684e+01	1.79064104e+02	-3.86344442e+01	-1.79969424e+02	-6.29904206e+00	1.15511194e+02
937388714.286	-1.74390379e-01	-3.41200225e+01	-3.88055549e+01	1.78939239e+02	-3.86238475e+01	1.79397375e+02	-6.30456604e+00	1.15371934e+02
937674285.714	-1.70746499e-01	-3.41554235e+01	-3.87870809e+01	1.78686743e+02	-3.85585348e+01	1.79201979e+02	-6.31014244e+00	1.15256037e+02
937959857.143	-1.70162664e-01	-3.41651153e+01	-3.87505663e+01	1.77708984e+02	-3.85634842e+01	1.78975783e+02	-6.32256808e+00	1.15158071e+02
938245428.571	-1.74409245e-01	-3.41547691e+01	-3.87688085e+01	1.77653058e+02	-3.85398910e+01	1.78498673e+02	-6.33661000e+00	1.15031999e+02
938531000	-1.75247124e-01	-3.41749182e+01	-3.87477947e+01	1.77770328e+02	-3.85297791e+01	1.78429146e+02	-6.33490014e+00	1.14936420e+02
938816571.429	-1.74131043e-01	-3.41920625e+01	-3.87734680e+01	1.77578668e+02	-3.84620052e+01	1.77827577e+02	-6.34656275e+00	1.14793440e+02
939102142.857	-1.77418125e-01	-3.42019203e+01	-3.87336126e+01	1.76699229e+02	-3.85136465e+01	1.77369127e+02	-6.35268691e+00	1.14727696e+02
939387714.286	-1.76591297e-01	-3.41936375e+01	-3.87555365e+01	1.76337377e+02	-3.84452901e+01	1.76772943e+02	-6.35432213e+00	1.14596976e+02
939673285.714	-1.74785400e-01	-3.41798918e+01	-3.87486021e+01	1.76116672e+02	-3.84714768e+01	1.76793714e+02	-6.36198731e+00	1.14448897e+02
939958857.143	-1.76717610e-01	-3.41871073e+01	-3.86898855e+01	1.75417724e+02	-3.84258720e+01	1.76443129e+02	-6.36806836e+00	1.14309522e+02
940244428.571	-1.79625253e-01	-3.42350108e+01	-3.86618358e+01	1.75288756e+02	-3.84097243e+01	1.75659506e+02	-6.38193677e+00	1.14093920e+02
940530000	-1.78407268e-01	-3.42687635e+01	-3.86300442e+01	1.74784225e+02	-3.84152631e+01	1.75456105e+02	-6.37880851e+00	1.13992982e+02
940815571.429	-1.78655617e-01	-3.42805567e+01	-3.85965580e+01	1.74704992e+02	-3.83892305e+01	1.74846863e+02	-6.37686483e+00	1.13959622e+02
941101142.857	-1.80374497e-01	-3.42827992e+01	-3.85795395e+01	1.74191290e+02	-3.83463520e+01	1.74698911e+02	-6.36950611e+00	1.13831458e+02
941386714.286	-1.80449858e-01	-3.42720663e+01	-3.86096582e+01	1.73995914e+02	-3.83250187e+01	1.74336322e+02	-6.38089140e+00	1.13757258e+02
941672285.714	-1.85344519e-01	-3.42778987e+01	-3.85511270e+01	1.73176687e+02	-3.83103257e+01	1.74257622e+02	-6.38528895e+00	1.13667126e+02
941957857.143	-1.84342373e-01	-3.42915436e+01	-3.85470554e+01	1.73130005e+02	-3.82993543e+01	1.73697678e+02	-6.39769357e+00	1.13535381e+02
942243428.571	-1.88794950e-01	-3.43167365e+01	-3.85724385e+01	1.72878255e+02	-3.82909136e+01	1.73096283e+02	-6.38900529e+00	1.13526759e+02
942529000	-1.88820750e-01	-3.43071141e+01	-3.84752913e+01	1.72257827e+02	-3.82521232e+01	1.73019320e+02	-6.38825082e+00	1.13469596e+02
942814571.429	-1.90834918e-01	-3.43203000e+01	-3.85786810e+01	1.71819797e+02	-3.82515330e+01	1.72582447e+02	-6.38670557e+00	1.13312492e+02
943100142.857	-1.94321485e-01	-3.43550206e+01	-3.85195225e+01	1.71427045e+02	-3.82493205e+01	1.72272811e+02	-6.40770835e+00	1.13285204e+02
943385714.286	-1.93987407e-01	-3.43743733e+01	-3.85149757e+01	1.70620173e+02	-3.82500067e+01	1.71618127e+02	-6.40784063e+00	1.13178219e+02
943671285.714	-1.94141478e-01	-3.44003249e+01	-3.84906578e+01	1.70258206e+02	-3.82149749e+01	1.71096208e+02	-6.40917311e+00	1.13038543e+02
943956857.143	-1.90916268e-01	-3.44165146e+01	-3.84181769e+01	1.69843897e+02	-3.81731534e+01	1.70711508e+02	-6.40826348e+00	1.12925682e+02
944242428.571	-1.91978505e-01	-3.44065552e+01	-3.84415804e+01	1.69277901e+02	-3.81509768e+01	1.70431560e+02	-6.41285581e+00	1.12850114e+02
944528000	-1.91739103e-01	-3.44022391e+01	-3.84334340e+01	1.68922088e+02	-3.81633718e+01	1.69721477e+02	-6.42451139e+00	1.12744223e+02
944813571.429	-1.92294979e-01	-3.44117968e+01	-3.84699222e+01	1.68357592e+02	-3.81155290e+01	1.69641093e+02	-6.41355364e+00	1.12610452e+02
945099142.857	-1.93095526e-01	-3.44290176e+01	-3.83938756e+01	1.68556938e+02	-3.81316989e+01	1.69145536e+02	-6.42816382e+00	1.12552265e+02
945384714.286	-1.94444249e-01	-3.44184248e+01	-3.84354161e+01	1.67707649e+02	-3.81106720e+01	1.68319674e+02	-6.43572482e+00	1.12344637e+02
945670285.714	-1.93574482e-01	-3.44195736e+01	-3.84186526e+01	1.67081401e+02	-3.80997052e+01	1.68008721e+02	-6.45353539e+00	1.12300510e+02
945955857.143	-1.94823998e-01	-3.44227977e+01	-3.83950508e+01	1.66586387e+02	-3.80237203e+01	1.67808786e+02	-6.46268844e+00	1.12150060e+02
946241428.571	-1.95010639e-01	-3.44540473e+01	-3.83591162e+01	1.66315110e+02	-3.80162483e+01	1.67258954e+02	-6.47580230e+00	1.12042399e+02
946527000	-1.95742797e-01	-3.44783842e+01	-3.84081396e+01	1.65737090e+02	-3.80079236e+01	1.66957455e+02	-6.48001638e+00	1.11996260e+02
946812571.429	-1.94944820e-01	-3.44843506e+01	-3.83701702e+01	1.65513702e+02	-3.80346142e+01	1.66303175e+02	-6.49272901e+00	1.11906870e+02
947098142.857	-1.98406786e-01	-3.45182352e+01	-3.83947810e+01	1.64878335e+02	-3.79970605e+01	1.66061333e+02	-6.49247479e+00	1.11769052e+02
947383714.286	-1.96458751e-01	-3.45277585e+01	-3.83178186e+01	1.64274825e+02	-3.79430516e+01	1.65451237e+02	-6.50802370e+00	1.11622124e+02
947669285.714	-2.00356694e-01	-3.45243545e+01	-3.83023749e+01	1.63926402e+02	-3.79797231e+01	1.65099275e+02	-6.50089157e+00	1.11509526e+02
947954857.143	-2.00939560e-01	-3.45200653e+01	-3.83143284e+01	1.63891867e+02	-3.79408470e+01	1.64728594e+02	-6.50883380e+00	1.11466123e+02
948240428.571	-1.98891735e-01	-3.45107128e+01	-3.83490590e+01	1.63353711e+02	-3.79526713e+01	1.64322791e+02	-6.51719043e+00	1.11350901e+02
948526000	-1.99927670e-01	-3.45402661e+01	-3.83046330e+01	1.62924556e+02	-3.79386756e+01	1.63806414e+02	-6.53155873e+00	1.11265639e+02
948811571.429	-2.07024429e-01	-3.45597971e+01	-3.83336204e+01	1.62416277e+02	-3.79058520e+01	1.63275631e+02	-6.53594803e+00	1.11166451e+02
949097142.857	-2.04877484e-01	-3.45749832e+01	-3.82983170e+01	1.61908083e+02	-3.78649188e+01	1.62903092e+02	-6.53425646e+00	1.11044373e+02
949382714.286	-2.03392776e-01	-3.45710619e+01	-3.82894824e+01	1.61688432e+02	-3.78876224e+01	1.62740510e+02	-6.54391143e+00	1.10894023e+02
949668285.714	-2.02681123e-01	-3.45885847e+01	-3.82817391e+01	1.61352038e+02	-3.78711016e+01	1.61931331e+02	-6.55215509e+00	1.10911961e+02
949953857.143	-2.04214452e-01	-3.46025512e+01	-3.82840148e+01	1.60562321e+02	-3.78457025e+01	1.61451116e+02	-6.54793128e+00	1.10769677e+02
950239428.571	-2.06118271e-01	-3.45942929e+01	-3.82670288e+01	1.60484141e+02	-3.77838899e+01	1.61232790e+02	-6.54796593e+00	1.10715583e+02
950525000	-2.04308252e-01	-3.45900714e+01	-3.82015479e+01	1.60250595e+02	-3.77702593e+01	1.60578167e+02	-6.55476425e+00	1.10638575e+02
950810571.429	-2.05814551e-01	-3.45855223e+01	-3.82025866e+01	1.59621417e+02	-3.77414138e+01	1.60233954e+02	-6.56216393e+00	1.10518680e+02
951096142.857	-2.05744148e-01	-3.46304580e+01	-3.82069282e+01	1.59226924e+02	-3.77483493e+01	1.59671179e+02	-6.56700779e+00	1.10478602e+02
951381714.286	-2.04478870e-01	-3.46612989e+01	-3.81638951e+01	1.59073416e+02	-3.77000781e+01	1.59420824e+02	-6.56136448e+00	1.10307615e+02
951667285.714	-2.09691598e-01	-3.46680970e+01	-3.81593443e+01	1.58690864e+02	-3.76738736e+01	1.58998725e+02	-6.56676115e+00	1.10232447e+02
951952857.143	-2.07455476e-01	-3.46837253e+01	-3.80822889e+01	1.58271690e+02	-3.76295523e+01	1.58476571e+02	-6.56715997e+00	1.10105538e+02
952238428.571	-2.07918007e-01	-3.47256358e+01	-3.80834911e+01	1.57724624e+02	-3.76235701e+01	1.58075672e+02	-6.57913308e+00	1.09960011e+02
952524000	-2.07176003e-01	-3.47195131e+01	-3.80870766e+01	1.57462973e+02	-3.76048351e+01	1.57438466e+02	-6.57797376e+00	1.09850595e+02
952809571.429	-2.08096561e-01	-3.47454264e+01	-3.80038873e+01	1.56639336e+02	-3.75417102e+01	1.56794393e+02	-6.57682882e+00	1.09635361e+02
953095142.857	-2.09023082e-01	-3.47354104e+01	-3.79963723e+01	1.56497247e+02	-3.75549830e+01	1.56507703e+02	-6.57184852e+00	1.09497272e+02
953380714.286	-2.09211799e-01	-3.47531767e+01	-3.79796958e+01	1.55995625e+02	-3.75034087e+01	1.55930988e+02	-6.57765494e+00	1.09345604e+02
953666285.714	-2.09647006e-01	-3.47593771e+01	-3.79232341e+01	1.55611392e+02	-3.75209038e+01	1.55490603e+02	-6.58662704e+00	1.09135769e+02
953951857.143	-2.08762813e-01	-3.47891631e+01	-3.79001619e+01	1.55273010e+02	-3.74873986e+01	1.54895125e+02	-6.58844000e+00	1.08992988e+02
954237428.571	-2.08183382e-01	-3.47864353e+01	-3.79190518e+01	1.54267801e+02	-3.74697394e+01	1.54403969e+02	-6.58079692e+00	1.08825570e+02
954523000	-2.05606233e-01	-3.48154454e+01	-3.78662845e+01	1.54251338e+02	-3.74159827e+01	1.53876501e+02	-6.59412587e+00	1.08692060e+02
954808571.429	-2.08277409e-01	-3.48211216e+01	-3.78170670e+01	1.53544966e+02	-3.74131295e+01	1.53290311e+02	-6.59687760e+00	1.08442044e+02
955094142.857	-2.04265993e-01	-3.48354781e+01	-3.78043138e+01	1.52931589e+02	-3.73872483e+01	1.52510958e+02	-6.59899206e+00	1.08264738e+02
955379714.286	-2.07833676e-01	-3.48677309e+01	-3.77802619e+01	1.52556156e+02	-3.73613604e+01	1.51999352e+02	-6.60773699e+00	1.08023686e+02
955665285.714	-2.07863752e-01	-3.48841914e+01	-3.77680128e+01	1.51603711e+02	-3.73578257e+01	1.51452646e+02	-6.61700075e+00	1.07821876e+02
955950857.143	-2.05210874e-01	-3.48835376e+01	-3.76710282e+01	1.51352823e+02	-3.73188780e+01	1.50641567e+02	-6.62774746e+00	1.07638787e+02
956236428.571	-2.06521141e-01	-3.49125745e+01	-3.76990527e+01	1.50753037e+02	-3.72918854e+01	1.50374842e+02	-6.64249805e+00	1.07410387e+02
956522000	-2.04601389e-01	-3.49023422e+01	-3.76828133e+01	1.49996148e+02	-3.72803734e+01	1.49853785e+02	-6.66212278e+00	1.07210034e+02
956807571.429	-2.04555316e-01	-3.49193425e+01	-3.76139397e+01	1.49701473e+02	-3.72431588e+01	1.49199516e+02	-6.65960540e+00	1.07011139e+02
957093142.857	-2.03301940e-01	-3.49410799e+01	-3.75680610e+01	1.48759539e+02	-3.72214734e+01	1.48474881e+02	-6.68101752e+00	1.06832870e+02
957378714.286	-2.05848958e-01	-3.49242130e+01	-3.75955733e+01	1.48138691e+02	-3.71991387e+01	1.47784717e+02	-6.69129919e+00	1.06635904e+02
957664285.714	-2.06232011e-01	-3.49161423e+01	-3.75707859e+01	1.47739775e+02	-3.71751645e+01	1.47291410e+02	-6.70201419e+00	1.06427058e+02
957949857.143	-2.08757646e-01	-3.49449193e+01	-3.75720167e+01	1.47122846e+02	-3.72034001e+01	1.46841874e+02	-6.71989276e+00	1.06277831e+02
958235428.571	-2.07332178e-01	-3.49575531e+01	-3.75481140e+01	1.46611128e+02	-3.72068368e+01	1.46391261e+02	-6.72835318e+00	1.06146008e+02
958521000	-2.05747883e-01	-3.49498233e+01	-3.74974969e+01	1.45814183e+02	-3.72132368e+01	1.45622637e+02	-6.74741281e+00	1.05883970e+02
958806571.429	-2.05694590e-01	-3.49874450e+01	-3.74344355e+01	1.45502483e+02	-3.71582060e+01	1.44849989e+02	-6.76483652e+00	1.05707344e+02
959092142.857	-2.06243432e-01	-3.49732815e+01	-3.74452791e+01	1.45022467e+02	-3.71442977e+01	1.44465597e+02	-6.78481476e+00	1.05585908e+02
959377714.286	-2.08377629e-01	-3.49712376e+01	-3.74382229e+01	1.44476378e+02	-3.71828675e+01	1.43692112e+02	-6.81171645e+00	1.05330153e+02
959663285.714	-2.05230445e-01	-3.49851966e+01	-3.73829187e+01	1.43479073e+02	-3.71385025e+01	1.43112743e+02	-6.82043034e+00	1.05211219e+02
959948857.143	-2.03848646e-01	-3.50024472e+01	-3.74121800e+01	1.42614736e+02	-3.71196627e+01	1.42603586e+02	-6.84009147e+00	1.05033057e+02
960234428.571	-2.02428867e-01	-3.50013020e+01	-3.73871521e+01	1.42030573e+02	-3.70839002e+01	1.42019953e+02	-6.87392857e+00	1.04879246e+02
960520000	-2.01895043e-01	-3.50019335e+01	-3.73346020e+01	1.41813883e+02	-3.70716070e+01	1.41457975e+02	-6.89080229e+00	1.04667568e+02
960805571.429	-2.05442677e-01	-3.50380126e+01	-3.73283598e+01	1.40967349e+02	-3.70706500e+01	1.41098773e+02	-6.90093538e+00	1.04516043e+02
961091142.857	-2.07277684e-01	-3.50413434e+01	-3.73156827e+01	1.40232725e+02	-3.70345045e+01	1.40381820e+02	-6.92063920e+00	1.04334959e+02
961376714.286	-2.09258566e-01	-3.50317522e+01	-3.73014904e+01	1.39630634e+02	-3.70439447e+01	1.39815499e+02	-6.93594303e+00	1.04130594e+02
961662285.714	-2.09486807e-01	-3.50451852e+01	-3.72602113e+01	1.38876689e+02	-3.69689752e+01	1.38978967e+02	-6.96147872e+00	1.03963511e+02
961947857.143	-2.09006541e-01	-3.50774874e+01	-3.72527829e+01	1.37988783e+02	-3.70047550e+01	1.38448452e+02	-6.97621200e+00	1.03863632e+02
962233428.571	-2.06630842e-01	-3.50597201e+01	-3.72335208e+01	1.37462764e+02	-3.69514182e+01	1.37780242e+02	-6.99935380e+00	1.03774807e+02
962519000	-2.05503258e-01	-3.50935294e+01	-3.72062769e+01	1.37063776e+02	-3.69216867e+01	1.36894008e+02	-7.03126418e+00	1.03549257e+02
962804571.429	-2.06513904e-01	-3.50839254e+01	-3.72061913e+01	1.36100383e+02	-3.69464062e+01	1.36435902e+02	-7.05079252e+00	1.03358223e+02
963090142.857	-2.09811888e-01	-3.50669505e+01	-3.71958308e+01	1.35687635e+02	-3.69097343e+01	1.35758563e+02	-7.08271032e+00	1.03225556e+02
963375714.286	-2.10965338e-01	-3.51271826e+01	-3.71432399e+01	1.34571234e+02	-3.69322636e+01	1.35073546e+02	-7.10136952e+00	1.03095899e+02
963661285.714	-2.11182427e-01	-3.51252139e+01	-3.71356566e+01	1.33961961e+02	-3.68857534e+01	1.34453504e+02	-7.12479843e+00	1.02899363e+02
963946857.143	-2.09937772e-01	-3.51269326e+01	-3.71579608e+01	1.33121934e+02	-3.69035462e+01	1.33844559e+02	-7.15181055e+00	1.02781326e+02
964232428.571	-2.08257116e-01	-3.51513960e+01	-3.71861733e+01	1.32547207e+02	-3.69078081e+01	1.32839000e+02	-7.17715999e+00	1.02652744e+02
964518000	-2.12080263e-01	-3.51718098e+01	-3.71487496e+01	1.31346290e+02	-3.68695816e+01	1.32311927e+02	-7.19563499e+00	1.02509105e+02
964803571.429	-2.10742437e-01	-3.51916326e+01	-3.71776218e+01	1.30877276e+02	-3.68853677e+01	1.31466506e+02	-7.22748468e+00	1.02341120e+02
965089142.857	-2.11023334e-01	-3.51771132e+01	-3.71614634e+01	1.30283734e+02	-3.68883202e+01	1.30754052e+02	-7.25647945e+00	1.02276467e+02
965374714.286	-2.07729578e-01	-3.51858634e+01	-3.71455146e+01	1.29399153e+02	-3.68765043e+01	1.30023475e+02	-7.26967115e+00	1.02084045e+02
965660285.714	-2.10532124e-01	-3.52339194e+01	-3.71733751e+01	1.28910118e+02	-3.68655269e+01	1.29233427e+02	-7.30464636e+00	1.01968498e+02
965945857.143	-2.13192291e-01	-3.52275862e+01	-3.72007548e+01	1.28144666e+02	-3.69079379e+01	1.28583446e+02	-7.33775489e+00	1.01805054e+02
966231428.571	-2.15808906e-01	-3.52166083e+01	-3.72473534e+01	1.27180344e+02	-3.68963330e+01	1.27931977e+02	-7.36105584e+00	1.01636409e+02
966517000	-2.11790016e-01	-3.52562385e+01	-3.72074802e+01	1.26145395e+02	-3.69321570e+01	1.27220263e+02	-7.38892533e+00	1.01597945e+02
966802571.429	-2.14785060e-01	-3.52645161e+01	-3.71729608e+01	1.25854959e+02	-3.69438243e+01	1.26569732e+02	-7.41487577e+00	1.01450783e+02
967088142.857	-2.14243148e-01	-3.52790707e+01	-3.73062289e+01	1.24895318e+02	-3.69906442e+01	1.26006548e+02	-7.45190498e+00	1.01354037e+02
967373714.286	-2.13540167e-01	-3.52830509e+01	-3.72357289e+01	1.24247613e+02	-3.69863941e+01	1.25305081e+02	-7.47659152e+00	1.01258297e+02
967659285.714	-2.11059862e-01	-3.53107652e+01	-3.72863562e+01	1.23596132e+02	-3.69876763e+01	1.24493879e+02	-7.50085819e+00	1.01059948e+02
967944857.143	-2.09995738e-01	-3.53406836e+01	-3.72936524e+01	1.22769781e+02	-3.69929781e+01	1.23802798e+02	-7.54062619e+00	1.00988085e+02
968230428.571	-2.09481177e-01	-3.53743976e+01	-3.73294004e+01	1.22266644e+02	-3.70385409e+01	1.23000279e+02	-7.57265356e+00	1.00873218e+02
968516000	-2.10266486e-01	-3.53892272e+01	-3.73567782e+01	1.21136570e+02	-3.71033670e+01	1.22463474e+02	-7.61091547e+00	1.00714510e+02
968801571.429	-2.12297915e-01	-3.53860171e+01	-3.73767354e+01	1.20676473e+02	-3.70997029e+01	1.21771352e+02	-7.63501391e+00	1.00689944e+02
969087142.857	-2.08653859e-01	-3.54071665e+01	-3.74538534e+01	1.20081090e+02	-3.71280434e+01	1.21365240e+02	-7.66649607e+00	1.00586305e+02
969372714.286	-2.11232973e-01	-3.54177592e+01	-3.75154429e+01	1.19534360e+02	-3.71658402e+01	1.20512061e+02	-7.69262710e+00	1.00469601e+02
969658285.714	-2.11377344e-01	-3.54159058e+01	-3.75107421e+01	1.18825436e+02	-3.71857989e+01	1.19903839e+02	-7.74074674e+00	1.00433407e+02
969943857.143	-2.13374278e-01	-3.53968254e+01	-3.75330269e+01	1.18065255e+02	-3.72672999e+01	1.19502247e+02	-7.77205009e+00	1.00309564e+02
970229428.571	-2.14823149e-01	-3.54294266e+01	-3.75638830e+01	1.17547441e+02	-3.72471754e+01	1.18980820e+02	-7.80069327e+00	1.00254680e+02
970515000	-2.20546175e-01	-3.54546263e+01	-3.76460586e+01	1.16644076e+02	-3.72786172e+01	1.18259233e+02	-7.83280085e+00	1.00165580e+02
970800571.429	-2.20166654e-01	-3.54904499e+01	-3.76271965e+01	1.16195696e+02	-3.72922516e+01	1.17532373e+02	-7.86617117e+00	1.00140564e+02
971086142.857	-2.16037048e-01	-3.54994479e+01	-3.76977490e+01	1.15739902e+02	-3.73305379e+01	1.17174745e+02	-7.89605939e+00	1.00051115e+02
971371714.286	-2.14038362e-01	-3.55243002e+01	-3.77482281e+01	1.15152036e+02	-3.74267311e+01	1.16488516e+02	-7.92629704e+00	1.00030823e+02
971657285.714	-2.13987213e-01	-3.55477444e+01	-3.77635556e+01	1.14589155e+02	-3.73831154e+01	1.16037668e+02	-7.97016069e+00	9.99515242e+01
971942857.143	-2.11125856e-01	-3.55881866e+01	-3.78300536e+01	1.14142986e+02	-3.74427867e+01	1.15390253e+02	-7.99866321e+00	9.99141069e+01
972228428.571	-2.13485116e-01	-3.56168572e+01	-3.78507832e+01	1.13515691e+02	-3.74517954e+01	1.14839256e+02	-8.02347395e+00	9.99712051e+01
972514000	-2.09168967e-01	-3.56258884e+01	-3.79082798e+01	1.13057610e+02	-3.75192927e+01	1.14457486e+02	-8.06265467e+00	9.98833735e+01
972799571.429	-2.11098020e-01	-3.56065771e+01	-3.79332273e+01	1.12966268e+02	-3.75197030e+01	1.14055117e+02	-8.08956902e+00	9.98793531e+01
973085142.857	-2.09586758e-01	-3.56438527e+01	-3.79575258e+01	1.11907095e+02	-3.75759313e+01	1.13313106e+02	-8.11734315e+00	9.98865966e+01
973370714.286	-2.08213613e-01	-3.56604413e+01	-3.80835994e+01	1.12009234e+02	-3.75827792e+01	1.12763519e+02	-8.15767143e+00	9.98100766e+01
973656285.714	-2.09483935e-01	-3.56929972e+01	-3.80892166e+01	1.11413327e+02	-3.76366768e+01	1.12357140e+02	-8.18570995e+00	9.98558388e+01
973941857.143	-2.07380214e-01	-3.57227625e+01	-3.81048324e+01	1.10961577e+02	-3.76557000e+01	1.12026362e+02	-8.24012468e+00	9.99127617e+01
974227428.571	-2.07992421e-01	-3.57227332e+01	-3.81460460e+01	1.10606492e+02	-3.76616643e+01	1.11729755e+02	-8.25156509e+00	1.00007748e+02
974513000	-2.07523427e-01	-3.57113698e+01	-3.81834374e+01	1.10216125e+02	-3.76674707e+01	1.11284829e+02	-8.26972498e+00	1.00075459e+02
974798571.429	-2.02612787e-01	-3.57494651e+01	-3.81642785e+01	1.09810590e+02	-3.76833930e+01	1.10576007e+02	-8.30457162e+00	1.00028909e+02
975084142.857	-2.01421472e-01	-3.57605522e+01	-3.82437985e+01	1.09027848e+02	-3.77595291e+01	1.10220902e+02	-8.32810977e+00	1.00031571e+02
975369714.286	-2.08475531e-01	-3.57753261e+01	-3.82650400e+01	1.09134765e+02	-3.77720568e+01	1.09698835e+02	-8.35638968e+00	1.00113265e+02
975655285.714	-2.04443879e-01	-3.57933807e+01	-3.82878827e+01	1.08584750e+02	-3.77634756e+01	1.09184018e+02	-8.38454431e+00	1.00167612e+02
975940857.143	-2.07737387e-01	-3.58146571e+01	-3.83674088e+01	1.08346935e+02	-3.77432529e+01	1.08514620e+02	-8.41937391e+00	1.00149962e+02
976226428.571	-2.10930735e-01	-3.58219721e+01	-3.83353132e+01	1.07674803e+02	-3.77761996e+01	1.08210917e+02	-8.44539272e+00	1.00230772e+02
976512000	-2.08579617e-01	-3.58488156e+01	-3.83627121e+01	1.07027078e+02	-3.78011721e+01	1.08007314e+02	-8.46983971e+00	1.00266635e+02
976797571.429	-2.07071517e-01	-3.58409411e+01	-3.83553254e+01	1.06959421e+02	-3.77953472e+01	1.07292966e+02	-8.49039912e+00	1.00371828e+02
977083142.857	-2.05111487e-01	-3.58645569e+01	-3.84625553e+01	1.06679597e+02	-3.78184930e+01	1.07045855e+02	-8.51589749e+00	1.00364425e+02
977368714.286	-2.06354482e-01	-3.58923420e+01	-3.83626034e+01	1.06310248e+02	-3.78432446e+01	1.06609002e+02	-8.53684586e+00	1.00371424e+02
977654285.714	-2.06780738e-01	-3.59142080e+01	-3.84421904e+01	1.05943373e+02	-3.77477965e+01	1.05965657e+02	-8.54527469e+00	1.00458497e+02
977939857.143	-2.10256376e-01	-3.59447275e+01	-3.84193709e+01	1.05190441e+02	-3.78264330e+01	1.05444822e+02	-8.57335298e+00	1.00517326e+02
978225428.571	-2.04337472e-01	-3.59480941e+01	-3.84704078e+01	1.04621373e+02	-3.78438902e+01	1.05078396e+02	-8.59654258e+00	1.00556049e+02
978511000	-2.06973532e-01	-3.59723516e+01	-3.85012453e+01	1.04496056e+02	-3.78364074e+01	1.04552235e+02	-8.61835446e+00	1.00575977e+02
978796571.429	-2.13067796e-01	-3.59729167e+01	-3.85281237e+01	1.04032160e+02	-3.78890700e+01	1.04106095e+02	-8.62671961e+00	1.00610762e+02
979082142.857	-2.12511581e-01	-3.59999621e+01	-3.85415393e+01	1.03484169e+02	-3.78560695e+01	1.03728645e+02	-8.64257976e+00	1.00682078e+02
979367714.286	-2.12356580e-01	-3.60130793e+01	-3.85889674e+01	1.02928317e+02	-3.78851191e+01	1.02966841e+02	-8.66015521e+00	1.00718997e+02
979653285.714	-2.08917174e-01	-3.60269075e+01	-3.85928736e+01	1.02900078e+02	-3.78955857e+01	1.02389049e+02	-8.67149616e+00	1.00759842e+02
979938857.143	-2.07213894e-01	-3.60372606e+01	-3.86255079e+01	1.02290535e+02	-3.79127749e+01	1.01846662e+02	-8.69115789e+00	1.00830511e+02
980224428.571	-2.11010769e-01	-3.60560057e+01	-3.85974167e+01	1.02122473e+02	-3.79049576e+01	1.01552947e+02	-8.70718439e+00	1.00945352e+02
980510000	-2.08440037e-01	-3.60616741e+01	-3.86582388e+01	1.01242605e+02	-3.79522116e+01	1.01209411e+02	-8.71157930e+00	1.01020233e+02
980795571.429	-2.10785406e-01	-3.61140039e+01	-3.86367323e+01	1.00906127e+02	-3.79632593e+01	1.00601954e+02	-8.72410106e+00	1.01029144e+02
981081142.857	-2.09007124e-01	-3.60744269e+01	-3.86234009e+01	1.01514336e+02	-3.79666818e+01	1.00043805e+02	-8.74667659e+00	1.01115483e+02
981366714.286	-2.09995270e-01	-3.61225406e+01	-3.86693891e+01	1.00611201e+02	-3.79542791e+01	9.96162376e+01	-8.76820085e+00	1.01100009e+02
981652285.714	-2.11809155e-01	-3.61327013e+01	-3.87054003e+01	9.99975474e+01	-3.79646515e+01	9.91668574e+01	-8.77466828e+00	1.01109900e+02
981937857.143	-2.08125317e-01	-3.61484912e+01	-3.88010035e+01	9.97382698e+01	-3.79669961e+01	9.87762698e+01	-8.78484414e+00	1.01244840e+02
982223428.571	-2.12044356e-01	-3.61869476e+01	-3.87501686e+01	9.93197515e+01	-3.80173436e+01	9.85399915e+01	-8.79190827e+00	1.01306449e+02
982509000	-2.10660512e-01	-3.61935538e+01	-3.87108536e+01	9.87879012e+01	-3.79842168e+01	9.78121383e+01	-8.81231674e+00	1.01365061e+02
982794571.429	-2.12554076e-01	-3.61948955e+01	-3.87995599e+01	9.87715908e+01	-3.79914903e+01	9.74349635e+01	-8.83249146e+00	1.01382110e+02
983080142.857	-2.17601973e-01	-3.62059257e+01	-3.87689169e+01	9.87647333e+01	-3.79956893e+01	9.67605917e+01	-8.83624928e+00	1.01366375e+02
983365714.286	-2.09377352e-01	-3.62219905e+01	-3.87467210e+01	9.81371602e+01	-3.80106084e+01	9.63282205e+01	-8.86090438e+00	1.01540068e+02
983651285.714	-2.11655570e-01	-3.62420510e+01	-3.87612219e+01	9.74303920e+01	-3.80131872e+01	9.60765789e+01	-8.86415585e+00	1.01561534e+02
983936857.143	-2.05261814e-01	-3.62649791e+01	-3.87096686e+01	9.73591408e+01	-3.80295371e+01	9.57469208e+01	-8.88061018e+00	1.01660282e+02
984222428.571	-2.11438489e-01	-3.62534490e+01	-3.87885697e+01	9.69665005e+01	-3.80382059e+01	9.49477255e+01	-8.89283818e+00	1.01698697e+02
984508000	-2.11425066e-01	-3.62884169e+01	-3.87670468e+01	9.60969497e+01	-3.80143324e+01	9.47138902e+01	-8.90084425e+00	1.01775231e+02
984793571.429	-2.07386096e-01	-3.63041193e+01	-3.86525085e+01	9.63770349e+01	-3.80404198e+01	9.43952985e+01	-8.90618606e+00	1.01862467e+02
985079142.857	-2.14903989e-01	-3.63210540e+01	-3.87174706e+01	9.60068424e+01	-3.80326751e+01	9.37161604e+01	-8.91722216e+00	1.01917427e+02
985364714.286	-2.13148541e-01	-3.63503458e+01	-3.86639808e+01	9.52750011e+01	-3.80157583e+01	9.31147952e+01	-8.93277482e+00	1.01990118e+02
985650285.714	-2.13324259e-01	-3.63624941e+01	-3.86344811e+01	9.51576966e+01	-3.80172954e+01	9.26725078e+01	-8.94227290e+00	1.02071697e+02
985935857.143	-2.13836670e-01	-3.63957479e+01	-3.85720200e+01	9.47470143e+01	-3.80088035e+01	9.20356623e+01	-8.95496678e+00	1.02163326e+02
986221428.571	-2.15121010e-01	-3.64276598e+01	-3.85894053e+01	9.44107613e+01	-3.79926517e+01	9.14540692e+01	-8.96128890e+00	1.02148185e+02
986507000	-2.19919189e-01	-3.64477616e+01	-3.86352544e+01	9.37826513e+01	-3.79553757e+01	9.11671854e+01	-8.97894275e+00	1.02196460e+02
986792571.429	-2.24126167e-01	-3.64656457e+01	-3.85613740e+01	9.33567818e+01	-3.79733196e+01	9.08793478e+01	-9.00008795e+00	1.02322925e+02
987078142.857	-2.21581066e-01	-3.64895754e+01	-3.84866271e+01	9.27052160e+01	-3.79521623e+01	8.99946316e+01	-9.00481128e+00	1.02226264e+02
987363714.286	-2.20172430e-01	-3.64929422e+01	-3.85271954e+01	9.26778298e+01	-3.79142875e+01	8.94212781e+01	-9.00456171e+00	1.02248128e+02
987649285.714	-2.18733734e-01	-3.65065055e+01	-3.84197234e+01	9.18642880e+01	-3.79218746e+01	8.89337703e+01	-9.02783123e+00	1.02324247e+02
987934857.143	-2.17530071e-01	-3.65468412e+01	-3.84998162e+01	9.12964649e+01	-3.79333939e+01	8.82860795e+01	-9.04323759e+00	1.02373219e+02
988220428.571	-2.15859585e-01	-3.65480410e+01	-3.84422703e+01	9.07680877e+01	-3.78869189e+01	8.79218778e+01	-9.04781826e+00	1.02375868e+02
988506000	-2.19053886e-01	-3.65466513e+01	-3.84849078e+01	8.99647906e+01	-3.79259711e+01	8.71342054e+01	-9.06339667e+00	1.02337927e+02
988791571.429	-2.21408521e-01	-3.65577805e+01	-3.83961333e+01	8.99771189e+01	-3.79126301e+01	8.66889451e+01	-9.07292098e+00	1.02416183e+02
989077142.857	-2.21018981e-01	-3.65846459e+01	-3.83726122e+01	8.89529639e+01	-3.79329923e+01	8.60295688e+01	-9.09110573e+00	1.02439305e+02
989362714.286	-2.19905691e-01	-3.65933555e+01	-3.83873179e+01	8.84342851e+01	-3.78679885e+01	8.53286402e+01	-9.08993716e+00	1.02484035e+02
989648285.714	-2.17378108e-01	-3.66118861e+01	-3.83526470e+01	8.81736760e+01	-3.79107107e+01	8.47375791e+01	-9.10407768e+00	1.02474563e+02
989933857.143	-2.20211756e-01	-3.66235097e+01	-3.83308782e+01	8.70477838e+01	-3.79189960e+01	8.42747749e+01	-9.10169562e+00	1.02452923e+02
990219428.571	-2.20170496e-01	-3.66653073e+01	-3.83864973e+01	8.67021805e+01	-3.78780524e+01	8.34296073e+01	-9.11599717e+00	1.02522829e+02
990505000	-2.22465291e-01	-3.66699150e+01	-3.83190835e+01	8.63211203e+01	-3.78254238e+01	8.29086253e+01	-9.13086249e+00	1.02559843e+02
990790571.429	-2.26415524e-01	-3.66710218e+01	-3.83451002e+01	8.56721245e+01	-3.78328650e+01	8.19355286e+01	-9.15583260e+00	1.02511630e+02
991076142.857	-2.24648422e-01	-3.66930513e+01	-3.83202309e+01	8.45580517e+01	-3.78548525e+01	8.14439302e+01	-9.17516364e+00	1.02504231e+02
991361714.286	-2.21422217e-01	-3.67197126e+01	-3.82908535e+01	8.41745007e+01	-3.78468144e+01	8.08824066e+01	-9.19370808e+00	1.02547358e+02
991647285.714	-2.19879654e-01	-3.67066593e+01	-3.83013611e+01	8.34525916e+01	-3.78871086e+01	8.00983112e+01	-9.19303268e+00	1.02512966e+02
991932857.143	-2.18061632e-01	-3.67237132e+01	-3.83030688e+01	8.30917034e+01	-3.78460158e+01	7.92974165e+01	-9.20262776e+00	1.02559116e+02
992218428.571	-2.19256442e-01	-3.67434889e+01	-3.82873846e+01	8.20844835e+01	-3.78165450e+01	7.84278728e+01	-9.21430724e+00	1.02681669e+02
992504000	-2.18732375e-01	-3.67584801e+01	-3.83214345e+01	8.12392607e+01	-3.78705921e+01	7.79705345e+01	-9.23476727e+00	1.02752036e+02
992789571.429	-2.19893296e-01	-3.67707330e+01	-3.83166352e+01	8.05375656e+01	-3.78511129e+01	7.71769069e+01	-9.24555156e+00	1.02786859e+02
993075142.857	-2.17740203e-01	-3.67575405e+01	-3.83294261e+01	7.97507027e+01	-3.78361434e+01	7.63444999e+01	-9.27258032e+00	1.02886248e+02
993360714.286	-2.18328377e-01	-3.67696777e+01	-3.83116698e+01	7.94324693e+01	-3.78988000e+01	7.56188350e+01	-9.26708675e+00	1.02898269e+02
993646285.714	-2.21183205e-01	-3.67942548e+01	-3.83556208e+01	7.89419923e+01	-3.78904218e+01	7.51020248e+01	-9.28455116e+00	1.02993338e+02
993931857.143	-2.20646473e-01	-3.68188124e+01	-3.83608331e+01	7.80299314e+01	-3.79004651e+01	7.42214633e+01	-9.30034054e+00	1.03153554e+02
994217428.571	-2.20127400e-01	-3.68403194e+01	-3.83776178e+01	7.73893561e+01	-3.79244920e+01	7.33867571e+01	-9.33189887e+00	1.03173172e+02
994503000	-2.20678370e-01	-3.68362783e+01	-3.83729306e+01	7.68245493e+01	-3.79285042e+01	7.27219316e+01	-9.34469527e+00	1.03344339e+02
994788571.429	-2.16422775e-01	-3.68508866e+01	-3.83847602e+01	7.58317347e+01	-3.79690341e+01	7.19525293e+01	-9.36010905e+00	1.03398432e+02
995074142.857	-2.13040906e-01	-3.68649810e+01	-3.84383814e+01	7.52778988e+01	-3.80287805e+01	7.10792282e+01	-9.35415830e+00	1.03450501e+02
995359714.286	-2.16226935e-01	-3.68646435e+01	-3.84207608e+01	7.44181681e+01	-3.80491965e+01	7.04285249e+01	-9.35444999e+00	1.03600088e+02
995645285.714	-2.15689191e-01	-3.68852669e+01	-3.83799885e+01	7.34454812e+01	-3.81046264e+01	6.94954699e+01	-9.36453915e+00	1.03821156e+02
995930857.143	-2.20664769e-01	-3.68925066e+01	-3.85004425e+01	7.30426171e+01	-3.80812309e+01	6.86359209e+01	-9.35785896e+00	1.03970065e+02
996216428.571	-2.19382982e-01	-3.68999076e+01	-3.85586395e+01	7.20898243e+01	-3.81280257e+01	6.80338187e+01	-9.36134580e+00	1.04094713e+02
996502000	-2.19196180e-01	-3.69088179e+01	-3.85355765e+01	7.14622989e+01	-3.81868719e+01	6.76067321e+01	-9.38152318e+00	1.04258165e+02
996787571.429	-2.18087331e-01	-3.69195488e+01	-3.85598809e+01	7.07128138e+01	-3.82649877e+01	6.66584715e+01	-9.36647290e+00	1.04381641e+02
997073142.857	-2.18838199e-01	-3.69234820e+01	-3.86301859e+01	7.01509592e+01	-3.82460217e+01	6.60022005e+01	-9.35790921e+00	1.04567969e+02
997358714.286	-2.16579969e-01	-3.69251208e+01	-3.85953866e+01	6.95326171e+01	-3.83174590e+01	6.52415157e+01	-9.34407428e+00	1.04711959e+02
997644285.714	-2.18214178e-01	-3.69196873e+01	-3.86687743e+01	6.89194595e+01	-3.83497496e+01	6.48403438e+01	-9.33369343e+00	1.04912994e+02
997929857.143	-2.15595841e-01	-3.69409249e+01	-3.86829975e+01	6.82611076e+01	-3.83706224e+01	6.39177506e+01	-9.32524687e+00	1.05080185e+02
998215428.571	-2.15749056e-01	-3.69745964e+01	-3.87350289e+01	6.74755383e+01	-3.84600095e+01	6.35225025e+01	-9.32879144e+00	1.05276367e+02
998501000	-2.16786362e-01	-3.69799641e+01	-3.87728715e+01	6.69276654e+01	-3.85586552e+01	6.28295322e+01	-9.30971764e+00	1.05425952e+02
998786571.429	-2.17766973e-01	-3.69727996e+01	-3.87855287e+01	6.60822770e+01	-3.85837124e+01	6.19449540e+01	-9.30538223e+00	1.05555365e+02
999072142.857	-2.17904017e-01	-3.69806228e+01	-3.88081570e+01	6.55803382e+01	-3.86226208e+01	6.14753562e+01	-9.28926769e+00	1.05687390e+02
999357714.286	-2.18253501e-01	-3.70030690e+01	-3.88985614e+01	6.51067761e+01	-3.86506797e+01	6.09514564e+01	-9.26407486e+00	1.05768845e+02
999643285.714	-2.15141804e-01	-3.70254539e+01	-3.89054950e+01	6.43980599e+01	-3.87248284e+01	6.00852208e+01	-9.25214458e+00	1.05847751e+02
999928857.143	-2.18475611e-01	-3.70302560e+01	-3.89736374e+01	6.38159882e+01	-3.87220793e+01	5.94849693e+01	-9.22470574e+00	1.06024518e+02
1000214428.57	-2.19412875e-01	-3.70685345e+01	-3.90076533e+01	6.35095957e+01	-3.88057142e+01	5.91432492e+01	-9.24014164e+00	1.06042422e+02
1000500000	-2.19723774e-01	-3.70893743e+01	-3.90933878e+01	6.27630651e+01	-3.88537162e+01	5.83028120e+01	-9.21177210e+00	1.06181970e+02
1000785571.43	-2.17678914e-01	-3.71294154e+01	-3.91702328e+01	6.20463272e+01	-3.88965236e+01	5.78067300e+01	-9.18197743e+00	1.06324346e+02
1001071142.86	-2.17923693e-01	-3.71483455e+01	-3.92206860e+01	6.17187526e+01	-3.89477021e+01	5.74842960e+01	-9.17950057e+00	1.06493906e+02
1001356714.29	-2.14862474e-01	-3.71624245e+01	-3.92297409e+01	6.14277111e+01	-3.90007238e+01	5.67337477e+01	-9.14999459e+00	1.06576925e+02
1001642285.71	-2.18039171e-01	-3.71748894e+01	-3.92133308e+01	6.06633276e+01	-3.90512053e+01	5.61378097e+01	-9.13883256e+00	1.06615771e+02
1001927857.14	-2.17521891e-01	-3.71715387e+01	-3.92869626e+01	6.02058945e+01	-3.91127989e+01	5.56418300e+01	-9.12339595e+00	1.06792155e+02
1002213428.57	-2.18405894e-01	-3.71774889e+01	-3.93179740e+01	5.98218131e+01	-3.91589034e+01	5.51317758e+01	-9.10273715e+00	1.06960650e+02
1002499000	-2.19918053e-01	-3.71885279e+01	-3.93810130e+01	5.93229495e+01	-3.92219912e+01	5.49085104e+01	-9.09107525e+00	1.06999883e+02
1002784571.43	-2.17919317e-01	-3.72020611e+01	-3.94665316e+01	5.83489945e+01	-3.92507584e+01	5.42355864e+01	-9.08250243e+00	1.06943581e+02
1003070142.86	-2.21141979e-01	-3.72261990e+01	-3.94549592e+01	5.80168674e+01	-3.93290729e+01	5.38194951e+01	-9.05374782e+00	1.07198032e+02
1003355714.29	-2.23969473e-01	-3.71925354e+01	-3.95408093e+01	5.77343848e+01	-3.93680897e+01	5.31341097e+01	-9.05183384e+00	1.07268847e+02
1003641285.71	-2.23160256e-01	-3.72258854e+01	-3.95748029e+01	5.68578426e+01	-3.93980554e+01	5.29372169e+01	-9.01753774e+00	1.07317666e+02
1003926857.14	-2.20928105e-01	-3.72307931e+01	-3.96993347e+01	5.66783547e+01	-3.94220021e+01	5.21953548e+01	-8.99680683e+00	1.07403864e+02
1004212428.57	-2.17733683e-01	-3.72654757e+01	-3.97050388e+01	5.64758329e+01	-3.95214579e+01	5.17668895e+01	-8.97134655e+00	1.07464114e+02
1004498000	-2.18090210e-01	-3.72854124e+01	-3.97030688e+01	5.61320287e+01	-3.94806351e+01	5.16391157e+01	-8.95779247e+00	1.07471998e+02
1004783571.43	-2.20270844e-01	-3.72879068e+01	-3.97276071e+01	5.54824083e+01	-3.95941012e+01	5.09890125e+01	-8.94286568e+00	1.07490589e+02
1005069142.86	-2.15971725e-01	-3.73157346e+01	-3.97896844e+01	5.49523847e+01	-3.96103197e+01	5.08205231e+01	-8.93163649e+00	1.07600254e+02
1005354714.29	-2.19766213e-01	-3.73391462e+01	-3.98274110e+01	5.46540460e+01	-3.96457033e+01	5.06587010e+01	-8.91211924e+00	1.07677138e+02
1005640285.71	-2.17594658e-01	-3.73503461e+01	-3.98340428e+01	5.39125871e+01	-3.97243405e+01	4.98914562e+01	-8.91203162e+00	1.07689585e+02
1005925857.14	-2.18641569e-01	-3.73067150e+01	-3.98880206e+01	5.39416594e+01	-3.97149278e+01	4.95983438e+01	-8.88661471e+00	1.07705375e+02
1006211428.57	-2.16246040e-01	-3.73199464e+01	-3.99799027e+01	5.37620428e+01	-3.97727824e+01	4.90933495e+01	-8.85392309e+00	1.07781314e+02
1006497000	-2.19369951e-01	-3.73435395e+01	-3.99964349e+01	5.31378061e+01	-3.97938961e+01	4.88445662e+01	-8.83124496e+00	1.07801025e+02
1006782571.43	-2.19873830e-01	-3.73847269e+01	-3.99362861e+01	5.29633774e+01	-3.97869714e+01	4.85639667e+01	-8.81466261e+00	1.07845439e+02
1007068142.86	-2.16818994e-01	-3.73965469e+01	-3.99752595e+01	5.26306371e+01	-3.98188325e+01	4.80862859e+01	-8.80180107e+00	1.07924067e+02
1007353714.29	-2.11983210e-01	-3.73837965e+01	-3.99097613e+01	5.23547296e+01	-3.98406596e+01	4.74626497e+01	-8.77848338e+00	1.07988320e+02
1007639285.71	-2.14278778e-01	-3.73787980e+01	-3.99931237e+01	5.18534975e+01	-3.98315419e+01	4.71199379e+01	-8.77108484e+00	1.08031692e+02
1007924857.14	-2.12030199e-01	-3.74197273e+01	-4.00108964e+01	5.15078783e+01	-3.98596021e+01	4.65751774e+01	-8.75285671e+00	1.07937111e+02
1008210428.57	-2.16572857e-01	-3.74026134e+01	-3.99862543e+01	5.06280579e+01	-3.98685071e+01	4.59938026e+01	-8.73288030e+00	1.07916309e+02
1008496000	-2.13748195e-01	-3.74107917e+01	-4.00299848e+01	5.01694475e+01	-3.98804000e+01	4.55376079e+01	-8.70211626e+00	1.07915246e+02
1008781571.43	-2.09837630e-01	-3.74224017e+01	-4.00543968e+01	5.01381212e+01	-3.99096999e+01	4.54058328e+01	-8.68949688e+00	1.07902503e+02
1009067142.86	-2.09776033e-01	-3.74205204e+01	-4.00653411e+01	4.93313393e+01	-3.99108942e+01	4.47715358e+01	-8.67663239e+00	1.07950064e+02
1009352714.29	-2.09176183e-01	-3.74163646e+01	-4.00985094e+01	4.87310568e+01	-3.99110412e+01	4.40746476e+01	-8.66589702e+00	1.07936539e+02
1009638285.71	-2.08794455e-01	-3.74442155e+01	-4.00763062e+01	4.86699419e+01	-3.99527552e+01	4.37814762e+01	-8.63452906e+00	1.07865316e+02
1009923857.14	-2.11869559e-01	-3.74439229e+01	-4.00522803e+01	4.76105425e+01	-3.99480009e+01	4.31547441e+01	-8.61820046e+00	1.07989142e+02
1010209428.57	-2.10841616e-01	-3.74357588e+01	-3.99779984e+01	4.76087093e+01	-3.99829015e+01	4.26111950e+01	-8.59401215e+00	1.07884325e+02
1010495000	-2.06497582e-01	-3.74720081e+01	-4.00698540e+01	4.65435402e+01	-3.99458854e+01	4.19464568e+01	-8.58373445e+00	1.07894731e+02
1010780571.43	-2.10469978e-01	-3.74956532e+01	-4.00770085e+01	4.64732228e+01	-3.99874128e+01	4.11737403e+01	-8.55259115e+00	1.07827530e+02
1011066142.86	-2.09757303e-01	-3.75013007e+01	-4.01020105e+01	4.55814808e+01	-4.00286379e+01	4.07771985e+01	-8.53851680e+00	1.07707805e+02
1011351714.29	-2.10115643e-01	-3.75080738e+01	-4.01083901e+01	4.46331473e+01	-4.00051895e+01	4.01114200e+01	-8.52515554e+00	1.07817760e+02
1011637285.71	-2.10038007e-01	-3.75046063e+01	-4.01144702e+01	4.42368770e+01	-4.00440075e+01	3.97415417e+01	-8.51306332e+00	1.07889156e+02
1011922857.14	-2.12049660e-01	-3.74878407e+01	-4.00610032e+01	4.40930373e+01	-4.00993172e+01	3.88146909e+01	-8.49593017e+00	1.07971985e+02
1012208428.57	-2.13340042e-01	-3.75020911e+01	-4.01901336e+01	4.33390420e+01	-4.00863785e+01	3.83122415e+01	-8.48298955e+00	1.07876835e+02
1012494000	-2.09531243e-01	-3.75140528e+01	-4.01911265e+01	4.27089345e+01	-4.01242905e+01	3.72780828e+01	-8.46648689e+00	1.07825598e+02
1012779571.43	-2.11085540e-01	-3.75385809e+01	-4.01859684e+01	4.18242528e+01	-4.01332062e+01	3.68830758e+01	-8.45711203e+00	1.07925780e+02
1013065142.86	-2.09572920e-01	-3.75424765e+01	-4.02074494e+01	4.12899285e+01	-4.01821272e+01	3.61608744e+01	-8.44278093e+00	1.07918685e+02
1013350714.29	-2.09795101e-01	-3.75737755e+01	-4.01971158e+01	4.07289789e+01	-4.02245000e+01	3.56364373e+01	-8.42484360e+00	1.07970151e+02
1013636285.71	-2.12251800e-01	-3.75679562e+01	-4.02842940e+01	3.97324561e+01	-4.02280992e+01	3.50710892e+01	-8.41103699e+00	1.07918030e+02
1013921857.14	-2.12931331e-01	-3.75982096e+01	-4.03140188e+01	3.90993382e+01	-4.02643983e+01	3.38577757e+01	-8.38928555e+00	1.07955499e+02
1014207428.57	-2.11299943e-01	-3.75839509e+01	-4.03931544e+01	3.86980800e+01	-4.02960497e+01	3.36427621e+01	-8.37628936e+00	1.07988711e+02
1014493000	-2.08832818e-01	-3.75950505e+01	-4.04134124e+01	3.79183600e+01	-4.04003418e+01	3.29650426e+01	-8.34008295e+00	1.07805759e+02
1014778571.43	-2.08645046e-01	-3.75974329e+01	-4.03815288e+01	3.75561019e+01	-4.04042649e+01	3.21695559e+01	-8.33674156e+00	1.07899576e+02
1015064142.86	-2.04441403e-01	-3.75880456e+01	-4.04065580e+01	3.66902719e+01	-4.04837205e+01	3.13876451e+01	-8.31256611e+00	1.07900486e+02
1015349714.29	-2.07429762e-01	-3.75931481e+01	-4.04416877e+01	3.57372067e+01	-4.05550068e+01	3.10004801e+01	-8.29657084e+00	1.07824527e+02
1015635285.71	-2.12093064e-01	-3.76221652e+01	-4.04931635e+01	3.50517769e+01	-4.05576553e+01	2.97198885e+01	-8.26889939e+00	1.07796548e+02
1015920857.14	-2.05806071e-01	-3.76143272e+01	-4.05336699e+01	3.48571259e+01	-4.06142355e+01	2.91757534e+01	-8.25887127e+00	1.07699226e+02
1016206428.57	-2.03224876e-01	-3.76146099e+01	-4.05192305e+01	3.38780007e+01	-4.06864195e+01	2.85141471e+01	-8.25287857e+00	1.07714582e+02
1016492000	-2.00779284e-01	-3.76309939e+01	-4.05279899e+01	3.32723691e+01	-4.07679177e+01	2.78989354e+01	-8.22594800e+00	1.07655116e+02
1016777571.43	-2.04647812e-01	-3.76400569e+01	-4.06340954e+01	3.31434504e+01	-4.07843344e+01	2.72786765e+01	-8.20997535e+00	1.07545477e+02
1017063142.86	-2.09958581e-01	-3.76407402e+01	-4.06769976e+01	3.20524189e+01	-4.09590910e+01	2.65120991e+01	-8.19447298e+00	1.07565647e+02
1017348714.29	-2.08007589e-01	-3.76385115e+01	-4.07475279e+01	3.11134975e+01	-4.09720814e+01	2.54836927e+01	-8.17588641e+00	1.07524332e+02
1017634285.71	-2.02414379e-01	-3.76864758e+01	-4.07480696e+01	3.03213492e+01	-4.10490759e+01	2.51779912e+01	-8.15115392e+00	1.07468991e+02
1017919857.14	-2.06804771e-01	-3.76542645e+01	-4.08636114e+01	3.00943700e+01	-4.11448105e+01	2.46087233e+01	-8.12630897e+00	1.07468962e+02
1018205428.57	-2.06602852e-01	-3.76676802e+01	-4.08851060e+01	2.97115976e+01	-4.12086623e+01	2.40870738e+01	-8.10554541e+00	1.07351838e+02
1018491000	-2.06574763e-01	-3.76846274e+01	-4.08919998e+01	2.85571518e+01	-4.12942834e+01	2.32925911e+01	-8.07818961e+00	1.07341513e+02
1018776571.43	-2.07967925e-01	-3.76983715e+01	-4.09434436e+01	2.83979271e+01	-4.13696405e+01	2.29206977e+01	-8.08111390e+00	1.07332656e+02
1019062142.86	-2.05239680e-01	-3.76692175e+01	-4.09958448e+01	2.75899617e+01	-4.14672015e+01	2.21479365e+01	-8.05468952e+00	1.07322248e+02
1019347714.29	-2.08401934e-01	-3.76723956e+01	-4.10357416e+01	2.68426123e+01	-4.15377771e+01	2.12596482e+01	-8.04102644e+00	1.07238540e+02
1019633285.71	-2.03829244e-01	-3.76523313e+01	-4.10930724e+01	2.69697040e+01	-4.15746553e+01	2.06246976e+01	-8.02724127e+00	1.07251061e+02
1019918857.14	-2.02268179e-01	-3.76560661e+01	-4.11065253e+01	2.56540148e+01	-4.16958000e+01	2.07360475e+01	-8.00469010e+00	1.07107973e+02
1020204428.57	-2.00770194e-01	-3.77060167e+01	-4.11137234e+01	2.54522819e+01	-4.17562836e+01	1.97401619e+01	-7.97037604e+00	1.07155086e+02
1020490000	-2.03630738e-01	-3.76769112e+01	-4.12549576e+01	2.55306445e+01	-4.18739248e+01	1.92266416e+01	-7.94909084e+00	1.06966431e+02
1020775571.43	-2.04511154e-01	-3.76702500e+01	-4.12400840e+01	2.48376180e+01	-4.19193939e+01	1.88362498e+01	-7.93666239e+00	1.06910429e+02
1021061142.86	-2.06508958e-01	-3.76542631e+01	-4.13063357e+01	2.40740126e+01	-4.19541080e+01	1.81033732e+01	-7.91351583e+00	1.06888197e+02
1021346714.29	-2.08552919e-01	-3.76664388e+01	-4.13531976e+01	2.38309933e+01	-4.20751930e+01	1.79482315e+01	-7.89244705e+00	1.06867803e+02
1021632285.71	-2.05532959e-01	-3.76677398e+01	-4.14862597e+01	2.37048525e+01	-4.21329220e+01	1.74265368e+01	-7.87802281e+00	1.06751547e+02
1021917857.14	-2.06341848e-01	-3.76584615e+01	-4.15309587e+01	2.29159181e+01	-4.22040619e+01	1.69525258e+01	-7.86268668e+00	1.06717577e+02
1022203428.57	-2.08082648e-01	-3.76503172e+01	-4.15146900e+01	2.22877785e+01	-4.23351446e+01	1.64448962e+01	-7.85928168e+00	1.06699457e+02
1022489000	-2.02808965e-01	-3.76525161e+01	-4.15347521e+01	2.18402841e+01	-4.23821235e+01	1.64612742e+01	-7.83422578e+00	1.06606472e+02
1022774571.43	-2.00389527e-01	-3.76557328e+01	-4.15889698e+01	2.14471925e+01	-4.24366328e+01	1.58382052e+01	-7.80198476e+00	1.06535875e+02
1023060142.86	-2.04319570e-01	-3.76651699e+01	-4.17183413e+01	2.18465218e+01	-4.25216467e+01	1.58120672e+01	-7.79682552e+00	1.06364692e+02
1023345714.29	-2.04322792e-01	-3.76690098e+01	-4.17184325e+01	2.04403461e+01	-4.26021744e+01	1.51781512e+01	-7.77222541e+00	1.06297963e+02
1023631285.71	-2.03231217e-01	-3.76672084e+01	-4.17954286e+01	2.06841849e+01	-4.26703801e+01	1.44214314e+01	-7.76039285e+00	1.06243872e+02
1023916857.14	-2.04476773e-01	-3.76563743e+01	-4.18721119e+01	1.97307095e+01	-4.27679510e+01	1.45741868e+01	-7.74019391e+00	1.06153337e+02
1024202428.57	-2.03923607e-01	-3.76630334e+01	-4.19753947e+01	1.91889105e+01	-4.28557706e+01	1.37779029e+01	-7.72379195e+00	1.06069819e+02
1024488000	-2.04730868e-01	-3.76642045e+01	-4.20272911e+01	1.89798850e+01	-4.28849957e+01	1.35373625e+01	-7.70484986e+00	1.05967036e+02
1024773571.43	-2.06952857e-01	-3.76563951e+01	-4.21200664e+01	1.88443137e+01	-4.30244405e+01	1.33105880e+01	-7.67303682e+00	1.05888571e+02
1025059142.86	-2.10132907e-01	-3.76683360e+01	-4.21198494e+01	1.83303203e+01	-4.30380861e+01	1.32489138e+01	-7.66727988e+00	1.05814412e+02
1025344714.29	-2.09193449e-01	-3.76416206e+01	-4.22410056e+01	1.76780570e+01	-4.30705579e+01	1.26362965e+01	-7.63698739e+00	1.05713323e+02
1025630285.71	-2.06679195e-01	-3.76617657e+01	-4.22075604e+01	1.78092272e+01	-4.31897574e+01	1.20156343e+01	-7.63156131e+00	1.05642663e+02
1025915857.14	-2.08853565e-01	-3.76521921e+01	-4.23832539e+01	1.70710165e+01	-4.33994802e+01	1.21672541e+01	-7.60998404e+00	1.05519608e+02
1026201428.57	-2.12039662e-01	-3.76426459e+01	-4.24877680e+01	1.67180101e+01	-4.34197423e+01	1.15164132e+01	-7.59241689e+00	1.05357347e+02
1026487000	-2.09499256e-01	-3.76451787e+01	-4.24487521e+01	1.58359197e+01	-4.34429953e+01	1.11770956e+01	-7.57571799e+00	1.05316855e+02
1026772571.43	-2.05413523e-01	-3.76548087e+01	-4.25915597e+01	1.60413146e+01	-4.35382341e+01	1.05770806e+01	-7.55636465e+00	1.05175198e+02
1027058142.86	-2.13276202e-01	-3.76483014e+01	-4.27035570e+01	1.52258492e+01	-4.37032243e+01	1.06054120e+01	-7.53561681e+00	1.05105833e+02
1027343714.29	-2.10989002e-01	-3.76802344e+01	-4.28180560e+01	1.48620134e+01	-4.37456934e+01	9.58046683e+00	-7.52139791e+00	1.04966065e+02
1027629285.71	-2.07168569e-01	-3.76635587e+01	-4.27527515e+01	1.44752473e+01	-4.38007787e+01	9.38428834e+00	-7.50609979e+00	1.04880925e+02
1027914857.14	-2.06418018e-01	-3.76562985e+01	-4.28293479e+01	1.44686229e+01	-4.39361747e+01	9.54049729e+00	-7.49253272e+00	1.04718515e+02
1028200428.57	-2.08651538e-01	-3.76816066e+01	-4.29504829e+01	1.31007303e+01	-4.41063439e+01	8.68310283e+00	-7.46596958e+00	1.04602285e+02
1028486000	-2.10673047e-01	-3.77183558e+01	-4.30539846e+01	1.30326293e+01	-4.41541961e+01	8.10972386e+00	-7.44234534e+00	1.04470744e+02
1028771571.43	-2.12639419e-01	-3.77145118e+01	-4.30856602e+01	1.25679281e+01	-4.41982534e+01	7.88671009e+00	-7.43346726e+00	1.04355073e+02
1029057142.86	-2.11922295e-01	-3.76831636e+01	-4.31563727e+01	1.24198259e+01	-4.42786655e+01	8.02399081e+00	-7.43170000e+00	1.04277000e+02
1029342714.29	-2.09249605e-01	-3.76961875e+01	-4.33214426e+01	1.30248529e+01	-4.44218625e+01	7.53693006e+00	-7.42130364e+00	1.04101894e+02
1029628285.71	-2.10690870e-01	-3.77019195e+01	-4.34177530e+01	1.17933024e+01	-4.45055032e+01	6.55674867e+00	-7.40210506e+00	1.03984310e+02
1029913857.14	-2.05856839e-01	-3.77259937e+01	-4.34907342e+01	1.16579324e+01	-4.46414935e+01	6.48759881e+00	-7.39598775e+00	1.03837148e+02
1030199428.57	-2.06653993e-01	-3.77284135e+01	-4.34117593e+01	1.10666168e+01	-4.47275621e+01	6.36966513e+00	-7.38190080e+00	1.03703569e+02
1030485000	-2.07451560e-01	-3.77570483e+01	-4.35752737e+01	1.09651240e+01	-4.48827120e+01	6.33856882e+00	-7.35933396e+00	1.03559062e+02
1030770571.43	-2.11579234e-01	-3.77691726e+01	-4.35259004e+01	1.07442925e+01	-4.49285752e+01	5.94170191e+00	-7.35146570e+00	1.03466636e+02
1031056142.86	-2.06468470e-01	-3.77658813e+01	-4.36878415e+01	1.08274186e+01	-4.49267667e+01	5.69194746e+00	-7.33443051e+00	1.03267603e+02
1031341714.29	-2.09300711e-01	-3.77325958e+01	-4.37994178e+01	1.05141858e+01	-4.51800130e+01	5.73442053e+00	-7.32781663e+00	1.03176488e+02
1031627285.71	-2.14115006e-01	-3.77427030e+01	-4.37268180e+01	1.05611532e+01	-4.52030294e+01	5.21013479e+00	-7.31438066e+00	1.03106949e+02
1031912857.14	-2.13694305e-01	-3.77493249e+01	-4.38623126e+01	9.63086477e+00	-4.52233803e+01	5.64227873e+00	-7.29804769e+00	1.02939801e+02
1032198428.57	-2.12632552e-01	-3.77885818e+01	-4.39132507e+01	9.93603751e+00	-4.53929792e+01	4.58771624e+00	-7.29289554e+00	1.02755151e+02
1032484000	-2.13685592e-01	-3.77683740e+01	-4.39835944e+01	1.00123497e+01	-4.55226064e+01	5.21198025e+00	-7.28361522e+00	1.02588000e+02
1032769571.43	-2.12176656e-01	-3.77960407e+01	-4.40877634e+01	9.03742087e+00	-4.55461397e+01	5.40898841e+00	-7.26196328e+00	1.02442930e+02
1033055142.86	-2.15414277e-01	-3.78116781e+01	-4.40516460e+01	8.91341851e+00	-4.56500944e+01	5.06519342e+00	-7.25948479e+00	1.02376133e+02
1033340714.29	-2.12754019e-01	-3.78328279e+01	-4.42596441e+01	9.14363322e+00	-4.57639024e+01	4.82693341e+00	-7.24472466e+00	1.02282121e+02
1033626285.71	-2.13264617e-01	-3.78663034e+01	-4.43658510e+01	9.20619210e+00	-4.56828517e+01	5.04062047e+00	-7.23744872e+00	1.02190884e+02
1033911857.14	-2.11526653e-01	-3.78479803e+01	-4.43478208e+01	8.19820616e+00	-4.59434904e+01	4.07748192e+00	-7.22048823e+00	1.02132344e+02
1034197428.57	-2.09003817e-01	-3.78639035e+01	-4.43920425e+01	7.02230357e+00	-4.60466437e+01	4.93827882e+00	-7.20990393e+00	1.01935801e+02
1034483000	-2.07120810e-01	-3.78567272e+01	-4.43971300e+01	7.23295854e+00	-4.60804875e+01	4.55432229e+00	-7.19836045e+00	1.01818156e+02
1034768571.43	-2.10971757e-01	-3.78931098e+01	-4.44771210e+01	7.44137182e+00	-4.61688147e+01	4.67705681e+00	-7.19814187e+00	1.01548663e+02
1035054142.86	-2.11687522e-01	-3.78699727e+01	-4.45454867e+01	7.07234906e+00	-4.62719103e+01	5.24809911e+00	-7.19668727e+00	1.01529262e+02
1035339714.29	-2.08508131e-01	-3.78808558e+01	-4.46885018e+01	7.63470202e+00	-4.62800760e+01	5.10990455e+00	-7.16615588e+00	1.01356906e+02
1035625285.71	-2.11100521e-01	-3.78885696e+01	-4.46865178e+01	7.29566184e+00	-4.63443353e+01	4.88151738e+00	-7.15299876e+00	1.01160653e+02
1035910857.14	-2.08831619e-01	-3.79005586e+01	-4.48169466e+01	7.10418106e+00	-4.65528618e+01	4.96419569e+00	-7.14212017e+00	1.01063406e+02
1036196428.57	-2.09398524e-01	-3.79192283e+01	-4.48101652e+01	8.02956173e+00	-4.65487176e+01	5.37738394e+00	-7.14209742e+00	1.00886647e+02
1036482000	-2.07568192e-01	-3.79206964e+01	-4.48135654e+01	6.94139010e+00	-4.66519347e+01	5.55479785e+00	-7.13244576e+00	1.00766543e+02
1036767571.43	-2.05407884e-01	-3.79306953e+01	-4.49343501e+01	6.13564145e+00	-4.66443163e+01	5.46849577e+00	-7.12607622e+00	1.00545119e+02
1037053142.86	-2.07912151e-01	-3.79439258e+01	-4.50484609e+01	6.81536521e+00	-4.67674249e+01	6.35615518e+00	-7.11641409e+00	1.00477364e+02
1037338714.29	-2.12048704e-01	-3.79530032e+01	-4.50610311e+01	6.34403215e+00	-4.67832256e+01	6.49337218e+00	-7.10350612e+00	1.00283461e+02
1037624285.71	-2.16635288e-01	-3.79743511e+01	-4.49760733e+01	6.42456615e+00	-4.67503140e+01	7.30366548e+00	-7.09054080e+00	1.00135273e+02
1037909857.14	-2.11659755e-01	-3.79873448e+01	-4.50676518e+01	7.65020057e+00	-4.69097090e+01	7.09966150e+00	-7.07882425e+00	9.99247533e+01
1038195428.57	-2.07679373e-01	-3.80139308e+01	-4.51189996e+01	6.59363367e+00	-4.69051354e+01	6.54448027e+00	-7.07202209e+00	9.97949679e+01
1038481000	-2.09574414e-01	-3.80240605e+01	-4.51433838e+01	6.25389233e+00	-4.69787284e+01	7.97877443e+00	-7.06262199e+00	9.96742590e+01
1038766571.43	-2.06466196e-01	-3.80296568e+01	-4.52180664e+01	6.61719314e+00	-4.69539739e+01	7.68603425e+00	-7.04813480e+00	9.95466223e+01
1039052142.86	-2.07299912e-01	-3.80707349e+01	-4.52054746e+01	6.44659970e+00	-4.69919327e+01	7.89707524e+00	-7.03699373e+00	9.93487876e+01
1039337714.29	-2.08214541e-01	-3.80603682e+01	-4.51443716e+01	6.97043913e+00	-4.70732113e+01	7.94661954e+00	-7.04044664e+00	9.92182460e+01
1039623285.71	-2.06275584e-01	-3.80828871e+01	-4.51812003e+01	6.30001908e+00	-4.70458428e+01	8.20595257e+00	-7.03535242e+00	9.90254363e+01
1039908857.14	-2.10630591e-01	-3.80751378e+01	-4.52274926e+01	6.17025523e+00	-4.71400659e+01	7.79790560e+00	-7.02866850e+00	9.88747898e+01
1040194428.57	-2.12324955e-01	-3.80945409e+01	-4.53152721e+01	5.93470898e+00	-4.71081944e+01	8.09757391e+00	-7.02065298e+00	9.87326125e+01
1040480000	-2.11820133e-01	-3.81193377e+01	-4.52862414e+01	5.23570300e+00	-4.70745358e+01	8.69503423e+00	-7.00385751e+00	9.85953783e+01
1040765571.43	-2.08293241e-01	-3.81583874e+01	-4.53380774e+01	5.39756465e+00	-4.71870768e+01	8.29028488e+00	-7.00366771e+00	9.84820397e+01
1041051142.86	-2.05671543e-01	-3.81705326e+01	-4.54269231e+01	5.53822671e+00	-4.71903847e+01	7.67409392e+00	-6.99625023e+00	9.82739837e+01
1041336714.29	-2.07000407e-01	-3.81836550e+01	-4.53544475e+01	5.09712879e+00	-4.72031016e+01	8.23626734e+00	-6.99627271e+00	9.81815474e+01
1041622285.71	-2.08100162e-01	-3.81917892e+01	-4.54609207e+01	3.59219485e+00	-4.71756990e+01	8.59598117e+00	-6.97971656e+00	9.80409054e+01
1041907857.14	-2.08543338e-01	-3.81968409e+01	-4.54992314e+01	4.17183421e+00	-4.73660582e+01	8.67560028e+00	-6.97516748e+00	9.78184978e+01
1042193428.57	-2.09072399e-01	-3.82253587e+01	-4.54352508e+01	3.60544843e+00	-4.72877797e+01	7.14857237e+00	-6.97383212e+00	9.77639281e+01
1042479000	-2.11608399e-01	-3.82443518e+01	-4.55257079e+01	4.08542058e+00	-4.74000581e+01	8.38179745e+00	-6.97242895e+00	9.76114828e+01
1042764571.43	-2.15361722e-01	-3.82425600e+01	-4.57403993e+01	3.82877036e+00	-4.73446166e+01	8.76421947e+00	-6.97444651e+00	9.74191823e+01
1043050142.86	-2.11563061e-01	-3.82500574e+01	-4.57209010e+01	3.97825887e+00	-4.73742608e+01	8.46314153e+00	-6.96732723e+00	9.73173850e+01
1043335714.29	-2.13762345e-01	-3.83016957e+01	-4.55662111e+01	3.97472510e+00	-4.75216970e+01	7.74618944e+00	-6.96236590e+00	9.71312191e+01
1043621285.71	-2.14102891e-01	-3.82960664e+01	-4.56225632e+01	3.84181003e+00	-4.74218864e+01	7.82788518e+00	-6.96633467e+00	9.69320437e+01
1043906857.14	-2.14175740e-01	-3.82939683e+01	-4.57912640e+01	2.70419148e+00	-4.73782803e+01	8.58228368e+00	-6.96317301e+00	9.68314457e+01
1044192428.57	-2.15436596e-01	-3.83235929e+01	-4.58111343e+01	2.66791149e+00	-4.75607108e+01	7.69880097e+00	-6.96315048e+00	9.66355678e+01
1044478000	-2.14822684e-01	-3.83259485e+01	-4.58048919e+01	2.98895381e+00	-4.76879434e+01	8.77762866e+00	-6.95973584e+00	9.64523303e+01
1044763571.43	-2.15421606e-01	-3.83560471e+01	-4.59134880e+01	3.34328185e+00	-4.76865003e+01	8.75787798e+00	-6.95780719e+00	9.62482348e+01
1045049142.86	-2.12612274e-01	-3.83943813e+01	-4.58402855e+01	2.36029408e+00	-4.76180229e+01	8.89584629e+00	-6.95090278e+00	9.60547994e+01
1045334714.29	-2.15024118e-01	-3.84082888e+01	-4.60155431e+01	2.10058045e+00	-4.77623228e+01	8.48373249e+00	-6.93974657e+00	9.59139260e+01
1045620285.71	-2.13921026e-01	-3.84074905e+01	-4.59705798e+01	2.00924383e+00	-4.78171930e+01	8.87068863e+00	-6.94813521e+00	9.56542412e+01
1045905857.14	-2.16244428e-01	-3.84295480e+01	-4.60655098e+01	2.32478855e+00	-4.78714704e+01	9.02228217e+00	-6.94882029e+00	9.54713655e+01
1046191428.57	-2.18112066e-01	-3.84397685e+01	-4.61042687e+01	2.64020029e+00	-4.78644905e+01	8.82303164e+00	-6.94473709e+00	9.53132335e+01
1046477000	-2.17388707e-01	-3.84720603e+01	-4.61940106e+01	2.03457383e+00	-4.79645944e+01	9.32257903e+00	-6.94458346e+00	9.50470490e+01
1046762571.43	-2.17198028e-01	-3.85046008e+01	-4.63098391e+01	2.19362147e+00	-4.79538255e+01	9.07059550e+00	-6.95036633e+00	9.49005327e+01
1047048142.86	-2.18987041e-01	-3.85179263e+01	-4.62957620e+01	3.07736351e+00	-4.79159831e+01	1.03807911e+01	-6.95136743e+00	9.47608502e+01
1047333714.29	-2.21118833e-01	-3.85263117e+01	-4.62665162e+01	2.58756504e+00	-4.78927432e+01	9.43746513e+00	-6.93490670e+00	9.44973674e+01
1047619285.71	-2.16582201e-01	-3.85660104e+01	-4.62940280e+01	2.36012842e+00	-4.79776651e+01	1.02380676e+01	-6.93996279e+00	9.43201226e+01
1047904857.14	-2.17236147e-01	-3.85772981e+01	-4.63310736e+01	2.29456397e+00	-4.79997011e+01	1.05917002e+01	-6.93567891e+00	9.41325006e+01
1048190428.57	-2.17656217e-01	-3.85885895e+01	-4.65186445e+01	2.67286602e+00	-4.79646264e+01	1.14824509e+01	-6.93020432e+00	9.39363847e+01
1048476000	-2.19537901e-01	-3.86318319e+01	-4.62784329e+01	2.84253899e+00	-4.80073431e+01	1.17824740e+01	-6.93607054e+00	9.37295626e+01
1048761571.43	-2.21501699e-01	-3.86474289e+01	-4.64398086e+01	2.71585349e+00	-4.79857138e+01	1.14617016e+01	-6.93136066e+00	9.36207848e+01
1049047142.86	-2.21896749e-01	-3.86567551e+01	-4.64538624e+01	2.86590989e+00	-4.78979854e+01	1.18069608e+01	-6.93078174e+00	9.34379398e+01
1049332714.29	-2.25719330e-01	-3.86946954e+01	-4.65911369e+01	2.27697752e+00	-4.78913741e+01	1.15212787e+01	-6.94314136e+00	9.32489450e+01
1049618285.71	-2.25111109e-01	-3.87196854e+01	-4.65724189e+01	2.90482983e+00	-4.79849217e+01	1.27900877e+01	-6.92912700e+00	9.29725501e+01
1049903857.14	-2.27082585e-01	-3.87217849e+01	-4.64276794e+01	2.21352635e+00	-4.78316367e+01	1.25727121e+01	-6.93122897e+00	9.27780008e+01
1050189428.57	-2.26462818e-01	-3.87531749e+01	-4.64917616e+01	3.28824306e+00	-4.78560026e+01	1.22311696e+01	-6.93940160e+00	9.26079804e+01
1050475000	-2.25068765e-01	-3.87794039e+01	-4.66056355e+01	2.74896774e+00	-4.78328504e+01	1.32239043e+01	-6.93874533e+00	9.24208833e+01
1050760571.43	-2.27192236e-01	-3.88014297e+01	-4.65378290e+01	3.32983452e+00	-4.78294123e+01	1.37507160e+01	-6.94495592e+00	9.22760429e+01
1051046142.86	-2.29326425e-01	-3.88430610e+01	-4.66902533e+01	2.12349970e+00	-4.77466166e+01	1.37601308e+01	-6.94687541e+00	9.20412393e+01
1051331714.29	-2.28860753e-01	-3.88452240e+01	-4.67166442e+01	2.93418029e+00	-4.76649833e+01	1.37359927e+01	-6.94579523e+00	9.18613585e+01
1051617285.71	-2.27338620e-01	-3.88436622e+01	-4.65447026e+01	3.64044789e+00	-4.76817983e+01	1.32957493e+01	-6.94246614e+00	9.17057641e+01
1051902857.14	-2.24131074e-01	-3.89123414e+01	-4.67434771e+01	3.26618178e+00	-4.77492132e+01	1.37590100e+01	-6.94533148e+00	9.15563121e+01
1052188428.57	-2.28858612e-01	-3.89144264e+01	-4.68247811e+01	2.72725900e+00	-4.76841102e+01	1.32159519e+01	-6.95275674e+00	9.14475185e+01
1052474000	-2.29048012e-01	-3.89393254e+01	-4.68015428e+01	2.91497543e+00	-4.75338087e+01	1.36499479e+01	-6.96374573e+00	9.12268202e+01
1052759571.43	-2.30686321e-01	-3.89783578e+01	-4.68191815e+01	2.87229751e+00	-4.75148608e+01	1.32693300e+01	-6.95847540e+00	9.10488687e+01
1053045142.86	-2.30247476e-01	-3.89834907e+01	-4.68375135e+01	2.73141252e+00	-4.75738817e+01	1.40541975e+01	-6.97345941e+00	9.08301711e+01
1053330714.29	-2.27031181e-01	-3.89937186e+01	-4.68276121e+01	2.26421655e+00	-4.75176441e+01	1.36715410e+01	-6.97666130e+00	9.05971221e+01
1053616285.71	-2.28716727e-01	-3.90250025e+01	-4.68238036e+01	2.20659147e+00	-4.75491515e+01	1.36246399e+01	-6.97696211e+00	9.04407902e+01
1053901857.14	-2.25827323e-01	-3.90473049e+01	-4.68716088e+01	2.30241422e+00	-4.74116030e+01	1.34808812e+01	-6.98400253e+00	9.02030705e+01
1054187428.57	-2.24167025e-01	-3.90787566e+01	-4.68628578e+01	2.19692327e+00	-4.75029647e+01	1.34888869e+01	-6.99512304e+00	8.99695532e+01
1054473000	-2.21852726e-01	-3.91119754e+01	-4.69424821e+01	1.75363271e+00	-4.74476784e+01	1.35804335e+01	-7.00095176e+00	8.97915518e+01
1054758571.43	-2.25165376e-01	-3.91458818e+01	-4.69478201e+01	1.75459355e+00	-4.73696152e+01	1.32319665e+01	-6.99709694e+00	8.95952178e+01
1055044142.86	-2.26938235e-01	-3.91641235e+01	-4.70059960e+01	1.68460363e+00	-4.74750579e+01	1.35326789e+01	-7.00233523e+00	8.94319093e+01
1055329714.29	-2.28748411e-01	-3.91735583e+01	-4.70429189e+01	1.78490978e+00	-4.73248187e+01	1.36365748e+01	-7.00791941e+00	8.91841789e+01
1055615285.71	-2.29003419e-01	-3.91860668e+01	-4.70910431e+01	1.56515105e+00	-4.73772839e+01	1.43705768e+01	-7.01546644e+00	8.91617011e+01
1055900857.14	-2.29158001e-01	-3.92013190e+01	-4.71307389e+01	1.64981502e+00	-4.73823991e+01	1.40945038e+01	-7.02893238e+00	8.89660210e+01
1056186428.57	-2.28424051e-01	-3.92194894e+01	-4.71712171e+01	1.72472395e+00	-4.72588674e+01	1.34536805e+01	-7.02211391e+00	8.88097805e+01
1056472000	-2.30590782e-01	-3.92278497e+01	-4.72387113e+01	2.07252120e+00	-4.73603528e+01	1.41891337e+01	-7.03204039e+00	8.86145875e+01
1056757571.43	-2.30299872e-01	-3.92487731e+01	-4.72587637e+01	1.93259137e+00	-4.74522417e+01	1.49708367e+01	-7.02011412e+00	8.85101854e+01
1057043142.86	-2.30028768e-01	-3.92529127e+01	-4.72956983e+01	2.16799455e+00	-4.73324146e+01	1.46186188e+01	-7.03066831e+00	8.83812341e+01
1057328714.29	-2.29907489e-01	-3.92801552e+01	-4.72964925e+01	2.26479138e+00	-4.73054611e+01	1.48068742e+01	-7.03465626e+00	8.82113074e+01
1057614285.71	-2.31234026e-01	-3.92814767e+01	-4.73915637e+01	2.40979756e+00	-4.73149697e+01	1.39843642e+01	-7.03988700e+00	8.80503583e+01
1057899857.14	-2.31485884e-01	-3.93063313e+01	-4.74196654e+01	2.83609258e+00	-4.72387343e+01	1.46715371e+01	-7.03780214e+00	8.79228328e+01
1058185428.57	-2.28542835e-01	-3.93623373e+01	-4.73985824e+01	2.91792883e+00	-4.72261768e+01	1.50742682e+01	-7.04151895e+00	8.77968918e+01
1058471000	-2.32438642e-01	-3.93959495e+01	-4.74221084e+01	3.24008909e+00	-4.72150327e+01	1.54216168e+01	-7.04384655e+00	8.76435137e+01
1058756571.43	-2.31005054e-01	-3.94346952e+01	-4.74106134e+01	3.72940864e+00	-4.69947947e+01	1.54929517e+01	-7.04424275e+00	8.74951451e+01
1059042142.86	-2.31773222e-01	-3.94479562e+01	-4.73821347e+01	3.91639403e+00	-4.69928895e+01	1.59929394e+01	-7.04284681e+00	8.74523996e+01
1059327714.29	-2.32100267e-01	-3.94583429e+01	-4.74431627e+01	4.35062031e+00	-4.70578457e+01	1.56042549e+01	-7.05196733e+00	8.73090381e+01
1059613285.71	-2.33424008e-01	-3.94520592e+01	-4.73933419e+01	4.76460954e+00	-4.69642228e+01	1.59436461e+01	-7.05180587e+00	8.72364519e+01
1059898857.14	-2.34043224e-01	-3.94803546e+01	-4.73946342e+01	4.95826611e+00	-4.69035274e+01	1.61182731e+01	-7.05780430e+00	8.70802825e+01
1060184428.57	-2.31440193e-01	-3.94969654e+01	-4.73514184e+01	5.32418164e+00	-4.68904405e+01	1.62818461e+01	-7.06303858e+00	8.69961356e+01
1060470000	-2.32410516e-01	-3.95363950e+01	-4.73211175e+01	5.47963990e+00	-4.67342846e+01	1.61765833e+01	-7.06910022e+00	8.68262472e+01
1060755571.43	-2.32711722e-01	-3.95542676e+01	-4.73243032e+01	5.67339660e+00	-4.66630043e+01	1.61816915e+01	-7.07069054e+00	8.66561721e+01
1061041142.86	-2.33563330e-01	-3.95971505e+01	-4.72411218e+01	5.99447803e+00	-4.65424919e+01	1.58514337e+01	-7.07597246e+00	8.65057301e+01
1061326714.29	-2.33746317e-01	-3.96381957e+01	-4.72649600e+01	5.78066748e+00	-4.65515923e+01	1.58981519e+01	-7.07380540e+00	8.63605033e+01
1061612285.71	-2.35563072e-01	-3.96452301e+01	-4.72105522e+01	5.97795586e+00	-4.64145381e+01	1.62189276e+01	-7.07656545e+00	8.62827237e+01
1061897857.14	-2.35781575e-01	-3.96847244e+01	-4.71466525e+01	6.28687588e+00	-4.64769461e+01	1.52500399e+01	-7.08212062e+00	8.60645735e+01
1062183428.57	-2.34862415e-01	-3.96977435e+01	-4.71180347e+01	6.24254767e+00	-4.63794929e+01	1.50301813e+01	-7.07574159e+00	8.58955939e+01
1062469000	-2.35276439e-01	-3.97092279e+01	-4.70825336e+01	6.37974428e+00	-4.63517407e+01	1.53608192e+01	-7.09048185e+00	8.57070941e+01
1062754571.43	-2.34077279e-01	-3.97108359e+01	-4.70324951e+01	6.59486956e+00	-4.62859662e+01	1.54081306e+01	-7.09544598e+00	8.55089709e+01
1063040142.86	-2.35864266e-01	-3.97479686e+01	-4.70358656e+01	6.49839231e+00	-4.62112355e+01	1.53782562e+01	-7.09545650e+00	8.53179127e+01
1063325714.29	-2.40676855e-01	-3.97719615e+01	-4.69720606e+01	6.62352325e+00	-4.61667041e+01	1.52033155e+01	-7.09873756e+00	8.51198987e+01
1063611285.71	-2.37276978e-01	-3.97783901e+01	-4.70073581e+01	6.75416367e+00	-4.61858684e+01	1.48162137e+01	-7.11464111e+00	8.49905378e+01
1063896857.14	-2.40787255e-01	-3.98008213e+01	-4.69813876e+01	7.11486829e+00	-4.60642435e+01	1.41895409e+01	-7.12468291e+00	8.48517439e+01
1064182428.57	-2.40062297e-01	-3.98364582e+01	-4.69137891e+01	7.13246922e+00	-4.60207465e+01	1.45881103e+01	-7.12922402e+00	8.46050273e+01
1064468000	-2.34702580e-01	-3.99021867e+01	-4.68370155e+01	7.13851240e+00	-4.59188876e+01	1.46414181e+01	-7.13545209e+00	8.44611211e+01
1064753571.43	-2.37679244e-01	-3.99200864e+01	-4.68527486e+01	6.98213560e+00	-4.59210254e+01	1.42515147e+01	-7.15009005e+00	8.43044498e+01
1065039142.86	-2.35266072e-01	-3.99337486e+01	-4.68144278e+01	7.55605354e+00	-4.57939588e+01	1.41519927e+01	-7.15121867e+00	8.41309277e+01
1065324714.29	-2.37162362e-01	-3.99506570e+01	-4.67157859e+01	7.66958656e+00	-4.57271034e+01	1.45652765e+01	-7.16522688e+00	8.40010347e+01
1065610285.71	-2.35803861e-01	-3.99793767e+01	-4.67021608e+01	7.64373754e+00	-4.56735175e+01	1.39608781e+01	-7.16265520e+00	8.38312513e+01
1065895857.14	-2.35678779e-01	-4.00271388e+01	-4.66290015e+01	7.86522987e+00	-4.56287658e+01	1.40037119e+01	-7.17157975e+00	8.37040791e+01
1066181428.57	-2.36165525e-01	-4.00218115e+01	-4.66008135e+01	8.19512995e+00	-4.55133904e+01	1.38410126e+01	-7.19238895e+00	8.35388409e+01
1066467000	-2.39597790e-01	-4.00039217e+01	-4.65555466e+01	8.30672379e+00	-4.53847098e+01	1.37522571e+01	-7.20481519e+00	8.33725913e+01
1066752571.43	-2.38365943e-01	-4.00538443e+01	-4.64619935e+01	8.58081659e+00	-4.52964682e+01	1.36200837e+01	-7.21241425e+00	8.32196759e+01
1067038142.86	-2.36667379e-01	-4.00701943e+01	-4.64098962e+01	8.83140228e+00	-4.52130294e+01	1.32753068e+01	-7.23437776e+00	8.31149233e+01
1067323714.29	-2.38705434e-01	-4.01007834e+01	-4.63125307e+01	9.26103673e+00	-4.51763805e+01	1.34264866e+01	-7.23529116e+00	8.30428778e+01
1067609285.71	-2.37147465e-01	-4.01490713e+01	-4.62418858e+01	9.39077360e+00	-4.50670464e+01	1.27425355e+01	-7.24677745e+00	8.28960338e+01
1067894857.14	-2.39020372e-01	-4.01620433e+01	-4.61254213e+01	9.47351025e+00	-4.50411462e+01	1.33105983e+01	-7.25708911e+00	8.27209509e+01
1068180428.57	-2.41403887e-01	-4.01540440e+01	-4.60201305e+01	9.71139503e+00	-4.49187494e+01	1.24889491e+01	-7.27561475e+00	8.27061808e+01
1068466000	-2.40648674e-01	-4.01711979e+01	-4.59607948e+01	9.57493656e+00	-4.47557886e+01	1.22300091e+01	-7.29491836e+00	8.25429482e+01
1068751571.43	-2.42253433e-01	-4.01837124e+01	-4.58547599e+01	9.63818560e+00	-4.46446906e+01	1.24692403e+01	-7.31267203e+00	8.25080743e+01
1069037142.86	-2.35620772e-01	-4.02163522e+01	-4.57235926e+01	9.53586371e+00	-4.44843212e+01	1.19229441e+01	-7.32475617e+00	8.23496043e+01
1069322714.29	-2.33654305e-01	-4.02050300e+01	-4.56319979e+01	9.65559642e+00	-4.44031258e+01	1.19911002e+01	-7.32432252e+00	8.22518888e+01
1069608285.71	-2.38413974e-01	-4.02093506e+01	-4.54719308e+01	9.48820595e+00	-4.43414174e+01	1.15205276e+01	-7.33341761e+00	8.21972350e+01
1069893857.14	-2.40448780e-01	-4.02513884e+01	-4.53322682e+01	9.28176145e+00	-4.41896478e+01	1.09681189e+01	-7.34422759e+00	8.21152153e+01
1070179428.57	-2.36066142e-01	-4.02269756e+01	-4.52319417e+01	9.23700916e+00	-4.40755180e+01	1.03760929e+01	-7.34473518e+00	8.20034422e+01
1070465000	-2.36184863e-01	-4.02798635e+01	-4.51254776e+01	8.86500643e+00	-4.39742248e+01	9.79415010e+00	-7.36683697e+00	8.19475992e+01
1070750571.43	-2.36552679e-01	-4.02884070e+01	-4.50003474e+01	8.24481124e+00	-4.37982336e+01	9.68935030e+00	-7.37696960e+00	8.18613584e+01
1071036142.86	-2.38427340e-01	-4.03059870e+01	-4.49041128e+01	8.18652954e+00	-4.37304472e+01	9.25865795e+00	-7.38167235e+00	8.17480604e+01
1071321714.29	-2.39171719e-01	-4.03414687e+01	-4.48210129e+01	7.86583582e+00	-4.36738413e+01	8.22798192e+00	-7.39653197e+00	8.17107545e+01
1071607285.71	-2.41123107e-01	-4.03744241e+01	-4.47064337e+01	7.55500574e+00	-4.35724880e+01	7.34397898e+00	-7.40496377e+00	8.16876063e+01
1071892857.14	-2.40211307e-01	-4.03788637e+01	-4.46258301e+01	6.80411774e+00	-4.34737920e+01	7.26846572e+00	-7.40884371e+00	8.15776983e+01
1072178428.57	-2.40108470e-01	-4.03814766e+01	-4.45275645e+01	6.66669442e+00	-4.34182353e+01	6.89281260e+00	-7.42278396e+00	8.15397760e+01
1072464000	-2.41903284e-01	-4.03739446e+01	-4.44263771e+01	6.20164076e+00	-4.32734403e+01	6.33320629e+00	-7.41823909e+00	8.14064167e+01
1072749571.43	-2.39712839e-01	-4.04008810e+01	-4.43319571e+01	5.46910131e+00	-4.32118796e+01	5.42530477e+00	-7.42919558e+00	8.12909546e+01
1073035142.86	-2.39789252e-01	-4.04232035e+01	-4.41983693e+01	5.09369336e+00	-4.31514022e+01	4.79403749e+00	-7.42836896e+00	8.12090037e+01
1073320714.29	-2.39856374e-01	-4.04264947e+01	-4.41365532e+01	4.35627596e+00	-4.31010682e+01	4.51969117e+00	-7.42804682e+00	8.11499070e+01
1073606285.71	-2.39405225e-01	-4.04583749e+01	-4.40386928e+01	4.03048043e+00	-4.30178737e+01	3.21793025e+00	-7.42728063e+00	8.10874680e+01
1073891857.14	-2.39051464e-01	-4.04577114e+01	-4.39709103e+01	3.50330852e+00	-4.29567424e+01	3.05291551e+00	-7.44405987e+00	8.09510581e+01
1074177428.57	-2.35588424e-01	-4.04899617e+01	-4.38966798e+01	2.93900390e+00	-4.28395806e+01	1.86551861e+00	-7.44411346e+00	8.09405392e+01
1074463000	-2.32966933e-01	-4.05143535e+01	-4.38096320e+01	2.20758593e+00	-4.28533502e+01	1.33689398e+00	-7.44224517e+00	8.08357044e+01
1074748571.43	-2.36394392e-01	-4.05376187e+01	-4.37858239e+01	1.75751400e+00	-4.27865834e+01	1.06344267e+00	-7.44441616e+00	8.06989308e+01
1075034142.86	-2.41146300e-01	-4.05318631e+01	-4.37245565e+01	1.20688847e+00	-4.27343431e+01	4.10428152e-01	-7.43571748e+00	8.06157082e+01
1075319714.29	-2.38635809e-01	-4.05151624e+01	-4.36208745e+01	5.53468983e-01	-4.26620217e+01	-6.40732359e-01	-7.44167980e+00	8.05766372e+01
1075605285.71	-2.37187337e-01	-4.05245932e+01	-4.35780891e+01	1.72398062e-01	-4.27279323e+01	-1.15748890e+00	-7.43611486e+00	8.04563215e+01
1075890857.14	-2.35349713e-01	-4.05413964e+01	-4.35226314e+01	-3.67418882e-01	-4.26376574e+01	-2.00054394e+00	-7.44138226e+00	8.04220962e+01
1076176428.57	-2.33866996e-01	-4.05418567e+01	-4.34628983e+01	-1.07371056e+00	-4.26027508e+01	-2.47673657e+00	-7.45948151e+00	8.03211227e+01
1076462000	-2.31934550e-01	-4.05774713e+01	-4.34158003e+01	-1.57363560e+00	-4.25415461e+01	-2.97108307e+00	-7.45199756e+00	8.02964475e+01
1076747571.43	-2.33925605e-01	-4.06080280e+01	-4.33554399e+01	-1.89074255e+00	-4.25217150e+01	-3.44050192e+00	-7.45669892e+00	8.02218461e+01
1077033142.86	-2.31612749e-01	-4.06100222e+01	-4.32892465e+01	-2.52124012e+00	-4.24802365e+01	-3.71651795e+00	-7.45728135e+00	8.01917545e+01
1077318714.29	-2.32582392e-01	-4.06078614e+01	-4.32334298e+01	-2.85936710e+00	-4.24072609e+01	-4.60952502e+00	-7.44970111e+00	7.99984700e+01
1077604285.71	-2.32980605e-01	-4.06075934e+01	-4.31696153e+01	-3.43598235e+00	-4.24032377e+01	-5.14270143e+00	-7.45033160e+00	8.00539910e+01
1077889857.14	-2.34253808e-01	-4.05961277e+01	-4.31265879e+01	-3.72200350e+00	-4.23823063e+01	-5.84496838e+00	-7.45039733e+00	7.99545406e+01
1078175428.57	-2.34372281e-01	-4.06467742e+01	-4.30667714e+01	-4.35463496e+00	-4.23273295e+01	-6.50159757e+00	-7.44989767e+00	7.98641788e+01
1078461000	-2.32570532e-01	-4.06341076e+01	-4.30004721e+01	-4.80741354e+00	-4.22839814e+01	-6.66921614e+00	-7.45140779e+00	7.98223368e+01
1078746571.43	-2.31099953e-01	-4.06483954e+01	-4.29350996e+01	-5.29589115e+00	-4.22209859e+01	-7.14984162e+00	-7.46420562e+00	7.96629532e+01
1079032142.86	-2.29522402e-01	-4.06678379e+01	-4.28738066e+01	-5.74290743e+00	-4.21484857e+01	-8.05009461e+00	-7.45803839e+00	7.96492476e+01
1079317714.29	-2.29935764e-01	-4.06557363e+01	-4.28217328e+01	-6.14049275e+00	-4.21742256e+01	-8.61751299e+00	-7.45712889e+00	7.96177403e+01
1079603285.71	-2.29452716e-01	-4.06855233e+01	-4.27502045e+01	-6.83729976e+00	-4.21203716e+01	-8.49637509e+00	-7.46810751e+00	7.94714292e+01
1079888857.14	-2.30677334e-01	-4.06545380e+01	-4.26944933e+01	-7.19798786e+00	-4.20610964e+01	-9.19854677e+00	-7.44859614e+00	7.94150904e+01
1080174428.57	-2.30448695e-01	-4.06347854e+01	-4.26022617e+01	-7.78227489e+00	-4.20682128e+01	-9.56084830e+00	-7.45794312e+00	7.93978989e+01
1080460000	-2.27967383e-01	-4.06342564e+01	-4.25265738e+01	-8.19727895e+00	-4.19599460e+01	-1.02292830e+01	-7.45094017e+00	7.93501488e+01
1080745571.43	-2.25362846e-01	-4.06411500e+01	-4.24537814e+01	-8.86673704e+00	-4.19250932e+01	-1.04913383e+01	-7.45442354e+00	7.92551122e+01
1081031142.86	-2.29043250e-01	-4.06441804e+01	-4.23914241e+01	-9.38271701e+00	-4.19017270e+01	-1.12974342e+01	-7.44721559e+00	7.91854840e+01
1081316714.29	-2.29626734e-01	-4.06518935e+01	-4.23060451e+01	-1.00947992e+01	-4.18538861e+01	-1.16229299e+01	-7.44135802e+00	7.90344878e+01
1081602285.71	-2.27035196e-01	-4.06365988e+01	-4.22190880e+01	-1.05216251e+01	-4.17383090e+01	-1.24167032e+01	-7.44264371e+00	7.89675038e+01
1081887857.14	-2.33057684e-01	-4.06411707e+01	-4.21564229e+01	-1.10436524e+01	-4.16656944e+01	-1.29957773e+01	-7.44000058e+00	7.89272138e+01
1082173428.57	-2.30522507e-01	-4.06294017e+01	-4.20814714e+01	-1.17789040e+01	-4.15952782e+01	-1.32995249e+01	-7.44062960e+00	7.88252801e+01
1082459000	-2.29029058e-01	-4.06418969e+01	-4.19798805e+01	-1.25149363e+01	-4.15568418e+01	-1.41725859e+01	-7.43167880e+00	7.87887603e+01
1082744571.43	-2.28271448e-01	-4.06318475e+01	-4.19038383e+01	-1.30428632e+01	-4.14718726e+01	-1.48210884e+01	-7.44576097e+00	7.86975674e+01
1083030142.86	-2.26088499e-01	-4.06220229e+01	-4.18341262e+01	-1.38938486e+01	-4.14166484e+01	-1.56122091e+01	-7.43876926e+00	7.85916743e+01
1083315714.29	-2.27453721e-01	-4.06394187e+01	-4.17851749e+01	-1.45476549e+01	-4.13412478e+01	-1.62261100e+01	-7.43812076e+00	7.84903107e+01
1083601285.71	-2.27196572e-01	-4.06109957e+01	-4.16821338e+01	-1.53905991e+01	-4.12706020e+01	-1.67102997e+01	-7.43204577e+00	7.84040234e+01
1083886857.14	-2.29727590e-01	-4.06157620e+01	-4.15906180e+01	-1.61457286e+01	-4.12112906e+01	-1.75991382e+01	-7.43677645e+00	7.83242623e+01
1084172428.57	-2.27350690e-01	-4.06213276e+01	-4.15380552e+01	-1.70020049e+01	-4.11913944e+01	-1.85908588e+01	-7.43007871e+00	7.82517296e+01
1084458000	-2.25549949e-01	-4.06567435e+01	-4.14693513e+01	-1.79252879e+01	-4.11256292e+01	-1.91010876e+01	-7.42295852e+00	7.82123972e+01
1084743571.43	-2.20941253e-01	-4.06264893e+01	-4.14090975e+01	-1.86355641e+01	-4.10142169e+01	-2.00036471e+01	-7.41913662e+00	7.80302787e+01
1085029142.86	-2.25613938e-01	-4.05901280e+01	-4.13393033e+01	-1.94906485e+01	-4.09583632e+01	-2.11177554e+01	-7.41191493e+00	7.79402451e+01
1085314714.29	-2.28914766e-01	-4.05987434e+01	-4.12811901e+01	-2.03086024e+01	-4.08967766e+01	-2.19657073e+01	-7.41586447e+00	7.78552953e+01
1085600285.71	-2.25304565e-01	-4.05883006e+01	-4.12165271e+01	-2.11196800e+01	-4.08907299e+01	-2.27291189e+01	-7.41283434e+00	7.77696980e+01
1085885857.14	-2.29287803e-01	-4.05942292e+01	-4.11798549e+01	-2.21569239e+01	-4.07496574e+01	-2.33869459e+01	-7.40200272e+00	7.77327017e+01
1086171428.57	-2.27607192e-01	-4.06043725e+01	-4.11053343e+01	-2.31421113e+01	-4.07573029e+01	-2.42101318e+01	-7.41154816e+00	7.76075248e+01
1086457000	-2.28889139e-01	-4.05930479e+01	-4.10743997e+01	-2.41011752e+01	-4.06889278e+01	-2.50129502e+01	-7.40134205e+00	7.75626393e+01
1086742571.43	-2.27915806e-01	-4.05602297e+01	-4.10173094e+01	-2.50516771e+01	-4.06502761e+01	-2.60359818e+01	-7.40292708e+00	7.74510939e+01
1087028142.86	-2.32678432e-01	-4.05809319e+01	-4.09751602e+01	-2.59948251e+01	-4.06113091e+01	-2.71055365e+01	-7.40444818e+00	7.72737296e+01
1087313714.29	-2.29987236e-01	-4.05428320e+01	-4.09272568e+01	-2.69592006e+01	-4.05122737e+01	-2.79585107e+01	-7.41015405e+00	7.72374380e+01
1087599285.71	-2.26747834e-01	-4.05379351e+01	-4.08880539e+01	-2.79529222e+01	-4.04716730e+01	-2.85943661e+01	-7.40193611e+00	7.70700407e+01
1087884857.14	-2.27786294e-01	-4.05605530e+01	-4.08772962e+01	-2.89846003e+01	-4.05094266e+01	-3.02695987e+01	-7.39627692e+00	7.70130475e+01
1088170428.57	-2.28044415e-01	-4.05561488e+01	-4.08673821e+01	-2.98500332e+01	-4.04986885e+01	-3.10712617e+01	-7.39226605e+00	7.69430030e+01
1088456000	-2.27906830e-01	-4.05444765e+01	-4.08626294e+01	-3.09287254e+01	-4.04513927e+01	-3.17217999e+01	-7.40072407e+00	7.69198015e+01
1088741571.43	-2.29477526e-01	-4.05558298e+01	-4.08340401e+01	-3.19287558e+01	-4.04403457e+01	-3.30931895e+01	-7.40822333e+00	7.67286642e+01
1089027142.86	-2.28759414e-01	-4.05552595e+01	-4.07950038e+01	-3.27034105e+01	-4.04387024e+01	-3.37781470e+01	-7.41490522e+00	7.66289188e+01
1089312714.29	-2.30506451e-01	-4.05205317e+01	-4.08045151e+01	-3.36104542e+01	-4.04307031e+01	-3.47345703e+01	-7.41926095e+00	7.64568016e+01
1089598285.71	-2.32774743e-01	-4.05174664e+01	-4.08046420e+01	-3.46471471e+01	-4.03714114e+01	-3.57914734e+01	-7.44501749e+00	7.63648487e+01
1089883857.14	-2.29121516e-01	-4.05373091e+01	-4.07832361e+01	-3.56766039e+01	-4.03149724e+01	-3.66175455e+01	-7.44346885e+00	7.62709594e+01
1090169428.57	-2.28159440e-01	-4.05382982e+01	-4.07625579e+01	-3.64745418e+01	-4.03739172e+01	-3.72493817e+01	-7.45567284e+00	7.60720990e+01
1090455000	-2.27274622e-01	-4.05089876e+01	-4.07809624e+01	-3.72642733e+01	-4.03402922e+01	-3.84909742e+01	-7.46678592e+00	7.59255895e+01
1090740571.43	-2.31235265e-01	-4.05185760e+01	-4.07669635e+01	-3.83598220e+01	-4.03866962e+01	-3.94087952e+01	-7.46796451e+00	7.57517045e+01
1091026142.86	-2.30543406e-01	-4.05022863e+01	-4.07707878e+01	-3.92370981e+01	-4.04046912e+01	-4.00890315e+01	-7.47116775e+00	7.57766182e+01
1091311714.29	-2.28580756e-01	-4.05216453e+01	-4.07524154e+01	-3.99719802e+01	-4.03356265e+01	-4.10686761e+01	-7.48405625e+00	7.56213712e+01
1091597285.71	-2.29153988e-01	-4.05291834e+01	-4.07635746e+01	-4.09611804e+01	-4.03617341e+01	-4.20619230e+01	-7.49122912e+00	7.55396430e+01
1091882857.14	-2.29949189e-01	-4.05112271e+01	-4.07801397e+01	-4.17821208e+01	-4.03907386e+01	-4.30274272e+01	-7.51019990e+00	7.54732594e+01
1092168428.57	-2.26873287e-01	-4.05117788e+01	-4.07980597e+01	-4.26892319e+01	-4.02858393e+01	-4.38002885e+01	-7.51541907e+00	7.53310579e+01
1092454000	-2.27817653e-01	-4.04949167e+01	-4.07609776e+01	-4.35474237e+01	-4.04324286e+01	-4.46858147e+01	-7.52881994e+00	7.52163303e+01
1092739571.43	-2.29245238e-01	-4.04947346e+01	-4.07929981e+01	-4.44857170e+01	-4.04010211e+01	-4.54070057e+01	-7.53772418e+00	7.51483143e+01
1093025142.86	-2.27310882e-01	-4.04864356e+01	-4.07852621e+01	-4.54069283e+01	-4.03744661e+01	-4.61290337e+01	-7.54994175e+00	7.50914708e+01
1093310714.29	-2.25663433e-01	-4.04827703e+01	-4.07745892e+01	-4.63401076e+01	-4.04622681e+01	-4.71778581e+01	-7.56405992e+00	7.50000431e+01
1093596285.71	-2.24472117e-01	-4.04937130e+01	-4.08283545e+01	-4.72413741e+01	-4.04113129e+01	-4.82228910e+01	-7.57812980e+00	7.49779226e+01
1093881857.14	-2.24876427e-01	-4.05121390e+01	-4.08286021e+01	-4.80337298e+01	-4.04397027e+01	-4.89120052e+01	-7.59145149e+00	7.48931777e+01
1094167428.57	-2.26729324e-01	-4.04828476e+01	-4.08387330e+01	-4.89888270e+01	-4.03998094e+01	-4.99314344e+01	-7.60566345e+00	7.48417100e+01
1094453000	-2.26553684e-01	-4.04959411e+01	-4.08738205e+01	-4.96387181e+01	-4.04524070e+01	-5.05333924e+01	-7.61758178e+00	7.47758157e+01
1094738571.43	-2.24669734e-01	-4.04736063e+01	-4.09097478e+01	-5.06249292e+01	-4.04939986e+01	-5.14221521e+01	-7.61855018e+00	7.47919400e+01
1095024142.86	-2.27162710e-01	-4.04633990e+01	-4.09068006e+01	-5.13893690e+01	-4.04986238e+01	-5.21664302e+01	-7.62732132e+00	7.47878780e+01
1095309714.29	-2.26883699e-01	-4.04515726e+01	-4.09511503e+01	-5.20146448e+01	-4.04866575e+01	-5.27011425e+01	-7.63954517e+00	7.47063950e+01
1095595285.71	-2.25261395e-01	-4.04386467e+01	-4.09943677e+01	-5.29535977e+01	-4.05324376e+01	-5.39399020e+01	-7.65208561e+00	7.47453547e+01
1095880857.14	-2.26674330e-01	-4.04570268e+01	-4.10073533e+01	-5.36641611e+01	-4.05443055e+01	-5.50523531e+01	-7.68562641e+00	7.47480004e+01
1096166428.57	-2.24638334e-01	-4.04780940e+01	-4.10379144e+01	-5.44398503e+01	-4.06216956e+01	-5.55503837e+01	-7.70063764e+00	7.46529553e+01
1096452000	-2.22782781e-01	-4.04753939e+01	-4.10604825e+01	-5.51794057e+01	-4.06334692e+01	-5.64903846e+01	-7.71606110e+00	7.47372371e+01
1096737571.43	-2.21689614e-01	-4.04560336e+01	-4.10963302e+01	-5.59732738e+01	-4.06885470e+01	-5.74914103e+01	-7.71211268e+00	7.47781966e+01
1097023142.86	-2.24606349e-01	-4.04478642e+01	-4.11419824e+01	-5.67646405e+01	-4.06931638e+01	-5.80775955e+01	-7.73239826e+00	7.49210215e+01
1097308714.29	-2.25258202e-01	-4.04379601e+01	-4.11935654e+01	-5.72849901e+01	-4.06933621e+01	-5.85564493e+01	-7.73794886e+00	7.48483976e+01
1097594285.71	-2.24579706e-01	-4.04494944e+01	-4.12122684e+01	-5.79513106e+01	-4.07861547e+01	-5.94842059e+01	-7.74490176e+00	7.49377172e+01
1097879857.14	-2.22683096e-01	-4.04408481e+01	-4.12372473e+01	-5.87184084e+01	-4.08149733e+01	-6.03076871e+01	-7.76468338e+00	7.49286855e+01
1098165428.57	-2.22876325e-01	-4.04219507e+01	-4.12518578e+01	-5.94037088e+01	-4.08066566e+01	-6.05772167e+01	-7.78421080e+00	7.49499470e+01
1098451000	-2.18653999e-01	-4.04147322e+01	-4.13194758e+01	-6.01981297e+01	-4.08633909e+01	-6.13682164e+01	-7.78558781e+00	7.49920313e+01
1098736571.43	-2.19680263e-01	-4.03909784e+01	-4.13138529e+01	-6.06120835e+01	-4.09075239e+01	-6.20062689e+01	-7.79231094e+00	7.49989352e+01
1099022142.86	-2.20467335e-01	-4.04082048e+01	-4.13502572e+01	-6.12746048e+01	-4.08993440e+01	-6.30792813e+01	-7.79973854e+00	7.50580793e+01
1099307714.29	-2.23483490e-01	-4.04054708e+01	-4.13516795e+01	-6.18328756e+01	-4.09093793e+01	-6.37847474e+01	-7.80225636e+00	7.49411839e+01
1099593285.71	-2.18526277e-01	-4.04097190e+01	-4.14016051e+01	-6.24576348e+01	-4.09775729e+01	-6.41924457e+01	-7.81203525e+00	7.50306595e+01
1099878857.14	-2.19074594e-01	-4.04302063e+01	-4.14320789e+01	-6.30005953e+01	-4.09660506e+01	-6.47780520e+01	-7.82301391e+00	7.49591848e+01
1100164428.57	-2.21826752e-01	-4.04390754e+01	-4.14299094e+01	-6.37990445e+01	-4.10490683e+01	-6.54480358e+01	-7.83349027e+00	7.50145344e+01
1100450000	-2.20601998e-01	-4.04389193e+01	-4.14886617e+01	-6.40869540e+01	-4.10444264e+01	-6.60553240e+01	-7.82580430e+00	7.49907596e+01
1100735571.43	-2.22964272e-01	-4.04399637e+01	-4.15037686e+01	-6.46838554e+01	-4.10325401e+01	-6.68669582e+01	-7.82660752e+00	7.49526197e+01
1101021142.86	-2.24367321e-01	-4.04390326e+01	-4.15484121e+01	-6.52223276e+01	-4.10894355e+01	-6.72690084e+01	-7.82259379e+00	7.49204336e+01
1101306714.29	-2.24222769e-01	-4.04517766e+01	-4.15531284e+01	-6.56849408e+01	-4.11077377e+01	-6.77231598e+01	-7.82541702e+00	7.48457812e+01
1101592285.71	-2.22955030e-01	-4.04405978e+01	-4.15583235e+01	-6.62910502e+01	-4.11601999e+01	-6.85458923e+01	-7.82333293e+00	7.48132282e+01
1101877857.14	-2.19131963e-01	-4.04262372e+01	-4.15757414e+01	-6.67855706e+01	-4.11425961e+01	-6.88203578e+01	-7.80621862e+00	7.47818272e+01
1102163428.57	-2.24667788e-01	-4.04145111e+01	-4.16004487e+01	-6.73637947e+01	-4.11644829e+01	-6.96584215e+01	-7.81638224e+00	7.47962276e+01
1102449000	-2.21362709e-01	-4.04025792e+01	-4.15952440e+01	-6.78847048e+01	-4.12159823e+01	-7.04337692e+01	-7.81840013e+00	7.47316615e+01
1102734571.43	-2.21042190e-01	-4.04052698e+01	-4.16080121e+01	-6.81834547e+01	-4.11872194e+01	-7.07475448e+01	-7.80503868e+00	7.46332559e+01
1103020142.86	-2.26000266e-01	-4.03967592e+01	-4.15953341e+01	-6.88796988e+01	-4.12004500e+01	-7.15621640e+01	-7.80839155e+00	7.46590119e+01
1103305714.29	-2.19743152e-01	-4.04021913e+01	-4.15915945e+01	-6.93960422e+01	-4.12105447e+01	-7.19653753e+01	-7.81235334e+00	7.45005648e+01
1103591285.71	-2.21998946e-01	-4.04052889e+01	-4.15812234e+01	-6.99633081e+01	-4.12312202e+01	-7.29428898e+01	-7.81050495e+00	7.44617707e+01
1103876857.14	-2.23877329e-01	-4.03855370e+01	-4.15812206e+01	-7.05225356e+01	-4.12007459e+01	-7.33834668e+01	-7.82918427e+00	7.44464923e+01
1104162428.57	-2.21749482e-01	-4.03816268e+01	-4.16008907e+01	-7.10559723e+01	-4.12552821e+01	-7.42905226e+01	-7.82032321e+00	7.43023095e+01
1104448000	-2.21702989e-01	-4.03928342e+01	-4.16002692e+01	-7.17677236e+01	-4.12389038e+01	-7.47061226e+01	-7.81537949e+00	7.41851928e+01
1104733571.43	-2.22624814e-01	-4.03836713e+01	-4.15746572e+01	-7.24528430e+01	-4.12831351e+01	-7.48951226e+01	-7.81931697e+00	7.41692836e+01
1105019142.86	-2.24646843e-01	-4.03962267e+01	-4.15922773e+01	-7.31806355e+01	-4.12543791e+01	-7.61019344e+01	-7.82006704e+00	7.41203185e+01
1105304714.29	-2.23740632e-01	-4.04135780e+01	-4.15822568e+01	-7.36565869e+01	-4.13030540e+01	-7.64327788e+01	-7.82596064e+00	7.40867815e+01
1105590285.71	-2.25493027e-01	-4.04074719e+01	-4.15715986e+01	-7.42950817e+01	-4.12397032e+01	-7.70806987e+01	-7.82513732e+00	7.39940160e+01
1105875857.14	-2.24585568e-01	-4.04119924e+01	-4.15754826e+01	-7.48728495e+01	-4.12792707e+01	-7.78653884e+01	-7.82452298e+00	7.39251333e+01
1106161428.57	-2.26178120e-01	-4.04169486e+01	-4.15667685e+01	-7.56302963e+01	-4.13440314e+01	-7.85633687e+01	-7.82873459e+00	7.39037254e+01
1106447000	-2.22120521e-01	-4.04272772e+01	-4.15717952e+01	-7.64468715e+01	-4.13075647e+01	-7.94806031e+01	-7.83102243e+00	7.38874196e+01
1106732571.43	-2.25067589e-01	-4.04139383e+01	-4.15721751e+01	-7.71405969e+01	-4.12942488e+01	-8.00201328e+01	-7.83047315e+00	7.38256185e+01
1107018142.86	-2.27375962e-01	-4.04049834e+01	-4.15578199e+01	-7.77685295e+01	-4.13249643e+01	-8.05609069e+01	-7.83297907e+00	7.38071587e+01
1107303714.29	-2.27304143e-01	-4.04123905e+01	-4.15742556e+01	-7.84597943e+01	-4.13359614e+01	-8.12992335e+01	-7.82827029e+00	7.37234120e+01
1107589285.71	-2.24417082e-01	-4.04382103e+01	-4.15873229e+01	-7.91365095e+01	-4.13164377e+01	-8.18829879e+01	-7.84653050e+00	7.36094578e+01
1107874857.14	-2.27438576e-01	-4.04610003e+01	-4.16033185e+01	-7.99326339e+01	-4.13452549e+01	-8.26496713e+01	-7.84093613e+00	7.34809394e+01
1108160428.57	-2.26262698e-01	-4.04582907e+01	-4.16060847e+01	-8.07972007e+01	-4.13457379e+01	-8.33306493e+01	-7.85545245e+00	7.34461567e+01
1108446000	-2.29951000e-01	-4.04744518e+01	-4.15996486e+01	-8.15835941e+01	-4.13984028e+01	-8.40770015e+01	-7.87771590e+00	7.33445728e+01
1108731571.43	-2.29598224e-01	-4.04718160e+01	-4.16158117e+01	-8.23214680e+01	-4.13842925e+01	-8.50357605e+01	-7.86244208e+00	7.32304168e+01
1109017142.86	-2.36227366e-01	-4.04955030e+01	-4.16496912e+01	-8.30014385e+01	-4.13724527e+01	-8.59044277e+01	-7.87227048e+00	7.31841492e+01
1109302714.29	-2.34688662e-01	-4.05076150e+01	-4.16816671e+01	-8.38424265e+01	-4.14326628e+01	-8.68544375e+01	-7.88372136e+00	7.31581002e+01
1109588285.71	-2.32262282e-01	-4.05258882e+01	-4.16979174e+01	-8.47418324e+01	-4.14700554e+01	-8.75967658e+01	-7.88250772e+00	7.31689718e+01
1109873857.14	-2.33664210e-01	-4.05026664e+01	-4.17262375e+01	-8.53577336e+01	-4.14244563e+01	-8.80606511e+01	-7.89052772e+00	7.30792564e+01
1110159428.57	-2.35817937e-01	-4.05437230e+01	-4.17327043e+01	-8.59199865e+01	-4.15077030e+01	-8.86275968e+01	-7.90627482e+00	7.30756521e+01
1110445000	-2.34965205e-01	-4.05493214e+01	-4.17802287e+01	-8.68380136e+01	-4.16096686e+01	-8.95567514e+01	-7.90780407e+00	7.30135801e+01
1110730571.43	-2.36909841e-01	-4.05407384e+01	-4.18153004e+01	-8.75908531e+01	-4.16207926e+01	-9.05557643e+01	-7.91723681e+00	7.29887955e+01
1111016142.86	-2.34965017e-01	-4.05357183e+01	-4.18633222e+01	-8.84528545e+01	-4.15932623e+01	-9.09319556e+01	-7.90677168e+00	7.28476635e+01
1111301714.29	-2.30453186e-01	-4.05444266e+01	-4.18793387e+01	-8.90417204e+01	-4.16519563e+01	-9.16765470e+01	-7.93010748e+00	7.27703975e+01
1111587285.71	-2.30536961e-01	-4.05485157e+01	-4.19392750e+01	-8.97352652e+01	-4.17467304e+01	-9.17193002e+01	-7.93175939e+00	7.27221144e+01
1111872857.14	-2.36499382e-01	-4.05763823e+01	-4.20084290e+01	-9.03327741e+01	-4.17862778e+01	-9.29833489e+01	-7.95271310e+00	7.26907087e+01
1112158428.57	-2.36891677e-01	-4.05794033e+01	-4.20127479e+01	-9.10678842e+01	-4.18339210e+01	-9.32700334e+01	-7.93825545e+00	7.27078634e+01
1112444000	-2.39610187e-01	-4.05994260e+01	-4.20534931e+01	-9.14943509e+01	-4.18507513e+01	-9.40402198e+01	-7.94939419e+00	7.25922190e+01
1112729571.43	-2.38907087e-01	-4.06078305e+01	-4.20719713e+01	-9.22756599e+01	-4.19224304e+01	-9.45223182e+01	-7.95044259e+00	7.25044241e+01
1113015142.86	-2.38222261e-01	-4.06395695e+01	-4.21353994e+01	-9.28194924e+01	-4.19230736e+01	-9.53077819e+01	-7.94822838e+00	7.23932059e+01
1113300714.29	-2.40449149e-01	-4.06394712e+01	-4.21635578e+01	-9.32774130e+01	-4.19450424e+01	-9.55240839e+01	-7.94493552e+00	7.23841572e+01
1113586285.71	-2.40717963e-01	-4.06560595e+01	-4.21944303e+01	-9.36578348e+01	-4.20295103e+01	-9.60813218e+01	-7.95096079e+00	7.22899209e+01
1113871857.14	-2.38504878e-01	-4.06739336e+01	-4.22341612e+01	-9.44220031e+01	-4.19667031e+01	-9.67257440e+01	-7.95508817e+00	7.22493798e+01
1114157428.57	-2.36999591e-01	-4.06862684e+01	-4.22870395e+01	-9.48216136e+01	-4.20169563e+01	-9.74388146e+01	-7.95016114e+00	7.22747622e+01
1114443000	-2.39036498e-01	-4.06892185e+01	-4.23116645e+01	-9.53042008e+01	-4.20578315e+01	-9.79933857e+01	-7.94734104e+00	7.23734474e+01
1114728571.43	-2.42434952e-01	-4.07235438e+01	-4.23297728e+01	-9.57612350e+01	-4.20598434e+01	-9.83812761e+01	-7.95667401e+00	7.23239008e+01
1115014142.86	-2.41926930e-01	-4.07386402e+01	-4.23731433e+01	-9.64730281e+01	-4.21125747e+01	-9.87399434e+01	-7.95560649e+00	7.23032780e+01
1115299714.29	-2.41705649e-01	-4.07438550e+01	-4.23807196e+01	-9.68914654e+01	-4.21230055e+01	-9.92292617e+01	-7.93740386e+00	7.22516663e+01
1115585285.71	-2.44140495e-01	-4.07630829e+01	-4.24234205e+01	-9.73783738e+01	-4.21642524e+01	-1.00122292e+02	-7.94267834e+00	7.22083864e+01
1115870857.14	-2.42719265e-01	-4.07650073e+01	-4.24282014e+01	-9.78948683e+01	-4.21095095e+01	-1.00400115e+02	-7.94971099e+00	7.21896275e+01
1116156428.57	-2.42203433e-01	-4.07689804e+01	-4.24708539e+01	-9.85415147e+01	-4.21740119e+01	-1.00550500e+02	-7.94758948e+00	7.22056298e+01
1116442000	-2.43181222e-01	-4.07850515e+01	-4.24916263e+01	-9.88581108e+01	-4.22610295e+01	-1.01250932e+02	-7.95578210e+00	7.22016774e+01
1116727571.43	-2.42400671e-01	-4.08147237e+01	-4.25317573e+01	-9.93471268e+01	-4.22425817e+01	-1.02060526e+02	-7.94845009e+00	7.21879064e+01
1117013142.86	-2.40143161e-01	-4.08050333e+01	-4.25490792e+01	-9.99477688e+01	-4.22548613e+01	-1.02587217e+02	-7.93844741e+00	7.22272367e+01
1117298714.29	-2.37953428e-01	-4.08322610e+01	-4.25370140e+01	-1.00443320e+02	-4.22923128e+01	-1.02943084e+02	-7.94201002e+00	7.21468796e+01
1117584285.71	-2.39613428e-01	-4.08550950e+01	-4.25656052e+01	-1.00931891e+02	-4.22799100e+01	-1.03872680e+02	-7.94742931e+00	7.21337154e+01
1117869857.14	-2.41386159e-01	-4.08487779e+01	-4.25708214e+01	-1.01464281e+02	-4.22850118e+01	-1.04311014e+02	-7.96234275e+00	7.21168064e+01
1118155428.57	-2.36992729e-01	-4.08680249e+01	-4.25940794e+01	-1.02018829e+02	-4.22597826e+01	-1.04490094e+02	-7.95039086e+00	7.21660019e+01
1118441000	-2.40374991e-01	-4.08905710e+01	-4.26070488e+01	-1.02520374e+02	-4.22576381e+01	-1.05356663e+02	-7.94784898e+00	7.21119869e+01
1118726571.43	-2.41408400e-01	-4.09104720e+01	-4.26070259e+01	-1.03162996e+02	-4.23372674e+01	-1.05910492e+02	-7.96165908e+00	7.20376020e+01
1119012142.86	-2.41680900e-01	-4.09370631e+01	-4.26047935e+01	-1.03639412e+02	-4.23522335e+01	-1.06208172e+02	-7.96153230e+00	7.19909719e+01
1119297714.29	-2.42609777e-01	-4.09607855e+01	-4.26395271e+01	-1.04059950e+02	-4.23413798e+01	-1.07431086e+02	-7.96100580e+00	7.19645690e+01
1119583285.71	-2.45016951e-01	-4.09584664e+01	-4.26906953e+01	-1.04660641e+02	-4.23147656e+01	-1.07770403e+02	-7.96134619e+00	7.18604596e+01
1119868857.14	-2.49489823e-01	-4.09746006e+01	-4.27154938e+01	-1.05197049e+02	-4.23247715e+01	-1.08248832e+02	-7.95985410e+00	7.19152829e+01
1120154428.57	-2.46430738e-01	-4.09941211e+01	-4.27144004e+01	-1.05790900e+02	-4.23680673e+01	-1.08653156e+02	-7.96779431e+00	7.18699910e+01
1120440000	-2.44866146e-01	-4.10381710e+01	-4.27411003e+01	-1.06311946e+02	-4.23482944e+01	-1.09315564e+02	-7.95159294e+00	7.17564281e+01
1120725571.43	-2.45369682e-01	-4.10669014e+01	-4.27466259e+01	-1.06838715e+02	-4.24275309e+01	-1.10044909e+02	-7.93925347e+00	7.17071975e+01
1121011142.86	-2.43248676e-01	-4.10668553e+01	-4.27742178e+01	-1.07399360e+02	-4.24335471e+01	-1.10689282e+02	-7.94968505e+00	7.16972032e+01
1121296714.29	-2.45622668e-01	-4.10703828e+01	-4.27913508e+01	-1.07785937e+02	-4.24564705e+01	-1.11124907e+02	-7.95031733e+00	7.15698306e+01
1121582285.71	-2.45584765e-01	-4.11020469e+01	-4.27750570e+01	-1.08306675e+02	-4.24699111e+01	-1.11707026e+02	-7.94030498e+00	7.15110909e+01
1121867857.14	-2.44936179e-01	-4.11056702e+01	-4.27856612e+01	-1.08771070e+02	-4.25191944e+01	-1.12703272e+02	-7.93131714e+00	7.14480021e+01
1122153428.57	-2.47217530e-01	-4.11396622e+01	-4.28331948e+01	-1.09376491e+02	-4.25224134e+01	-1.12341771e+02	-7.92657395e+00	7.13642511e+01
1122439000	-2.46404102e-01	-4.12063645e+01	-4.28663905e+01	-1.09969093e+02	-4.25297316e+01	-1.12987242e+02	-7.93253912e+00	7.12927547e+01
1122724571.43	-2.45538056e-01	-4.12151189e+01	-4.28540729e+01	-1.10215932e+02	-4.25019604e+01	-1.13767780e+02	-7.91755654e+00	7.13006998e+01
1123010142.86	-2.49762656e-01	-4.12205995e+01	-4.28657365e+01	-1.10548257e+02	-4.25528089e+01	-1.14654911e+02	-7.91926689e+00	7.12015307e+01
1123295714.29	-2.50008167e-01	-4.12389077e+01	-4.28595214e+01	-1.11129470e+02	-4.25946638e+01	-1.15335571e+02	-7.91169051e+00	7.11139538e+01
1123581285.71	-2.50239387e-01	-4.12817969e+01	-4.28625067e+01	-1.11579956e+02	-4.25916951e+01	-1.15412315e+02	-7.90393299e+00	7.10506155e+01
1123866857.14	-2.50721965e-01	-4.13125715e+01	-4.28581273e+01	-1.11873996e+02	-4.25689442e+01	-1.15730025e+02	-7.88847124e+00	7.09922068e+01
1124152428.57	-2.57344399e-01	-4.13121875e+01	-4.28654428e+01	-1.12266647e+02	-4.25837172e+01	-1.16270055e+02	-7.87799251e+00	7.08243190e+01
1124438000	-2.59028279e-01	-4.13247551e+01	-4.28798108e+01	-1.12816440e+02	-4.26081609e+01	-1.16867976e+02	-7.86957225e+00	7.08284596e+01
1124723571.43	-2.52895555e-01	-4.13651155e+01	-4.28562382e+01	-1.13541568e+02	-4.26500973e+01	-1.17251214e+02	-7.85866778e+00	7.06528891e+01
1125009142.86	-2.51494660e-01	-4.14405261e+01	-4.28392564e+01	-1.13923630e+02	-4.26353578e+01	-1.18125806e+02	-7.85520248e+00	7.06006128e+01
1125294714.29	-2.49091851e-01	-4.14446681e+01	-4.28235828e+01	-1.14503260e+02	-4.26050495e+01	-1.18902838e+02	-7.84881882e+00	7.05565933e+01
1125580285.71	-2.49292227e-01	-4.14757781e+01	-4.27953501e+01	-1.15168037e+02	-4.25982979e+01	-1.19237066e+02	-7.84001984e+00	7.04282351e+01
1125865857.14	-2.48372213e-01	-4.15110526e+01	-4.28090666e+01	-1.15629929e+02	-4.26112451e+01	-1.19895851e+02	-7.83009036e+00	7.03944140e+01
1126151428.57	-2.48230141e-01	-4.15518186e+01	-4.27510929e+01	-1.16253397e+02	-4.26076780e+01	-1.20684734e+02	-7.82935265e+00	7.02722718e+01
1126437000	-2.51138932e-01	-4.15918606e+01	-4.27731640e+01	-1.16813227e+02	-4.26090438e+01	-1.21229483e+02	-7.82151130e+00	7.01699026e+01
1126722571.43	-2.51964081e-01	-4.15882928e+01	-4.27367371e+01	-1.17327459e+02	-4.25944897e+01	-1.21770273e+02	-7.80748638e+00	7.00394224e+01
1127008142.86	-2.52492502e-01	-4.16224341e+01	-4.27379041e+01	-1.18129057e+02	-4.25242021e+01	-1.22437378e+02	-7.79313824e+00	6.99408608e+01
1127293714.29	-2.51610218e-01	-4.16493256e+01	-4.26949872e+01	-1.18715528e+02	-4.25485384e+01	-1.22732090e+02	-7.79961333e+00	6.99006779e+01
1127579285.71	-2.51476649e-01	-4.16513024e+01	-4.26855326e+01	-1.19388841e+02	-4.25997502e+01	-1.23697455e+02	-7.79751338e+00	6.97773511e+01
1127864857.14	-2.52617012e-01	-4.16996411e+01	-4.26896802e+01	-1.20074925e+02	-4.25831291e+01	-1.24386507e+02	-7.78586959e+00	6.96434557e+01
1128150428.57	-2.53262724e-01	-4.16980130e+01	-4.26702607e+01	-1.20876364e+02	-4.25824696e+01	-1.24639599e+02	-7.77347086e+00	6.95240598e+01
1128436000	-2.51424101e-01	-4.17335723e+01	-4.26556644e+01	-1.21444241e+02	-4.25790037e+01	-1.25251992e+02	-7.77239960e+00	6.94136616e+01
1128721571.43	-2.53260059e-01	-4.17813201e+01	-4.26399447e+01	-1.22002605e+02	-4.25686738e+01	-1.26379827e+02	-7.76182208e+00	6.92862333e+01
1129007142.86	-2.53056580e-01	-4.18023048e+01	-4.26351939e+01	-1.22906360e+02	-4.25872705e+01	-1.27090015e+02	-7.75874567e+00	6.91730724e+01
1129292714.29	-2.55370677e-01	-4.18418856e+01	-4.26074822e+01	-1.23580179e+02	-4.25761128e+01	-1.27559751e+02	-7.75183666e+00	6.90790254e+01
1129578285.71	-2.58748958e-01	-4.18503543e+01	-4.26150718e+01	-1.24344154e+02	-4.26506005e+01	-1.28179399e+02	-7.74995411e+00	6.88912155e+01
1129863857.14	-2.51269702e-01	-4.18839954e+01	-4.26044139e+01	-1.25237860e+02	-4.26239607e+01	-1.29030394e+02	-7.73560346e+00	6.87319630e+01
1130149428.57	-2.46268850e-01	-4.18895528e+01	-4.26074762e+01	-1.25912706e+02	-4.26055031e+01	-1.30118530e+02	-7.73696780e+00	6.85480163e+01
1130435000	-2.46544881e-01	-4.18765723e+01	-4.25960619e+01	-1.26727796e+02	-4.25292450e+01	-1.30730959e+02	-7.71783755e+00	6.84389056e+01
1130720571.43	-2.50911913e-01	-4.19092260e+01	-4.25937454e+01	-1.27564508e+02	-4.26238519e+01	-1.31534245e+02	-7.72123223e+00	6.83638700e+01
1131006142.86	-2.53216918e-01	-4.19644367e+01	-4.25904469e+01	-1.28316692e+02	-4.26439958e+01	-1.32334267e+02	-7.71396916e+00	6.81683478e+01
1131291714.29	-2.49374827e-01	-4.19908808e+01	-4.25972994e+01	-1.29175644e+02	-4.26037390e+01	-1.33014548e+02	-7.71245436e+00	6.80130663e+01
1131577285.71	-2.47680134e-01	-4.20361258e+01	-4.25787361e+01	-1.30110055e+02	-4.26752936e+01	-1.33752978e+02	-7.71373801e+00	6.79238148e+01
1131862857.14	-2.48880627e-01	-4.20519161e+01	-4.25767548e+01	-1.30830394e+02	-4.26480063e+01	-1.34395215e+02	-7.69906391e+00	6.77120368e+01
1132148428.57	-2.49241800e-01	-4.20890850e+01	-4.26065422e+01	-1.31804889e+02	-4.26576661e+01	-1.35494434e+02	-7.68953998e+00	6.75456835e+01
1132434000	-2.52570623e-01	-4.21412277e+01	-4.26135996e+01	-1.32534767e+02	-4.26876805e+01	-1.36317080e+02	-7.69057468e+00	6.74708075e+01
1132719571.43	-2.51559626e-01	-4.21468292e+01	-4.26308950e+01	-1.33422151e+02	-4.26931855e+01	-1.36976931e+02	-7.67729322e+00	6.72885849e+01
1133005142.86	-2.47169559e-01	-4.21644209e+01	-4.26587657e+01	-1.34362304e+02	-4.27202846e+01	-1.37814601e+02	-7.67196576e+00	6.71156220e+01
1133290714.29	-2.47761886e-01	-4.21729268e+01	-4.26630378e+01	-1.35126947e+02	-4.27044150e+01	-1.38472958e+02	-7.66660955e+00	6.69451071e+01
1133576285.71	-2.48447394e-01	-4.21968935e+01	-4.27117572e+01	-1.35980049e+02	-4.26753491e+01	-1.39406627e+02	-7.66276802e+00	6.67495632e+01
1133861857.14	-2.48643481e-01	-4.22464928e+01	-4.27244921e+01	-1.36893921e+02	-4.27351154e+01	-1.40202105e+02	-7.65263212e+00	6.65103126e+01
1134147428.57	-2.45012879e-01	-4.22786341e+01	-4.27309338e+01	-1.37741082e+02	-4.27967299e+01	-1.40952182e+02	-7.65463655e+00	6.63657233e+01
1134433000	-2.45002036e-01	-4.23049631e+01	-4.27533995e+01	-1.38538494e+02	-4.28607774e+01	-1.41758977e+02	-7.65871885e+00	6.62483793e+01
1134718571.43	-2.42455671e-01	-4.23299141e+01	-4.27756629e+01	-1.39118482e+02	-4.27956908e+01	-1.42421148e+02	-7.66143049e+00	6.61082047e+01
1135004142.86	-2.42279055e-01	-4.23483562e+01	-4.28120338e+01	-1.40002517e+02	-4.28784447e+01	-1.42880274e+02	-7.65700573e+00	6.59479390e+01
1135289714.29	-2.43490197e-01	-4.23904271e+01	-4.28191825e+01	-1.40698007e+02	-4.28877404e+01	-1.43642543e+02	-7.65476357e+00	6.57589765e+01
1135575285.71	-2.41604863e-01	-4.24181564e+01	-4.28730255e+01	-1.41480172e+02	-4.28596683e+01	-1.44224678e+02	-7.65874410e+00	6.56251729e+01
1135860857.14	-2.41772820e-01	-4.24720349e+01	-4.28762221e+01	-1.42396892e+02	-4.29670734e+01	-1.45161699e+02	-7.65388896e+00	6.54719332e+01
1136146428.57	-2.42243868e-01	-4.24526815e+01	-4.29150815e+01	-1.42935718e+02	-4.30319431e+01	-1.46229408e+02	-7.65997574e+00	6.53865044e+01
1136432000	-2.39122402e-01	-4.24725977e+01	-4.29572061e+01	-1.43682338e+02	-4.29659604e+01	-1.46920210e+02	-7.66764186e+00	6.52176529e+01
1136717571.43	-2.40216389e-01	-4.25031069e+01	-4.29450799e+01	-1.44584486e+02	-4.29946203e+01	-1.47632039e+02	-7.67222136e+00	6.50479452e+01
1137003142.86	-2.41124706e-01	-4.25281857e+01	-4.29876292e+01	-1.45214791e+02	-4.30297831e+01	-1.48418113e+02	-7.66573137e+00	6.49091916e+01
1137288714.29	-2.39311944e-01	-4.25536015e+01	-4.30023811e+01	-1.45991850e+02	-4.30846371e+01	-1.49342488e+02	-7.66999210e+00	6.48007333e+01
1137574285.71	-2.43208406e-01	-4.25787209e+01	-4.30156120e+01	-1.46906685e+02	-4.30981953e+01	-1.49832901e+02	-7.66411817e+00	6.46116175e+01
1137859857.14	-2.44108435e-01	-4.26022975e+01	-4.30450374e+01	-1.47702562e+02	-4.30660839e+01	-1.50503514e+02	-7.67452672e+00	6.44522046e+01
1138145428.57	-2.41430166e-01	-4.26463654e+01	-4.30668969e+01	-1.48455942e+02	-4.31052798e+01	-1.50776856e+02	-7.67546473e+00	6.43624452e+01
1138431000	-2.40591820e-01	-4.26441596e+01	-4.30592830e+01	-1.49487946e+02	-4.31071294e+01	-1.52566786e+02	-7.67902310e+00	6.43041300e+01
1138716571.43	-2.37344262e-01	-4.26827557e+01	-4.31165693e+01	-1.50140856e+02	-4.31857179e+01	-1.52543772e+02	-7.68423883e+00	6.41783647e+01
1139002142.86	-2.32205386e-01	-4.27280993e+01	-4.31209673e+01	-1.50879133e+02	-4.31668096e+01	-1.53820228e+02	-7.69914085e+00	6.40459856e+01
1139287714.29	-2.37525602e-01	-4.27285573e+01	-4.31445943e+01	-1.51776007e+02	-4.32159960e+01	-1.54282095e+02	-7.69153665e+00	6.39488524e+01
1139573285.71	-2.35300105e-01	-4.27524722e+01	-4.32120539e+01	-1.52644458e+02	-4.32898997e+01	-1.55518883e+02	-7.69088078e+00	6.37944309e+01
1139858857.14	-2.35747630e-01	-4.27904530e+01	-4.32134628e+01	-1.53515781e+02	-4.32568777e+01	-1.55832608e+02	-7.69825274e+00	6.36817372e+01
1140144428.57	-2.36521665e-01	-4.27914948e+01	-4.32461853e+01	-1.54529122e+02	-4.33186163e+01	-1.56892871e+02	-7.70640543e+00	6.35858609e+01
1140430000	-2.35715925e-01	-4.27985907e+01	-4.32873359e+01	-1.55159509e+02	-4.32841815e+01	-1.57634540e+02	-7.70372733e+00	6.34889888e+01
1140715571.43	-2.35407675e-01	-4.28388770e+01	-4.33012059e+01	-1.56018905e+02	-4.34102915e+01	-1.58317444e+02	-7.70016565e+00	6.34084601e+01
1141001142.86	-2.35221082e-01	-4.28356172e+01	-4.33571841e+01	-1.56678080e+02	-4.34900434e+01	-1.59243965e+02	-7.71522925e+00	6.33252727e+01
1141286714.29	-2.37710428e-01	-4.28634843e+01	-4.33903960e+01	-1.57454706e+02	-4.35023017e+01	-1.59799842e+02	-7.71701842e+00	6.31320035e+01
1141572285.71	-2.33821075e-01	-4.28802271e+01	-4.34432348e+01	-1.58262113e+02	-4.35753867e+01	-1.60698646e+02	-7.71212424e+00	6.31315600e+01
1141857857.14	-2.35452413e-01	-4.28867999e+01	-4.34708676e+01	-1.59193872e+02	-4.35669763e+01	-1.61608176e+02	-7.71173502e+00	6.29971243e+01
1142143428.57	-2.35922253e-01	-4.29081909e+01	-4.35304157e+01	-1.59914686e+02	-4.35992219e+01	-1.62297850e+02	-7.72404885e+00	6.28821662e+01
1142429000	-2.36346426e-01	-4.29343894e+01	-4.35859677e+01	-1.60736446e+02	-4.36442036e+01	-1.63212818e+02	-7.71692078e+00	6.28230855e+01
1142714571.43	-2.37726159e-01	-4.29510927e+01	-4.36304164e+01	-1.61564726e+02	-4.37410131e+01	-1.63710627e+02	-7.72180646e+00	6.27186857e+01
1143000142.86	-2.33042798e-01	-4.29572896e+01	-4.36800711e+01	-1.62253479e+02	-4.37015128e+01	-1.64480668e+02	-7.72668919e+00	6.27027664e+01
1143285714.29	-2.34777078e-01	-4.29510979e+01	-4.37190034e+01	-1.62964254e+02	-4.38739817e+01	-1.65718716e+02	-7.73810753e+00	6.26024747e+01
1143571285.71	-2.28869238e-01	-4.29727407e+01	-4.37877134e+01	-1.63542875e+02	-4.39246787e+01	-1.65831885e+02	-7.74105986e+00	6.25255898e+01
1143856857.14	-2.29935831e-01	-4.29988643e+01	-4.38207462e+01	-1.64331361e+02	-4.38588106e+01	-1.66508871e+02	-7.74068072e+00	6.24544592e+01
1144142428.57	-2.26286625e-01	-4.30110656e+01	-4.38813065e+01	-1.65135262e+02	-4.38984609e+01	-1.66970065e+02	-7.75153962e+00	6.23616148e+01
1144428000	-2.23785354e-01	-4.30248061e+01	-4.39215315e+01	-1.65699232e+02	-4.40129330e+01	-1.68425866e+02	-7.74936488e+00	6.22640615e+01
1144713571.43	-2.24822227e-01	-4.30258341e+01	-4.39218076e+01	-1.66350531e+02	-4.39741752e+01	-1.69180118e+02	-7.75647028e+00	6.21314835e+01
1144999142.86	-2.23755368e-01	-4.30397349e+01	-4.39914784e+01	-1.67034684e+02	-4.41382033e+01	-1.69254722e+02	-7.77811207e+00	6.20976959e+01
1145284714.29	-2.25913456e-01	-4.30746867e+01	-4.40183948e+01	-1.67652306e+02	-4.41372023e+01	-1.69884811e+02	-7.77355461e+00	6.20314014e+01
1145570285.71	-2.26169585e-01	-4.30785473e+01	-4.40934934e+01	-1.68311938e+02	-4.41842792e+01	-1.70290071e+02	-7.79537691e+00	6.20340606e+01
1145855857.14	-2.29121509e-01	-4.30878423e+01	-4.41285577e+01	-1.68996108e+02	-4.41636332e+01	-1.71033815e+02	-7.79140399e+00	6.19384322e+01
1146141428.57	-2.28417442e-01	-4.31146344e+01	-4.41510488e+01	-1.69592875e+02	-4.43030397e+01	-1.72190927e+02	-7.79558246e+00	6.18134393e+01
1146427000	-2.26037249e-01	-4.31428587e+01	-4.41883113e+01	-1.70212443e+02	-4.42753906e+01	-1.73414814e+02	-7.79578332e+00	6.16987916e+01
1146712571.43	-2.26727856e-01	-4.31702582e+01	-4.42233196e+01	-1.71040323e+02	-4.43206667e+01	-1.73356858e+02	-7.79757976e+00	6.16529703e+01
1146998142.86	-2.27684178e-01	-4.31832856e+01	-4.42223927e+01	-1.71731052e+02	-4.43286053e+01	-1.74165016e+02	-7.80693906e+00	6.16093319e+01
1147283714.29	-2.26525368e-01	-4.31704679e+01	-4.42825985e+01	-1.72373466e+02	-4.43521782e+01	-1.75005923e+02	-7.81361307e+00	6.15167864e+01
1147569285.71	-2.25938748e-01	-4.31626147e+01	-4.42784102e+01	-1.73010910e+02	-4.43942160e+01	-1.75471913e+02	-7.82112178e+00	6.14818493e+01
1147854857.14	-2.31587686e-01	-4.31872550e+01	-4.43379154e+01	-1.73760594e+02	-4.43519415e+01	-1.76255633e+02	-7.82536631e+00	6.14012213e+01
1148140428.57	-2.29867684e-01	-4.32013244e+01	-4.43648112e+01	-1.74626928e+02	-4.45167122e+01	-1.77281331e+02	-7.82713910e+00	6.14006425e+01
1148426000	-2.34061434e-01	-4.31926794e+01	-4.44277293e+01	-1.75360428e+02	-4.45180038e+01	-1.78323622e+02	-7.83493551e+00	6.14143168e+01
1148711571.43	-2.31327778e-01	-4.31934696e+01	-4.44475933e+01	-1.76143520e+02	-4.45500221e+01	-1.78970286e+02	-7.84165413e+00	6.13264086e+01
1148997142.86	-2.31628832e-01	-4.32102653e+01	-4.44563586e+01	-1.76871709e+02	-4.45854906e+01	-1.79782259e+02	-7.85056785e+00	6.13268641e+01
1149282714.29	-2.31194277e-01	-4.32365932e+01	-4.44974389e+01	-1.77855631e+02	-4.45912027e+01	1.79602905e+02	-7.84948355e+00	6.13047217e+01
1149568285.71	-2.30449457e-01	-4.32461785e+01	-4.45273031e+01	-1.78395097e+02	-4.45942543e+01	1.78779008e+02	-7.84728525e+00	6.12780119e+01
1149853857.14	-2.29626530e-01	-4.32454802e+01	-4.45834481e+01	-1.79079522e+02	-4.46428690e+01	1.78352490e+02	-7.85769872e+00	6.12642804e+01
1150139428.57	-2.32109322e-01	-4.32482667e+01	-4.45921937e+01	-1.79917440e+02	-4.47568931e+01	1.76995738e+02	-7.87053173e+00	6.12959334e+01
1150425000	-2.30888107e-01	-4.32698115e+01	-4.46098207e+01	1.79415999e+02	-4.47493703e+01	1.76348797e+02	-7.87264375e+00	6.12267900e+01
1150710571.43	-2.33058863e-01	-4.32565377e+01	-4.46781687e+01	1.78721093e+02	-4.48189625e+01	1.75130203e+02	-7.87198799e+00	6.12391010e+01
1150996142.86	-2.30397087e-01	-4.32740776e+01	-4.47176622e+01	1.77696753e+02	-4.47987092e+01	1.74482671e+02	-7.87709309e+00	6.12204910e+01
1151281714.29	-2.28503969e-01	-4.32801816e+01	-4.47541485e+01	1.77208418e+02	-4.48006368e+01	1.73527795e+02	-7.87513412e+00	6.13474733e+01
1151567285.71	-2.29278405e-01	-4.33129999e+01	-4.48041103e+01	1.76369860e+02	-4.48867061e+01	1.72720546e+02	-7.86639209e+00	6.13678751e+01
1151852857.14	-2.24621879e-01	-4.33231231e+01	-4.48120717e+01	1.75447393e+02	-4.49933066e+01	1.72155980e+02	-7.88782480e+00	6.13791263e+01
1152138428.57	-2.28532681e-01	-4.33418085e+01	-4.48882799e+01	1.74679365e+02	-4.50275152e+01	1.71978320e+02	-7.88486860e+00	6.14248253e+01
1152424000	-2.33035077e-01	-4.33650429e+01	-4.49180599e+01	1.74024538e+02	-4.50674560e+01	1.70769203e+02	-7.88383471e+00	6.14777967e+01
1152709571.43	-2.34005365e-01	-4.33715664e+01	-4.49690790e+01	1.73064663e+02	-4.51128800e+01	1.70311068e+02	-7.89074183e+00	6.15071308e+01
1152995142.86	-2.30461097e-01	-4.33806242e+01	-4.50125707e+01	1.72215163e+02	-4.50922440e+01	1.68944251e+02	-7.88028844e+00	6.15908249e+01
1153280714.29	-2.29505921e-01	-4.33808845e+01	-4.50683363e+01	1.71327459e+02	-4.50695671e+01	1.67831542e+02	-7.89178122e+00	6.16084178e+01
1153566285.71	-2.25509310e-01	-4.33917879e+01	-4.51270017e+01	1.70722745e+02	-4.52588126e+01	1.67217181e+02	-7.89564272e+00	6.16390070e+01
1153851857.14	-2.30522214e-01	-4.33893830e+01	-4.52010638e+01	1.70048249e+02	-4.52768503e+01	1.66548467e+02	-7.89626883e+00	6.16856293e+01
1154137428.57	-2.31215250e-01	-4.34192115e+01	-4.52475177e+01	1.69187795e+02	-4.53357675e+01	1.65166208e+02	-7.88997444e+00	6.16965509e+01
1154423000	-2.30449991e-01	-4.34143561e+01	-4.52892481e+01	1.68330425e+02	-4.53988623e+01	1.64118372e+02	-7.88793273e+00	6.17579227e+01
1154708571.43	-2.31450298e-01	-4.34087817e+01	-4.53619630e+01	1.67635403e+02	-4.54822789e+01	1.63473137e+02	-7.88846313e+00	6.17510113e+01
1154994142.86	-2.31750743e-01	-4.34212873e+01	-4.53993527e+01	1.66950195e+02	-4.54651334e+01	1.63210894e+02	-7.89088033e+00	6.18209142e+01
1155279714.29	-2.29852786e-01	-4.34068310e+01	-4.54935062e+01	1.66266497e+02	-4.55667475e+01	1.61663803e+02	-7.88151430e+00	6.17898478e+01
1155565285.71	-2.29356804e-01	-4.34341550e+01	-4.55671218e+01	1.65610894e+02	-4.56335962e+01	1.61364719e+02	-7.88107561e+00	6.18007929e+01
1155850857.14	-2.30434964e-01	-4.34501371e+01	-4.56342914e+01	1.64640987e+02	-4.57766965e+01	1.60616830e+02	-7.88321393e+00	6.17428886e+01
1156136428.57	-2.27098956e-01	-4.34228470e+01	-4.56884494e+01	1.64086450e+02	-4.56828281e+01	1.60450018e+02	-7.86802812e+00	6.16973354e+01
1156422000	-2.26126873e-01	-4.34282913e+01	-4.57512282e+01	1.63541054e+02	-4.58520464e+01	1.59440891e+02	-7.87116668e+00	6.17435776e+01
1156707571.43	-2.22170971e-01	-4.34395716e+01	-4.57752614e+01	1.62709410e+02	-4.58992032e+01	1.58212179e+02	-7.86469531e+00	6.17900787e+01
1156993142.86	-2.26807282e-01	-4.34718061e+01	-4.58857260e+01	1.62203614e+02	-4.59884531e+01	1.57995054e+02	-7.87117522e+00	6.17337325e+01
1157278714.29	-2.25148937e-01	-4.34587290e+01	-4.59242999e+01	1.61535031e+02	-4.59322188e+01	1.57350791e+02	-7.86153291e+00	6.17122244e+01
1157564285.71	-2.27838945e-01	-4.34747050e+01	-4.60000515e+01	1.61207850e+02	-4.60627914e+01	1.56156981e+02	-7.84994954e+00	6.16870678e+01
1157849857.14	-2.26998588e-01	-4.34573993e+01	-4.60771561e+01	1.60500090e+02	-4.61164472e+01	1.55165767e+02	-7.82368112e+00	6.16731118e+01
1158135428.57	-2.25911328e-01	-4.34719009e+01	-4.61272207e+01	1.59881404e+02	-4.62470677e+01	1.55156445e+02	-7.84006603e+00	6.16258373e+01
1158421000	-2.29706414e-01	-4.34710127e+01	-4.61705571e+01	1.59430782e+02	-4.62254695e+01	1.54953345e+02	-7.83313403e+00	6.16126802e+01
1158706571.43	-2.27066148e-01	-4.34814953e+01	-4.62487494e+01	1.58619724e+02	-4.63250703e+01	1.53483399e+02	-7.82907375e+00	6.15427357e+01
1158992142.86	-2.28421290e-01	-4.34917543e+01	-4.63262272e+01	1.58241648e+02	-4.63476410e+01	1.53186199e+02	-7.81496836e+00	6.14891032e+01
1159277714.29	-2.26807998e-01	-4.35041435e+01	-4.63455290e+01	1.57827608e+02	-4.64430778e+01	1.52468301e+02	-7.81457927e+00	6.15725474e+01
1159563285.71	-2.30229338e-01	-4.35069752e+01	-4.63686941e+01	1.57246736e+02	-4.64944044e+01	1.51898489e+02	-7.79811210e+00	6.15585887e+01
1159848857.14	-2.28049142e-01	-4.35224474e+01	-4.64526815e+01	1.56684185e+02	-4.65181258e+01	1.51018842e+02	-7.79494600e+00	6.15853243e+01
1160134428.57	-2.29131944e-01	-4.34972668e+01	-4.64971620e+01	1.56169324e+02	-4.66320031e+01	1.50956027e+02	-7.79125620e+00	6.14971067e+01
1160420000	-2.32334781e-01	-4.35062173e+01	-4.65200432e+01	1.55638314e+02	-4.66416301e+01	1.50004065e+02	-7.79478926e+00	6.14662019e+01
1160705571.43	-2.30303674e-01	-4.34918748e+01	-4.65721033e+01	1.55105915e+02	-4.66552153e+01	1.49064764e+02	-7.77396794e+00	6.14558030e+01
1160991142.86	-2.30606296e-01	-4.35122549e+01	-4.66080827e+01	1.54804835e+02	-4.67235695e+01	1.49064306e+02	-7.77077986e+00	6.14136332e+01
1161276714.29	-2.29927044e-01	-4.35077465e+01	-4.66691125e+01	1.54120755e+02	-4.68009547e+01	1.48134090e+02	-7.75721307e+00	6.13862957e+01
1161562285.71	-2.33292615e-01	-4.35260421e+01	-4.66726533e+01	1.53794775e+02	-4.68448005e+01	1.47566404e+02	-7.76240269e+00	6.14566684e+01
1161847857.14	-2.31542994e-01	-4.35126339e+01	-4.67391349e+01	1.53116186e+02	-4.68625994e+01	1.46554755e+02	-7.75662088e+00	6.13966837e+01
1162133428.57	-2.34435711e-01	-4.35213418e+01	-4.67608751e+01	1.52404357e+02	-4.69333876e+01	1.46613424e+02	-7.75038503e+00	6.13244226e+01
1162419000	-2.31453480e-01	-4.35198603e+01	-4.67733873e+01	1.51794714e+02	-4.70018406e+01	1.46070025e+02	-7.74749279e+00	6.13205094e+01
1162704571.43	-2.34491451e-01	-4.35276824e+01	-4.68112203e+01	1.51355576e+02	-4.70555158e+01	1.45470313e+02	-7.73269137e+00	6.13042951e+01
1162990142.86	-2.30992905e-01	-4.35259976e+01	-4.68460206e+01	1.50741323e+02	-4.70751321e+01	1.45299188e+02	-7.72214013e+00	6.12723382e+01
1163275714.29	-2.31259462e-01	-4.35195443e+01	-4.68666905e+01	1.50207437e+02	-4.70152147e+01	1.44329635e+02	-7.71820778e+00	6.12257950e+01
1163561285.71	-2.28769873e-01	-4.35217699e+01	-4.69092902e+01	1.49691818e+02	-4.71102313e+01	1.44046895e+02	-7.71553650e+00	6.12960132e+01
1163846857.14	-2.30320744e-01	-4.35084194e+01	-4.69519745e+01	1.49058544e+02	-4.72034940e+01	1.43019172e+02	-7.70003989e+00	6.12727949e+01
1164132428.57	-2.33725451e-01	-4.35201920e+01	-4.69741632e+01	1.48642413e+02	-4.71686488e+01	1.42311053e+02	-7.68993439e+00	6.12872425e+01
1164418000	-2.32326334e-01	-4.35224496e+01	-4.69744713e+01	1.47829414e+02	-4.72415489e+01	1.40801927e+02	-7.68112352e+00	6.11870627e+01
1164703571.43	-2.28996919e-01	-4.35375894e+01	-4.70234234e+01	1.47482541e+02	-4.73400256e+01	1.41957212e+02	-7.67899904e+00	6.11869384e+01
1164989142.86	-2.28862271e-01	-4.35304013e+01	-4.70852892e+01	1.46984309e+02	-4.73999367e+01	1.40566127e+02	-7.66794402e+00	6.11999208e+01
1165274714.29	-2.35117771e-01	-4.35546953e+01	-4.71028262e+01	1.46350095e+02	-4.73233517e+01	1.39466730e+02	-7.66734390e+00	6.11244437e+01
1165560285.71	-2.35578672e-01	-4.35382601e+01	-4.71521636e+01	1.45660194e+02	-4.75802579e+01	1.39925513e+02	-7.65862903e+00	6.10383206e+01
1165845857.14	-2.38707134e-01	-4.35419480e+01	-4.71522260e+01	1.45102090e+02	-4.75671957e+01	1.39741857e+02	-7.65330205e+00	6.10589214e+01
1166131428.57	-2.38894769e-01	-4.35355240e+01	-4.71548451e+01	1.44639176e+02	-4.76229461e+01	1.38295478e+02	-7.65735772e+00	6.11007500e+01
1166417000	-2.37459027e-01	-4.35551731e+01	-4.71864192e+01	1.43932729e+02	-4.77542535e+01	1.38154275e+02	-7.63701123e+00	6.10608775e+01
1166702571.43	-2.42498578e-01	-4.35459371e+01	-4.71692679e+01	1.43715900e+02	-4.75606340e+01	1.37508920e+02	-7.62816676e+00	6.09621444e+01
1166988142.86	-2.40407305e-01	-4.35547409e+01	-4.72142617e+01	1.43173982e+02	-4.77496349e+01	1.36972077e+02	-7.62088076e+00	6.09535858e+01
1167273714.29	-2.38809973e-01	-4.35409680e+01	-4.72182976e+01	1.42751565e+02	-4.77884011e+01	1.36132205e+02	-7.62003670e+00	6.08920867e+01
1167559285.71	-2.37264575e-01	-4.35353941e+01	-4.72256395e+01	1.42341110e+02	-4.77553187e+01	1.35210028e+02	-7.61850318e+00	6.08241490e+01
1167844857.14	-2.38313748e-01	-4.35436216e+01	-4.72122601e+01	1.41576768e+02	-4.76890035e+01	1.36068943e+02	-7.60072276e+00	6.08426256e+01
1168130428.57	-2.38706866e-01	-4.35589909e+01	-4.72257938e+01	1.40905297e+02	-4.79671113e+01	1.34504495e+02	-7.59173697e+00	6.08085394e+01
1168416000	-2.39153378e-01	-4.35429680e+01	-4.72642323e+01	1.40277878e+02	-4.77267729e+01	1.34075175e+02	-7.58862516e+00	6.07550400e+01
1168701571.43	-2.41752291e-01	-4.35401172e+01	-4.72189055e+01	1.39546422e+02	-4.78943236e+01	1.33683271e+02	-7.57895517e+00	6.07403343e+01
1168987142.86	-2.38334445e-01	-4.35414019e+01	-4.71885870e+01	1.38829594e+02	-4.78693730e+01	1.33102697e+02	-7.57667731e+00	6.06855168e+01
1169272714.29	-2.42864469e-01	-4.35414031e+01	-4.72124467e+01	1.37960835e+02	-4.78243328e+01	1.31881455e+02	-7.56773110e+00	6.06086238e+01
1169558285.71	-2.41992217e-01	-4.35337901e+01	-4.72184235e+01	1.37581127e+02	-4.78505329e+01	1.32170447e+02	-7.55197003e+00	6.04946095e+01
1169843857.14	-2.43465172e-01	-4.35271440e+01	-4.72027801e+01	1.36727352e+02	-4.79843224e+01	1.31955790e+02	-7.54845303e+00	6.04609745e+01
1170129428.57	-2.45047342e-01	-4.35232483e+01	-4.72314465e+01	1.35957486e+02	-4.78761104e+01	1.30580362e+02	-7.53892118e+00	6.04397171e+01
1170415000	-2.49001099e-01	-4.35602657e+01	-4.72528537e+01	1.35067942e+02	-4.79140872e+01	1.30242279e+02	-7.52709264e+00	6.03055489e+01
1170700571.43	-2.53772055e-01	-4.35840820e+01	-4.72506718e+01	1.34473394e+02	-4.80024008e+01	1.28595076e+02	-7.51872071e+00	6.03430607e+01
1170986142.86	-2.51909272e-01	-4.35785300e+01	-4.72355963e+01	1.33459482e+02	-4.78857745e+01	1.28359751e+02	-7.50839890e+00	6.02423361e+01
1171271714.29	-2.50013062e-01	-4.35670979e+01	-4.72413388e+01	1.32956928e+02	-4.81763147e+01	1.27949220e+02	-7.50218542e+00	6.01508972e+01
1171557285.71	-2.53284814e-01	-4.35872212e+01	-4.71937907e+01	1.31897355e+02	-4.79300501e+01	1.26751539e+02	-7.49918571e+00	6.00983496e+01
1171842857.14	-2.52053786e-01	-4.35866624e+01	-4.72811369e+01	1.31185639e+02	-4.79151641e+01	1.26282359e+02	-7.47883031e+00	6.00972279e+01
1172128428.57	-2.51333127e-01	-4.35989413e+01	-4.72633800e+01	1.30298510e+02	-4.79987333e+01	1.25183254e+02	-7.48003405e+00	6.00456808e+01
1172414000	-2.53181409e-01	-4.36130498e+01	-4.72767074e+01	1.29532516e+02	-4.80670745e+01	1.25066996e+02	-7.46066263e+00	6.00905474e+01
1172699571.43	-2.53978691e-01	-4.36024407e+01	-4.72440081e+01	1.28907960e+02	-4.80265388e+01	1.24026153e+02	-7.45620839e+00	5.99789886e+01
1172985142.86	-2.60152420e-01	-4.36255758e+01	-4.72805690e+01	1.27768137e+02	-4.81729503e+01	1.23636318e+02	-7.43724917e+00	6.00478658e+01
1173270714.29	-2.62035600e-01	-4.36297082e+01	-4.72765307e+01	1.27073004e+02	-4.81077827e+01	1.22362440e+02	-7.42538099e+00	5.99639979e+01
1173556285.71	-2.59956023e-01	-4.36335836e+01	-4.73046069e+01	1.26264385e+02	-4.80448269e+01	1.22175596e+02	-7.41963970e+00	5.99966646e+01
1173841857.14	-2.61432974e-01	-4.36543351e+01	-4.73359103e+01	1.25245290e+02	-4.80811264e+01	1.20683659e+02	-7.42089112e+00	5.99639177e+01
1174127428.57	-2.57967698e-01	-4.36300918e+01	-4.73614904e+01	1.24465096e+02	-4.82040688e+01	1.20738199e+02	-7.40987963e+00	5.99365918e+01
1174413000	-2.60646773e-01	-4.36150497e+01	-4.73440382e+01	1.23543549e+02	-4.80832826e+01	1.20020431e+02	-7.39817220e+00	5.97798733e+01
1174698571.43	-2.57560368e-01	-4.36355928e+01	-4.73422900e+01	1.22583517e+02	-4.81169858e+01	1.19118107e+02	-7.38126156e+00	5.97609429e+01
1174984142.86	-2.59978750e-01	-4.36463750e+01	-4.73701438e+01	1.21885405e+02	-4.82831862e+01	1.17790514e+02	-7.38624913e+00	5.97632644e+01
1175269714.29	-2.62477664e-01	-4.36578418e+01	-4.73851956e+01	1.20940855e+02	-4.81554267e+01	1.16568671e+02	-7.38128938e+00	5.96531316e+01
1175555285.71	-2.61441440e-01	-4.36594347e+01	-4.73909401e+01	1.19822708e+02	-4.82806301e+01	1.17062254e+02	-7.36522246e+00	5.95494695e+01
1175840857.14	-2.56796122e-01	-4.36599048e+01	-4.74110173e+01	1.19108368e+02	-4.82121515e+01	1.15575721e+02	-7.36227357e+00	5.94478486e+01
1176126428.57	-2.62068287e-01	-4.36611908e+01	-4.73737282e+01	1.18056469e+02	-4.81539344e+01	1.14877051e+02	-7.36810411e+00	5.94016802e+01
1176412000	-2.62720194e-01	-4.36751123e+01	-4.74148342e+01	1.17235499e+02	-4.83248514e+01	1.13573754e+02	-7.36014650e+00	5.93688816e+01
1176697571.43	-2.64417928e-01	-4.36694874e+01	-4.74516808e+01	1.16121795e+02	-4.82900938e+01	1.12484211e+02	-7.35422153e+00	5.92907074e+01
1176983142.86	-2.66707614e-01	-4.36827926e+01	-4.74711709e+01	1.15036808e+02	-4.82658880e+01	1.12148308e+02	-7.35119752e+00	5.92704906e+01
1177268714.29	-2.61338739e-01	-4.36847096e+01	-4.74750433e+01	1.13943057e+02	-4.83113362e+01	1.11734510e+02	-7.34500449e+00	5.91365719e+01
1177554285.71	-2.64990559e-01	-4.36724150e+01	-4.74765286e+01	1.12931994e+02	-4.83729735e+01	1.10649217e+02	-7.34465297e+00	5.91356836e+01
1177839857.14	-2.66383259e-01	-4.36596892e+01	-4.75142604e+01	1.12261707e+02	-4.82753955e+01	1.09677497e+02	-7.33924891e+00	5.89927657e+01
1178125428.57	-2.66751429e-01	-4.36828496e+01	-4.75174960e+01	1.10919687e+02	-4.82548932e+01	1.08561715e+02	-7.33997938e+00	5.89194572e+01
1178411000	-2.68142017e-01	-4.36732856e+01	-4.76155217e+01	1.09561116e+02	-4.84541895e+01	1.07902276e+02	-7.32652883e+00	5.87465931e+01
1178696571.43	-2.68554949e-01	-4.36666589e+01	-4.75984624e+01	1.08822600e+02	-4.84949423e+01	1.06405197e+02	-7.31150936e+00	5.86935552e+01
1178982142.86	-2.68492789e-01	-4.36642766e+01	-4.76071275e+01	1.07925420e+02	-4.84264604e+01	1.04709401e+02	-7.31092771e+00	5.85652461e+01
1179267714.29	-2.71147045e-01	-4.36845736e+01	-4.76400263e+01	1.06691390e+02	-4.83697513e+01	1.04408323e+02	-7.29774848e+00	5.83512444e+01
1179553285.71	-2.70384715e-01	-4.37205922e+01	-4.76926317e+01	1.05599933e+02	-4.85294204e+01	1.03324196e+02	-7.29412855e+00	5.84577355e+01
1179838857.14	-2.71346862e-01	-4.37312138e+01	-4.77034004e+01	1.04446038e+02	-4.85758424e+01	1.03199336e+02	-7.28580044e+00	5.82343542e+01
1180124428.57	-2.73442113e-01	-4.37320293e+01	-4.77748490e+01	1.03058825e+02	-4.85367454e+01	1.01802484e+02	-7.28292121e+00	5.81546513e+01
1180410000	-2.72316458e-01	-4.37310545e+01	-4.78289156e+01	1.01969384e+02	-4.87236984e+01	9.95681449e+01	-7.27304470e+00	5.80577730e+01
1180695571.43	-2.74325122e-01	-4.37544846e+01	-4.78645429e+01	1.00837749e+02	-4.87586665e+01	9.97968169e+01	-7.27169102e+00	5.80136505e+01
1180981142.86	-2.73159629e-01	-4.37654831e+01	-4.79727831e+01	9.97671679e+01	-4.86641650e+01	9.79517871e+01	-7.25920185e+00	5.78929426e+01
1181266714.29	-2.72874086e-01	-4.37769600e+01	-4.80435472e+01	9.87082692e+01	-4.87111040e+01	9.74206404e+01	-7.25481767e+00	5.77785935e+01
1181552285.71	-2.71967791e-01	-4.37596461e+01	-4.80654794e+01	9.76877775e+01	-4.89201696e+01	9.63530719e+01	-7.24851669e+00	5.76827772e+01
1181837857.14	-2.74686337e-01	-4.37760630e+01	-4.81334044e+01	9.62512151e+01	-4.87228948e+01	9.43441019e+01	-7.24362660e+00	5.76741561e+01
1182123428.57	-2.76795427e-01	-4.38019051e+01	-4.82099318e+01	9.53381075e+01	-4.87697962e+01	9.34893071e+01	-7.23527809e+00	5.75082322e+01
1182409000	-2.77926019e-01	-4.38087313e+01	-4.83081247e+01	9.45949977e+01	-4.90535184e+01	9.27408020e+01	-7.22153201e+00	5.73818023e+01
1182694571.43	-2.75276729e-01	-4.38089174e+01	-4.84376146e+01	9.29797929e+01	-4.89618120e+01	9.21159485e+01	-7.22813085e+00	5.73325305e+01
1182980142.86	-2.75811330e-01	-4.38336614e+01	-4.84250634e+01	9.22192891e+01	-4.90770982e+01	8.98989190e+01	-7.22154667e+00	5.72483374e+01
1183265714.29	-2.77296395e-01	-4.38366133e+01	-4.85737016e+01	9.12310100e+01	-4.92028746e+01	9.03781865e+01	-7.21692963e+00	5.71315863e+01
1183551285.71	-2.80855418e-01	-4.38390208e+01	-4.86457370e+01	9.00716331e+01	-4.92156675e+01	8.92309014e+01	-7.20626761e+00	5.69695017e+01
1183836857.14	-2.83558210e-01	-4.38751868e+01	-4.87221287e+01	8.89045960e+01	-4.93523039e+01	8.74614170e+01	-7.21319830e+00	5.68715601e+01
1184122428.57	-2.81229981e-01	-4.38880534e+01	-4.88387207e+01	8.82043028e+01	-4.95009192e+01	8.66197359e+01	-7.19592839e+00	5.67824403e+01
1184408000	-2.86814455e-01	-4.38837264e+01	-4.89321846e+01	8.72916762e+01	-4.96297179e+01	8.51338397e+01	-7.18384217e+00	5.66382171e+01
1184693571.43	-2.84349344e-01	-4.38702268e+01	-4.90004257e+01	8.64600318e+01	-4.95199630e+01	8.49949407e+01	-7.18631214e+00	5.65548293e+01
1184979142.86	-2.82855631e-01	-4.38896632e+01	-4.91242860e+01	8.52460602e+01	-4.96707481e+01	8.44854840e+01	-7.18033792e+00	5.65206416e+01
1185264714.29	-2.84497913e-01	-4.39131695e+01	-4.92270090e+01	8.46576475e+01	-4.99021240e+01	8.31651925e+01	-7.16513083e+00	5.63033560e+01
1185550285.71	-2.85564265e-01	-4.39454938e+01	-4.93623634e+01	8.37451259e+01	-4.99187233e+01	8.16843323e+01	-7.16040093e+00	5.62013959e+01
1185835857.14	-2.84937364e-01	-4.39661443e+01	-4.94283333e+01	8.25600094e+01	-4.94913441e+01	8.15391578e+01	-7.14707628e+00	5.61550556e+01
1186121428.57	-2.81680647e-01	-4.40086370e+01	-4.95891608e+01	8.16422396e+01	-4.95589875e+01	8.08530089e+01	-7.14401647e+00	5.59598889e+01
1186407000	-2.84686108e-01	-4.40290327e+01	-4.97084592e+01	8.10892008e+01	-4.97035581e+01	7.98983765e+01	-7.14033100e+00	5.57673879e+01
1186692571.43	-2.84920252e-01	-4.40415281e+01	-4.97022380e+01	8.01788629e+01	-4.98005096e+01	7.90865145e+01	-7.12768757e+00	5.56474623e+01
1186978142.86	-2.86400838e-01	-4.40510159e+01	-4.98635991e+01	7.97982616e+01	-4.98842280e+01	7.87221390e+01	-7.12417308e+00	5.54652840e+01
1187263714.29	-2.87521810e-01	-4.40457796e+01	-4.99703500e+01	7.91241446e+01	-4.99596518e+01	7.79607825e+01	-7.12798593e+00	5.53785980e+01
1187549285.71	-2.88916374e-01	-4.40764074e+01	-5.00522366e+01	7.84585660e+01	-5.00421275e+01	7.71386337e+01	-7.11989743e+00	5.52155154e+01
1187834857.14	-2.88371369e-01	-4.41042743e+01	-5.02484938e+01	7.80146686e+01	-5.01649744e+01	7.65042337e+01	-7.11313764e+00	5.50599003e+01
1188120428.57	-2.93582624e-01	-4.41323664e+01	-5.02827526e+01	7.73861449e+01	-5.01969594e+01	7.61661555e+01	-7.09206092e+00	5.49196840e+01
1188406000	-2.91045127e-01	-4.41217547e+01	-5.04064419e+01	7.67877906e+01	-5.03152645e+01	7.55510420e+01	-7.10077174e+00	5.48291974e+01
1188691571.43	-2.93841862e-01	-4.41396668e+01	-5.04658449e+01	7.61962545e+01	-5.03539469e+01	7.46394277e+01	-7.08933126e+00	5.47220184e+01
1188977142.86	-2.92766872e-01	-4.41778416e+01	-5.05749567e+01	7.61314877e+01	-5.04365475e+01	7.41280178e+01	-7.08064867e+00	5.45353565e+01
1189262714.29	-2.91202005e-01	-4.41614175e+01	-5.05913218e+01	7.51115498e+01	-5.04678668e+01	7.33742655e+01	-7.07290062e+00	5.44031985e+01
1189548285.71	-2.89043044e-01	-4.42344313e+01	-5.07938787e+01	7.48214437e+01	-5.04956976e+01	7.30143031e+01	-7.06436823e+00	5.42445142e+01
1189833857.14	-2.88820134e-01	-4.42553549e+01	-5.07839485e+01	7.37001609e+01	-5.05796133e+01	7.20898886e+01	-7.06400070e+00	5.40735910e+01
1190119428.57	-2.91745188e-01	-4.42422512e+01	-5.08043637e+01	7.38208747e+01	-5.05941605e+01	7.14945569e+01	-7.06879544e+00	5.39123546e+01
1190405000	-2.92008561e-01	-4.43001320e+01	-5.09527178e+01	7.32126376e+01	-5.06834628e+01	7.11809985e+01	-7.06779394e+00	5.37888585e+01
1190690571.43	-2.92346641e-01	-4.42978250e+01	-5.09644845e+01	7.26564477e+01	-5.07413609e+01	7.04848648e+01	-7.05582326e+00	5.36139385e+01
1190976142.86	-2.89347912e-01	-4.43557123e+01	-5.10350702e+01	7.18094189e+01	-5.08284301e+01	7.01715130e+01	-7.05117257e+00	5.35345054e+01
1191261714.29	-2.90842892e-01	-4.43239494e+01	-5.11821241e+01	7.13547488e+01	-5.08361179e+01	6.98156313e+01	-7.05311129e+00	5.34046182e+01
1191547285.71	-2.89202512e-01	-4.43402521e+01	-5.11734816e+01	7.09147477e+01	-5.08790686e+01	6.86611797e+01	-7.04099746e+00	5.32375407e+01
1191832857.14	-2.89505825e-01	-4.43208753e+01	-5.13122506e+01	7.02836673e+01	-5.09713057e+01	6.82743412e+01	-7.03114649e+00	5.30378460e+01
1192118428.57	-2.90577087e-01	-4.43423582e+01	-5.14236133e+01	6.96005358e+01	-5.09740075e+01	6.75914146e+01	-7.02254171e+00	5.29388155e+01
1192404000	-2.90793954e-01	-4.43835781e+01	-5.14787308e+01	6.93435409e+01	-5.10142122e+01	6.67869112e+01	-7.01474252e+00	5.28274947e+01
1192689571.43	-2.91768796e-01	-4.44165612e+01	-5.15378120e+01	6.89668232e+01	-5.11355677e+01	6.65474441e+01	-7.01585437e+00	5.27243886e+01
1192975142.86	-2.89721336e-01	-4.44154186e+01	-5.15944504e+01	6.86448396e+01	-5.11245476e+01	6.57029799e+01	-7.01088312e+00	5.25342623e+01
1193260714.29	-2.91077700e-01	-4.44687582e+01	-5.15884013e+01	6.85432709e+01	-5.11362044e+01	6.51773115e+01	-6.99910468e+00	5.23640900e+01
1193546285.71	-2.90960785e-01	-4.44671339e+01	-5.16521760e+01	6.78503383e+01	-5.11961773e+01	6.47445853e+01	-6.98917217e+00	5.22698618e+01
1193831857.14	-2.92684518e-01	-4.44678771e+01	-5.16032279e+01	6.73659049e+01	-5.11958025e+01	6.40951452e+01	-6.96629463e+00	5.21112307e+01
1194117428.57	-2.89902543e-01	-4.45235736e+01	-5.17376756e+01	6.71104541e+01	-5.12620954e+01	6.32385789e+01	-6.96241846e+00	5.19548336e+01
1194403000	-2.90178248e-01	-4.45226483e+01	-5.17157654e+01	6.66822299e+01	-5.12347501e+01	6.25929039e+01	-6.95334714e+00	5.18266166e+01
1194688571.43	-2.89552630e-01	-4.45863415e+01	-5.22355223e+01	7.11652537e+01	-5.12042607e+01	6.30913979e+01	-6.93967479e+00	5.17803043e+01
1194974142.86	-2.88449821e-01	-4.45827225e+01	-5.17814408e+01	6.53127371e+01	-5.12941086e+01	6.11949996e+01	-6.94718717e+00	5.15267949e+01
1195259714.29	-2.89088039e-01	-4.46070097e+01	-5.18130701e+01	6.46549298e+01	-5.13140807e+01	6.06124831e+01	-6.93653300e+00	5.13333536e+01
1195545285.71	-2.93445825e-01	-4.46144899e+01	-5.18447092e+01	6.42710738e+01	-5.13491769e+01	5.96194013e+01	-6.92585373e+00	5.11678989e+01
1195830857.14	-2.94622461e-01	-4.46435712e+01	-5.18975906e+01	6.35216305e+01	-5.13597351e+01	5.88481638e+01	-6.91185722e+00	5.10498042e+01
1196116428.57	-2.92009544e-01	-4.47050098e+01	-5.18073932e+01	6.27624661e+01	-5.13738543e+01	5.77089852e+01	-6.90560530e+00	5.08384358e+01
1196402000	-2.91875497e-01	-4.47027324e+01	-5.19664835e+01	6.22003803e+01	-5.13734107e+01	5.70797998e+01	-6.89021310e+00	5.06942470e+01
1196687571.43	-2.87380480e-01	-4.47340000e+01	-5.19264075e+01	6.14355509e+01	-5.13811592e+01	5.61103539e+01	-6.89637993e+00	5.04899970e+01
1196973142.86	-2.86518936e-01	-4.47790963e+01	-5.19231707e+01	6.04860053e+01	-5.14623333e+01	5.51681692e+01	-6.88405341e+00	5.03710375e+01
1197258714.29	-2.94348047e-01	-4.47719788e+01	-5.19473995e+01	5.96163232e+01	-5.14789980e+01	5.43116060e+01	-6.87657076e+00	5.01724138e+01
1197544285.71	-2.92497239e-01	-4.47834851e+01	-5.20499712e+01	5.89656860e+01	-5.15221032e+01	5.30070455e+01	-6.86546923e+00	5.00335048e+01
1197829857.14	-2.93052024e-01	-4.48230217e+01	-5.20724385e+01	5.87025723e+01	-5.14849393e+01	5.19514773e+01	-6.85947365e+00	4.98541352e+01
1198115428.57	-2.92284603e-01	-4.48101400e+01	-5.20894628e+01	5.78086451e+01	-5.15841961e+01	5.09509740e+01	-6.85196229e+00	4.96981542e+01
1198401000	-2.92286597e-01	-4.48654933e+01	-5.22008361e+01	5.68153962e+01	-5.16170258e+01	5.04001918e+01	-6.84310708e+00	4.95637771e+01
1198686571.43	-2.91871231e-01	-4.49083263e+01	-5.23224931e+01	5.58435678e+01	-5.17369795e+01	4.93529950e+01	-6.83941753e+00	4.93606999e+01
1198972142.86	-2.87100392e-01	-4.49395794e+01	-5.23576717e+01	5.55506987e+01	-5.18177603e+01	4.83310762e+01	-6.85110493e+00	4.91338696e+01
1199257714.29	-2.89624213e-01	-4.49482767e+01	-5.24239607e+01	5.42294152e+01	-5.18472430e+01	4.69372522e+01	-6.84132166e+00	4.89742669e+01
1199543285.71	-2.87976314e-01	-4.49972676e+01	-5.25089865e+01	5.39217084e+01	-5.19963972e+01	4.61744443e+01	-6.83301609e+00	4.88348909e+01
1199828857.14	-2.87612581e-01	-4.50096605e+01	-5.26429886e+01	5.37497982e+01	-5.20756283e+01	4.53860480e+01	-6.82502268e+00	4.86557001e+01
1200114428.57	-2.85328981e-01	-4.50353154e+01	-5.26248654e+01	5.28743048e+01	-5.20992919e+01	4.42434465e+01	-6.81509077e+00	4.84907089e+01
1200400000	-2.83836256e-01	-4.50335730e+01	-5.26955403e+01	5.23019724e+01	-5.21888576e+01	4.31525279e+01	-6.81028445e+00	4.83556421e+01
1200685571.43	-2.82316961e-01	-4.50443943e+01	-5.27769038e+01	5.15734316e+01	-5.22740600e+01	4.19833435e+01	-6.80582781e+00	4.81593646e+01
1200971142.86	-2.81232622e-01	-4.50684879e+01	-5.28177591e+01	5.08281530e+01	-5.23790800e+01	4.15335510e+01	-6.79793771e+00	4.80128322e+01
1201256714.29	-2.84811771e-01	-4.50959789e+01	-5.35528280e+01	6.49635829e+01	-5.55872083e+01	4.45680001e+01	-6.85999688e+00	4.78975158e+01
1201542285.71	-2.84410558e-01	-4.51092679e+01	-5.37401166e+01	6.48047045e+01	-5.57237383e+01	4.32824274e+01	-6.84869756e+00	4.76697831e+01
1201827857.14	-2.86087703e-01	-4.51416178e+01	-5.38339219e+01	6.38958629e+01	-5.59854388e+01	4.26836779e+01	-6.85103409e+00	4.75640139e+01
1202113428.57	-2.88163717e-01	-4.51585531e+01	-5.39464935e+01	6.35777792e+01	-5.61778419e+01	4.17485669e+01	-6.85933590e+00	4.74136826e+01
1202399000	-2.89746733e-01	-4.51689487e+01	-5.41178177e+01	6.36362301e+01	-5.63540793e+01	4.16870990e+01	-6.84854139e+00	4.72501530e+01
1202684571.43	-2.87034888e-01	-4.52045258e+01	-5.42743439e+01	6.35893531e+01	-5.64546236e+01	4.09832455e+01	-6.84661742e+00	4.70947357e+01
1202970142.86	-2.84057330e-01	-4.52143030e+01	-5.44674167e+01	6.36146058e+01	-5.66468667e+01	4.06787014e+01	-6.84880237e+00	4.69530136e+01
1203255714.29	-2.85127025e-01	-4.52525842e+01	-5.45068084e+01	6.34044446e+01	-5.69285158e+01	3.99272113e+01	-6.84636523e+00	4.67221526e+01
1203541285.71	-2.81419351e-01	-4.52645635e+01	-5.46712743e+01	6.33276572e+01	-5.71141499e+01	3.97242958e+01	-6.84278074e+00	4.65429296e+01
1203826857.14	-2.80070563e-01	-4.52703394e+01	-5.48265900e+01	6.41543293e+01	-5.73460269e+01	3.97333422e+01	-6.83972209e+00	4.64085423e+01
1204112428.57	-2.81999784e-01	-4.52737228e+01	-5.48852512e+01	6.40791615e+01	-5.76302712e+01	4.00566839e+01	-6.83338126e+00	4.62045656e+01
1204398000	-2.78738523e-01	-4.53107926e+01	-5.50299504e+01	6.45553213e+01	-5.79283326e+01	4.00926983e+01	-6.82943518e+00	4.60914953e+01
1204683571.43	-2.76453421e-01	-4.53162459e+01	-5.51822854e+01	6.45132529e+01	-5.82137885e+01	4.09786441e+01	-6.84026263e+00	4.59363008e+01
1204969142.86	-2.78751831e-01	-4.53374739e+01	-5.52918722e+01	6.54574743e+01	-5.82381685e+01	4.15565863e+01	-6.82737650e+00	4.57355134e+01
1205254714.29	-2.82183499e-01	-4.53750696e+01	-5.53174278e+01	6.55267269e+01	-5.85366427e+01	4.22700288e+01	-6.83015393e+00	4.55236707e+01
1205540285.71	-2.81831793e-01	-4.53805110e+01	-5.53123513e+01	6.70305888e+01	-5.87100072e+01	4.33281059e+01	-6.82441896e+00	4.54532520e+01
1205825857.14	-2.78237114e-01	-4.54048885e+01	-5.54776781e+01	6.71441141e+01	-5.88949950e+01	4.36060838e+01	-6.83528860e+00	4.53083346e+01
1206111428.57	-2.82758469e-01	-4.54113576e+01	-5.53444429e+01	6.85519616e+01	-5.88977595e+01	4.58427643e+01	-6.84098597e+00	4.50841310e+01
1206397000	-2.82373062e-01	-4.54243967e+01	-5.53930884e+01	6.82780445e+01	-5.91346583e+01	4.72997836e+01	-6.83727770e+00	4.49174522e+01
1206682571.43	-2.85491313e-01	-4.54355620e+01	-5.52491418e+01	7.02559013e+01	-5.91566348e+01	4.91172723e+01	-6.84795581e+00	4.47028739e+01
1206968142.86	-2.86041582e-01	-4.54603468e+01	-5.52551939e+01	7.02064654e+01	-5.91836553e+01	5.01682637e+01	-6.84030094e+00	4.45649736e+01
1207253714.29	-2.86366840e-01	-4.55051345e+01	-5.52099880e+01	7.10334766e+01	-5.90935399e+01	5.18598094e+01	-6.83857685e+00	4.43995991e+01
1207539285.71	-2.87267268e-01	-4.55229973e+01	-5.50187544e+01	7.13442941e+01	-5.91065538e+01	5.36466030e+01	-6.83023055e+00	4.43113799e+01
1207824857.14	-2.81524470e-01	-4.55397609e+01	-5.49907420e+01	7.18025078e+01	-5.88953531e+01	5.53803987e+01	-6.84264294e+00	4.41778396e+01
1208110428.57	-2.83536602e-01	-4.55247074e+01	-5.48129906e+01	7.28633880e+01	-5.89767378e+01	5.61469508e+01	-6.84296926e+00	4.41264315e+01
1208396000	-2.83511161e-01	-4.55599849e+01	-5.46152054e+01	7.24743953e+01	-5.87014665e+01	5.74327158e+01	-6.84916665e+00	4.38859630e+01
1208681571.43	-2.84011326e-01	-4.55560370e+01	-5.45421354e+01	7.21433240e+01	-5.84325550e+01	5.77362745e+01	-6.85654891e+00	4.38460703e+01
1208967142.86	-2.87266404e-01	-4.55775705e+01	-5.43733317e+01	7.19346916e+01	-5.83601263e+01	5.82791105e+01	-6.86819673e+00	4.36713953e+01
1209252714.29	-2.86493459e-01	-4.55959867e+01	-5.42663241e+01	7.18442920e+01	-5.83115002e+01	5.82341304e+01	-6.86698024e+00	4.35061534e+01
1209538285.71	-2.84236624e-01	-4.56044388e+01	-5.41941691e+01	7.16509176e+01	-5.80017487e+01	5.85533509e+01	-6.88121742e+00	4.34191488e+01
1209823857.14	-2.85589172e-01	-4.56301424e+01	-5.39762319e+01	7.18194173e+01	-5.79933150e+01	5.89339972e+01	-6.88578169e+00	4.33581283e+01
1210109428.57	-2.83731065e-01	-4.56404346e+01	-5.38445422e+01	7.08656216e+01	-5.77268557e+01	5.87782497e+01	-6.88625081e+00	4.32660375e+01
1210395000	-2.86137679e-01	-4.56717740e+01	-5.36698432e+01	6.99888465e+01	-5.75943757e+01	5.82685340e+01	-6.89237272e+00	4.31575227e+01
1210680571.43	-2.85362285e-01	-4.56789335e+01	-5.36217706e+01	7.00735860e+01	-5.73645050e+01	5.91897441e+01	-6.89213420e+00	4.31112220e+01
1210966142.86	-2.82966884e-01	-4.57016332e+01	-5.35160964e+01	6.96162683e+01	-5.72910651e+01	5.89186008e+01	-6.90244315e+00	4.28816577e+01
1211251714.29	-2.81891556e-01	-4.57133305e+01	-5.33163914e+01	6.82132262e+01	-5.72331208e+01	5.85287753e+01	-6.91630829e+00	4.28330195e+01
1211537285.71	-2.85364911e-01	-4.57333261e+01	-5.33254156e+01	6.81262301e+01	-5.70759007e+01	5.77002889e+01	-6.92330274e+00	4.26287855e+01
1211822857.14	-2.91157268e-01	-4.57608752e+01	-5.31965986e+01	6.69444017e+01	-5.69686106e+01	5.74350831e+01	-6.92438723e+00	4.24236982e+01
1212108428.57	-2.86884073e-01	-4.57905257e+01	-5.30955019e+01	6.64216845e+01	-5.68399343e+01	5.72998889e+01	-6.92582243e+00	4.23011767e+01
1212394000	-2.83928802e-01	-4.57874196e+01	-5.30345105e+01	6.56592953e+01	-5.67129558e+01	5.57979381e+01	-6.92692838e+00	4.21177414e+01
1212679571.43	-2.83800843e-01	-4.57996585e+01	-5.28904206e+01	6.49126996e+01	-5.65768927e+01	5.66184145e+01	-6.92871181e+00	4.20101419e+01
1212965142.86	-2.84050944e-01	-4.58300502e+01	-5.28684744e+01	6.44604587e+01	-5.64754643e+01	5.58367820e+01	-6.93487844e+00	4.18887887e+01
1213250714.29	-2.80680905e-01	-4.58362246e+01	-5.27000300e+01	6.32914675e+01	-5.63407101e+01	5.58144321e+01	-6.93542341e+00	4.17700412e+01
1213536285.71	-2.80155845e-01	-4.58501887e+01	-5.26359269e+01	6.25235770e+01	-5.61844384e+01	5.45444176e+01	-6.93548107e+00	4.16723463e+01
1213821857.14	-2.81560381e-01	-4.58717709e+01	-5.25660703e+01	6.23434864e+01	-5.60491632e+01	5.38087371e+01	-6.93185615e+00	4.16280690e+01
1214107428.57	-2.79049049e-01	-4.59058769e+01	-5.24732436e+01	6.09993737e+01	-5.60180165e+01	5.33316142e+01	-6.93318438e+00	4.14412131e+01
1214393000	-2.81456847e-01	-4.59202999e+01	-5.23761908e+01	6.03944880e+01	-5.58862888e+01	5.29771160e+01	-6.93465261e+00	4.12874003e+01
1214678571.43	-2.82852702e-01	-4.59381711e+01	-5.23207662e+01	5.96626952e+01	-5.57414868e+01	5.23756045e+01	-6.94795133e+00	4.11957051e+01
1214964142.86	-2.79184525e-01	-4.59437431e+01	-5.21927036e+01	5.89361257e+01	-5.56070137e+01	5.16741839e+01	-6.95777722e+00	4.09756787e+01
1215249714.29	-2.78492174e-01	-4.59609037e+01	-5.21071515e+01	5.73165066e+01	-5.54977493e+01	5.08739152e+01	-6.96236590e+00	4.08787764e+01
1215535285.71	-2.74818390e-01	-4.59486165e+01	-5.20544035e+01	5.63406124e+01	-5.53701673e+01	5.00383901e+01	-6.96956680e+00	4.07788805e+01
1215820857.14	-2.75975429e-01	-4.59786119e+01	-5.20133600e+01	5.62001214e+01	-5.53797941e+01	4.97315241e+01	-6.95074985e+00	4.06409752e+01
1216106428.57	-2.76796815e-01	-4.59913048e+01	-5.19881790e+01	5.47490191e+01	-5.53743571e+01	4.84444342e+01	-6.96137853e+00	4.05104483e+01
1216392000	-2.81021330e-01	-4.60213572e+01	-5.18508881e+01	5.40433207e+01	-5.52639410e+01	4.72492805e+01	-6.96212895e+00	4.03901292e+01
1216677571.43	-2.80298020e-01	-4.60578808e+01	-5.17887169e+01	5.28740128e+01	-5.50835655e+01	4.72031498e+01	-6.97849807e+00	4.02544875e+01
1216963142.86	-2.80184033e-01	-4.60464042e+01	-5.17530753e+01	5.17471883e+01	-5.50386706e+01	4.53251964e+01	-6.98215444e+00	4.01519266e+01
1217248714.29	-2.80444386e-01	-4.60874815e+01	-5.16995742e+01	5.06730342e+01	-5.49349903e+01	4.51744594e+01	-6.98625022e+00	4.01024282e+01
1217534285.71	-2.78841526e-01	-4.60911360e+01	-5.16796944e+01	4.89064071e+01	-5.48932217e+01	4.44407722e+01	-6.99474049e+00	4.00315023e+01
1217819857.14	-2.79727037e-01	-4.60846512e+01	-5.16280070e+01	4.80704567e+01	-5.48732638e+01	4.33163836e+01	-7.00277192e+00	3.99495270e+01
1218105428.57	-2.76912390e-01	-4.60964941e+01	-5.16458448e+01	4.69191984e+01	-5.49133556e+01	4.24209055e+01	-7.00745878e+00	3.98288572e+01
1218391000	-2.76945721e-01	-4.61010827e+01	-5.16403331e+01	4.62872027e+01	-5.47248421e+01	4.12112341e+01	-7.01178740e+00	3.96743411e+01
1218676571.43	-2.73566921e-01	-4.61269114e+01	-5.16236840e+01	4.50843986e+01	-5.46289447e+01	4.01535970e+01	-7.01267172e+00	3.96087543e+01
1218962142.86	-2.72774329e-01	-4.61405980e+01	-5.15514051e+01	4.37245544e+01	-5.47007025e+01	3.94961283e+01	-7.01504652e+00	3.94672651e+01
1219247714.29	-2.76153084e-01	-4.61658928e+01	-5.15812201e+01	4.34834260e+01	-5.45958061e+01	3.85847639e+01	-7.01738839e+00	3.93370050e+01
1219533285.71	-2.77026953e-01	-4.61684607e+01	-5.16147559e+01	4.15809255e+01	-5.45834106e+01	3.76986345e+01	-7.02537383e+00	3.93085857e+01
1219818857.14	-2.77846756e-01	-4.61867140e+01	-5.15546925e+01	4.07997403e+01	-5.46659724e+01	3.70735714e+01	-7.04583827e+00	3.92231521e+01
1220104428.57	-2.75208810e-01	-4.62065732e+01	-5.15785044e+01	3.98461298e+01	-5.46600129e+01	3.60668494e+01	-7.04549167e+00	3.91495350e+01
1220390000	-2.72980563e-01	-4.62175785e+01	-5.16091867e+01	3.91452022e+01	-5.45607645e+01	3.52677286e+01	-7.05457306e+00	3.90263196e+01
1220675571.43	-2.74023375e-01	-4.62006014e+01	-5.16504473e+01	3.82825967e+01	-5.46470285e+01	3.50989058e+01	-7.04511326e+00	3.89959240e+01
1220961142.86	-2.75184852e-01	-4.62007264e+01	-5.16144740e+01	3.70519908e+01	-5.46635339e+01	3.42193455e+01	-7.05763826e+00	3.88723942e+01
1221246714.29	-2.72224094e-01	-4.62367095e+01	-5.16412677e+01	3.63769482e+01	-5.45605261e+01	3.39365205e+01	-7.06197016e+00	3.87312221e+01
1221532285.71	-2.67001110e-01	-4.62439442e+01	-5.15963990e+01	3.55616805e+01	-5.44550524e+01	3.27716982e+01	-7.06810892e+00	3.86936219e+01
1221817857.14	-2.71312381e-01	-4.62683508e+01	-5.16068892e+01	3.45713054e+01	-5.45768068e+01	3.23645153e+01	-7.06954913e+00	3.85889138e+01
1222103428.57	-2.70139431e-01	-4.62926998e+01	-5.15611576e+01	3.39808948e+01	-5.45014442e+01	3.20669975e+01	-7.07644939e+00	3.85217997e+01
1222389000	-2.67881028e-01	-4.62671057e+01	-5.15662144e+01	3.34047896e+01	-5.44134859e+01	3.13063866e+01	-7.07558864e+00	3.84681323e+01
1222674571.43	-2.69109396e-01	-4.62562876e+01	-5.15272718e+01	3.27789039e+01	-5.44367787e+01	3.06225847e+01	-7.08476318e+00	3.84325926e+01
1222960142.86	-2.68311759e-01	-4.62887144e+01	-5.15710070e+01	3.22933496e+01	-5.43057782e+01	3.03473067e+01	-7.08863573e+00	3.83235585e+01
1223245714.29	-2.69176608e-01	-4.63184753e+01	-5.14148083e+01	3.07513526e+01	-5.42064228e+01	2.95369923e+01	-7.09702300e+00	3.82838799e+01
1223531285.71	-2.69899564e-01	-4.63625607e+01	-5.15124736e+01	3.04086839e+01	-5.42084503e+01	2.88985069e+01	-7.10811065e+00	3.81881716e+01
1223816857.14	-2.70221782e-01	-4.63203303e+01	-5.14937310e+01	2.96754058e+01	-5.40543528e+01	2.77391872e+01	-7.10677925e+00	3.80986657e+01
1224102428.57	-2.69534959e-01	-4.63238151e+01	-5.14286458e+01	2.91613613e+01	-5.40276061e+01	2.70462484e+01	-7.11654163e+00	3.80080458e+01
1224388000	-2.66625088e-01	-4.63600906e+01	-5.14095343e+01	2.78289336e+01	-5.39735912e+01	2.63018117e+01	-7.10947920e+00	3.78400568e+01
1224673571.43	-2.67404616e-01	-4.63539081e+01	-5.14265349e+01	2.68273085e+01	-5.39073389e+01	2.51942211e+01	-7.11472464e+00	3.76887075e+01
1224959142.86	-2.65140020e-01	-4.63635119e+01	-5.13224292e+01	2.59383811e+01	-5.39819270e+01	2.39674717e+01	-7.11720317e+00	3.77154582e+01
1225244714.29	-2.66985332e-01	-4.63903262e+01	-5.13445522e+01	2.50232213e+01	-5.39399463e+01	2.37715671e+01	-7.11683382e+00	3.75696958e+01
1225530285.71	-2.65997811e-01	-4.63969960e+01	-5.12882496e+01	2.37331810e+01	-5.38272983e+01	2.26650716e+01	-7.13660386e+00	3.75238812e+01
1225815857.14	-2.68549439e-01	-4.63961203e+01	-5.13219853e+01	2.23670205e+01	-5.38114223e+01	2.14680047e+01	-7.13426253e+00	3.74852820e+01
1226101428.57	-2.67382783e-01	-4.64059240e+01	-5.11882312e+01	2.17465613e+01	-5.38045553e+01	2.12287615e+01	-7.13282525e+00	3.74876524e+01
1226387000	-2.65584659e-01	-4.63909798e+01	-5.13146786e+01	2.04055833e+01	-5.38240598e+01	1.97136408e+01	-7.12674355e+00	3.73969488e+01
1226672571.43	-2.64405896e-01	-4.63944029e+01	-5.12423708e+01	1.96739736e+01	-5.37661536e+01	1.89182886e+01	-7.11740811e+00	3.73868019e+01
1226958142.86	-2.64115000e-01	-4.64216670e+01	-5.12547108e+01	1.83023589e+01	-5.37603093e+01	1.82423583e+01	-7.11067532e+00	3.73191642e+01
1227243714.29	-2.73035808e-01	-4.64360267e+01	-5.13636471e+01	1.71628415e+01	-5.37501808e+01	1.67598290e+01	-7.11141159e+00	3.72922547e+01
1227529285.71	-2.69796746e-01	-4.64440187e+01	-5.12793694e+01	1.65122600e+01	-5.37489827e+01	1.66345105e+01	-7.11913888e+00	3.71866928e+01
1227814857.14	-2.65529418e-01	-4.64288423e+01	-5.13356006e+01	1.52314917e+01	-5.38434986e+01	1.56396783e+01	-7.11870808e+00	3.71442665e+01
1228100428.57	-2.65091201e-01	-4.64671268e+01	-5.13505121e+01	1.46889576e+01	-5.38962680e+01	1.43641668e+01	-7.11755387e+00	3.70316550e+01
1228386000	-2.65067885e-01	-4.64817798e+01	-5.14714960e+01	1.33034474e+01	-5.38031025e+01	1.33685343e+01	-7.11000295e+00	3.70578572e+01
1228671571.43	-2.64805434e-01	-4.64835192e+01	-5.14403136e+01	1.23105524e+01	-5.38433284e+01	1.31071610e+01	-7.11098361e+00	3.69122612e+01
1228957142.86	-2.65324696e-01	-4.64655603e+01	-5.15279873e+01	1.14309933e+01	-5.39161683e+01	1.21181459e+01	-7.11872397e+00	3.68641826e+01
1229242714.29	-2.65934233e-01	-4.64844329e+01	-5.15075921e+01	1.08367242e+01	-5.38877290e+01	1.10562560e+01	-7.12224933e+00	3.67826262e+01
1229528285.71	-2.69917731e-01	-4.64836039e+01	-5.16345702e+01	9.97334711e+00	-5.39583848e+01	1.06420645e+01	-7.12015190e+00	3.67369165e+01
1229813857.14	-2.69670386e-01	-4.65291414e+01	-5.16201023e+01	9.24030297e+00	-5.39664807e+01	1.03767921e+01	-7.13525623e+00	3.67014383e+01
1230099428.57	-2.68076639e-01	-4.64919285e+01	-5.17108635e+01	8.28121389e+00	-5.39148700e+01	9.48550839e+00	-7.13309122e+00	3.66438877e+01
1230385000	-2.65915391e-01	-4.65045915e+01	-5.17129447e+01	7.43936278e+00	-5.39416444e+01	9.02537425e+00	-7.15261980e+00	3.65601115e+01
1230670571.43	-2.66892756e-01	-4.65226852e+01	-5.18285455e+01	7.40117062e+00	-5.39915841e+01	8.67659177e+00	-7.13905261e+00	3.65505144e+01
1230956142.86	-2.66549321e-01	-4.65276141e+01	-5.18156053e+01	6.07038318e+00	-5.39581217e+01	8.24472463e+00	-7.13766731e+00	3.64087068e+01
1231241714.29	-2.63572648e-01	-4.65489897e+01	-5.19565453e+01	5.83888217e+00	-5.40159393e+01	7.46794495e+00	-7.14485656e+00	3.63629760e+01
1231527285.71	-2.61773713e-01	-4.65652468e+01	-5.19617311e+01	4.86856070e+00	-5.39675535e+01	7.39644414e+00	-7.14771977e+00	3.62590699e+01
1231812857.14	-2.62122796e-01	-4.65696309e+01	-5.19884512e+01	4.34493885e+00	-5.39462743e+01	6.97193834e+00	-7.14412821e+00	3.61963774e+01
1232098428.57	-2.66330868e-01	-4.65817359e+01	-5.20011042e+01	4.15994513e+00	-5.40195025e+01	6.12595567e+00	-7.16098868e+00	3.60339671e+01
1232384000	-2.66441537e-01	-4.65925523e+01	-5.20560388e+01	3.86244622e+00	-5.40040579e+01	5.75391788e+00	-7.17766681e+00	3.60251425e+01
1232669571.43	-2.66984926e-01	-4.66073422e+01	-5.20676079e+01	2.78812650e+00	-5.39729122e+01	5.04342572e+00	-7.17162096e+00	3.59329947e+01
1232955142.86	-2.71437048e-01	-4.66349329e+01	-5.20804985e+01	2.36686165e+00	-5.38264145e+01	5.40544662e+00	-7.18968486e+00	3.58396242e+01
1233240714.29	-2.69190498e-01	-4.66411249e+01	-5.21179756e+01	2.23998588e+00	-5.38979978e+01	4.26257998e+00	-7.18537392e+00	3.56892589e+01
1233526285.71	-2.67348910e-01	-4.66460404e+01	-5.21915151e+01	1.36492520e+00	-5.38866724e+01	3.86088747e+00	-7.19873366e+00	3.55851087e+01
1233811857.14	-2.68770558e-01	-4.66542336e+01	-5.21962397e+01	1.24467415e+00	-5.37449300e+01	3.28943210e+00	-7.20349424e+00	3.53968931e+01
1234097428.57	-2.68266343e-01	-4.66664478e+01	-5.21873316e+01	7.04711325e-01	-5.37172894e+01	2.26908516e+00	-7.20228668e+00	3.53174625e+01
1234383000	-2.69498674e-01	-4.66663159e+01	-5.21539502e+01	4.52145611e-01	-5.37243108e+01	2.00485024e+00	-7.20326010e+00	3.52038046e+01
1234668571.43	-2.69931935e-01	-4.66968866e+01	-5.21454155e+01	-1.31639279e-01	-5.36768014e+01	1.68099412e+00	-7.22155146e+00	3.50655939e+01
1234954142.86	-2.71106948e-01	-4.67007168e+01	-5.21903867e+01	-9.86513752e-01	-5.36737148e+01	9.85382126e-01	-7.22292689e+00	3.49921824e+01
1235239714.29	-2.68870582e-01	-4.66831820e+01	-5.22081061e+01	-1.11327264e+00	-5.35985130e+01	2.12537889e-01	-7.22364604e+00	3.48922193e+01
1235525285.71	-2.69208308e-01	-4.67042510e+01	-5.21693652e+01	-1.76100141e+00	-5.36230878e+01	-6.84294889e-01	-7.22671349e+00	3.48809931e+01
1235810857.14	-2.68161220e-01	-4.66978777e+01	-5.21576444e+01	-2.29460826e+00	-5.35369903e+01	-1.17245078e+00	-7.23263365e+00	3.47708121e+01
1236096428.57	-2.69253611e-01	-4.67326430e+01	-5.20686198e+01	-2.89334216e+00	-5.35390938e+01	-2.04703315e+00	-7.23135816e+00	3.46745909e+01
1236382000	-2.69224849e-01	-4.66963199e+01	-5.20772100e+01	-3.65805769e+00	-5.34588829e+01	-3.18140663e+00	-7.25024365e+00	3.45503947e+01
1236667571.43	-2.65542753e-01	-4.66969581e+01	-5.21128724e+01	-3.85443870e+00	-5.34263591e+01	-3.79799715e+00	-7.24707990e+00	3.44088793e+01
1236953142.86	-2.66290735e-01	-4.66880266e+01	-5.21815024e+01	-4.22008221e+00	-5.34904892e+01	-3.91241300e+00	-7.26561231e+00	3.42953534e+01
1237238714.29	-2.69450942e-01	-4.66988984e+01	-5.21572820e+01	-5.56839646e+00	-5.34705021e+01	-5.09834926e+00	-7.26766575e+00	3.41529530e+01
1237524285.71	-2.67746099e-01	-4.67058768e+01	-5.21519016e+01	-5.92500993e+00	-5.33774817e+01	-5.73394311e+00	-7.27916776e+00	3.40558950e+01
1237809857.14	-2.66105322e-01	-4.67234998e+01	-5.21144455e+01	-5.99919128e+00	-5.35249012e+01	-6.20520406e+00	-7.28768131e+00	3.40067937e+01
1238095428.57	-2.68158891e-01	-4.67426953e+01	-5.20883367e+01	-6.82578695e+00	-5.34063556e+01	-7.27026906e+00	-7.29075430e+00	3.38997483e+01
1238381000	-2.67478447e-01	-4.67381340e+01	-5.20633905e+01	-7.21991481e+00	-5.34173687e+01	-7.76196248e+00	-7.30472444e+00	3.39303704e+01
1238666571.43	-2.67918917e-01	-4.67380361e+01	-5.21112134e+01	-7.69231667e+00	-5.33789774e+01	-8.15814823e+00	-7.31382982e+00	3.38359386e+01
1238952142.86	-2.68558957e-01	-4.67482480e+01	-5.21206829e+01	-8.20511204e+00	-5.33632482e+01	-8.95624518e+00	-7.31189917e+00	3.37143038e+01
1239237714.29	-2.70417064e-01	-4.67584055e+01	-5.20728304e+01	-8.92693627e+00	-5.33488336e+01	-9.46595705e+00	-7.33142779e+00	3.35973570e+01
1239523285.71	-2.70295087e-01	-4.67831959e+01	-5.20425445e+01	-9.58236966e+00	-5.33784708e+01	-1.00647057e+01	-7.33113276e+00	3.34906558e+01
1239808857.14	-2.71092917e-01	-4.67781305e+01	-5.20168422e+01	-9.98511810e+00	-5.33901790e+01	-1.08904550e+01	-7.35163098e+00	3.33480932e+01
1240094428.57	-2.69749797e-01	-4.67810455e+01	-5.20618419e+01	-1.08884348e+01	-5.33438020e+01	-1.14256610e+01	-7.35330047e+00	3.32314647e+01
1240380000	-2.70176380e-01	-4.68027904e+01	-5.20671801e+01	-1.13680340e+01	-5.32965747e+01	-1.20526285e+01	-7.36102167e+00	3.31960265e+01
1240665571.43	-2.73729261e-01	-4.68200285e+01	-5.20665976e+01	-1.22385134e+01	-5.32936061e+01	-1.29790802e+01	-7.35918019e+00	3.32110922e+01
1240951142.86	-2.69758461e-01	-4.68171314e+01	-5.19854126e+01	-1.32050355e+01	-5.32888145e+01	-1.35328222e+01	-7.37835494e+00	3.31094811e+01
1241236714.29	-2.71642442e-01	-4.68138879e+01	-5.19202103e+01	-1.32331696e+01	-5.31918554e+01	-1.40466493e+01	-7.38529066e+00	3.29592554e+01
1241522285.71	-2.70206073e-01	-4.68099893e+01	-5.19746834e+01	-1.42031346e+01	-5.31640712e+01	-1.53330774e+01	-7.39224516e+00	3.28157924e+01
1241807857.14	-2.69787361e-01	-4.68224115e+01	-5.19794892e+01	-1.49524755e+01	-5.31271493e+01	-1.53596260e+01	-7.41108484e+00	3.28619770e+01
1242093428.57	-2.69070718e-01	-4.68496696e+01	-5.19834278e+01	-1.63521921e+01	-5.30919699e+01	-1.66170072e+01	-7.41789276e+00	3.26864804e+01
1242379000	-2.71257224e-01	-4.68279530e+01	-5.19131323e+01	-1.66000217e+01	-5.31060624e+01	-1.78003914e+01	-7.42377153e+00	3.25719731e+01
1242664571.43	-2.72204509e-01	-4.68388219e+01	-5.19941714e+01	-1.70307283e+01	-5.30884648e+01	-1.84748941e+01	-7.42298951e+00	3.24369095e+01
1242950142.86	-2.76398192e-01	-4.68781586e+01	-5.20438108e+01	-1.79897547e+01	-5.31819260e+01	-1.91904110e+01	-7.43890009e+00	3.23725105e+01
1243235714.29	-2.75489405e-01	-4.68758596e+01	-5.20368745e+01	-1.88131850e+01	-5.31965738e+01	-2.01605187e+01	-7.44406845e+00	3.23296354e+01
1243521285.71	-2.75361530e-01	-4.69133378e+01	-5.19822261e+01	-1.92038105e+01	-5.32071253e+01	-2.09413172e+01	-7.44966782e+00	3.22415121e+01
1243806857.14	-2.77830807e-01	-4.69202270e+01	-5.20599840e+01	-2.02908387e+01	-5.32183089e+01	-2.20084705e+01	-7.45323627e+00	3.21772154e+01
1244092428.57	-2.74332303e-01	-4.69024179e+01	-5.20745316e+01	-2.10612674e+01	-5.31654343e+01	-2.29841806e+01	-7.46496815e+00	3.20487531e+01
1244378000	-2.74521433e-01	-4.69098008e+01	-5.21337592e+01	-2.19210208e+01	-5.32372393e+01	-2.35783933e+01	-7.47941317e+00	3.19789727e+01
1244663571.43	-2.71178525e-01	-4.68879404e+01	-5.21233242e+01	-2.24334783e+01	-5.32891011e+01	-2.46298650e+01	-7.48759573e+00	3.18502787e+01
1244949142.86	-2.75344920e-01	-4.69539395e+01	-5.21443231e+01	-2.29226757e+01	-5.33454986e+01	-2.54043400e+01	-7.48618663e+00	3.17574094e+01
1245234714.29	-2.77672692e-01	-4.69502436e+01	-5.22012745e+01	-2.36546278e+01	-5.33990843e+01	-2.59245873e+01	-7.48504854e+00	3.17236918e+01
1245520285.71	-2.75375666e-01	-4.69477554e+01	-5.23156537e+01	-2.42506654e+01	-5.34004820e+01	-2.67770857e+01	-7.50608343e+00	3.16183612e+01
1245805857.14	-2.77613572e-01	-4.69334773e+01	-5.23947696e+01	-2.44603394e+01	-5.35376461e+01	-2.75638227e+01	-7.51400305e+00	3.14918075e+01
1246091428.57	-2.75126762e-01	-4.69711440e+01	-5.24000340e+01	-2.49611379e+01	-5.35605996e+01	-2.81160554e+01	-7.53042640e+00	3.14320886e+01
1246377000	-2.70964096e-01	-4.70058095e+01	-5.24374786e+01	-2.50315542e+01	-5.35796584e+01	-2.91350857e+01	-7.54181045e+00	3.13730514e+01
1246662571.43	-2.72460174e-01	-4.69765258e+01	-5.25923597e+01	-2.57481361e+01	-5.37766172e+01	-2.94520583e+01	-7.54832242e+00	3.12986147e+01
1246948142.86	-2.75066515e-01	-4.69931872e+01	-5.25403190e+01	-2.57559263e+01	-5.37466499e+01	-3.00156558e+01	-7.56084984e+00	3.12782359e+01
1247233714.29	-2.80906608e-01	-4.70130254e+01	-5.25667000e+01	-2.60303917e+01	-5.38235284e+01	-3.00525040e+01	-7.56682876e+00	3.12025322e+01
1247519285.71	-2.76060766e-01	-4.70699641e+01	-5.25722414e+01	-2.67694005e+01	-5.38858495e+01	-3.07686419e+01	-7.56248820e+00	3.11595371e+01
1247804857.14	-2.77219442e-01	-4.70983610e+01	-5.25683156e+01	-2.65027867e+01	-5.40421523e+01	-3.06127490e+01	-7.56173473e+00	3.11036611e+01
1248090428.57	-2.78280793e-01	-4.70948247e+01	-5.26794863e+01	-2.69027524e+01	-5.40940089e+01	-3.14013060e+01	-7.57805960e+00	3.10252083e+01
1248376000	-2.78689906e-01	-4.71057133e+01	-5.26471628e+01	-2.75204228e+01	-5.40767821e+01	-3.18647981e+01	-7.57768757e+00	3.10195416e+01
1248661571.43	-2.76880386e-01	-4.71141427e+01	-5.26281933e+01	-2.71202780e+01	-5.40789606e+01	-3.17722653e+01	-7.58428404e+00	3.09330861e+01
1248947142.86	-2.78387092e-01	-4.71549076e+01	-5.26934920e+01	-2.73611423e+01	-5.42984922e+01	-3.18675799e+01	-7.59260158e+00	3.08065719e+01
1249232714.29	-2.79084465e-01	-4.71697047e+01	-5.26336709e+01	-2.78975019e+01	-5.42657444e+01	-3.19235883e+01	-7.59655393e+00	3.07540621e+01
1249518285.71	-2.80393812e-01	-4.71494822e+01	-5.27025938e+01	-2.75788112e+01	-5.43961505e+01	-3.23021327e+01	-7.60278040e+00	3.06922522e+01
1249803857.14	-2.77600565e-01	-4.71483935e+01	-5.25933849e+01	-2.78727150e+01	-5.43438255e+01	-3.19137526e+01	-7.59832121e+00	3.06186109e+01
1250089428.57	-2.79934911e-01	-4.71608213e+01	-5.26183619e+01	-2.83752084e+01	-5.44606722e+01	-3.19482285e+01	-7.60436041e+00	3.05684425e+01
1250375000	-2.82196319e-01	-4.71827307e+01	-5.26628929e+01	-2.84929873e+01	-5.44810857e+01	-3.14178591e+01	-7.60017422e+00	3.04333098e+01
1250660571.43	-2.81061777e-01	-4.72119019e+01	-5.26368651e+01	-2.84761382e+01	-5.45141863e+01	-3.19920616e+01	-7.59117777e+00	3.04265367e+01
1250946142.86	-2.81353552e-01	-4.72208125e+01	-5.26384498e+01	-2.87412937e+01	-5.45108302e+01	-3.17118845e+01	-7.60262603e+00	3.03619283e+01
1251231714.29	-2.85677314e-01	-4.72595221e+01	-5.26563521e+01	-2.86259928e+01	-5.45704193e+01	-3.22309326e+01	-7.60754383e+00	3.02983569e+01
1251517285.71	-2.84377931e-01	-4.72503509e+01	-5.26170952e+01	-2.88991169e+01	-5.44932651e+01	-3.20233649e+01	-7.60534437e+00	3.02418790e+01
1251802857.14	-2.80780057e-01	-4.73048066e+01	-5.25563281e+01	-2.89013053e+01	-5.44676335e+01	-3.07957563e+01	-7.60766441e+00	3.01328613e+01
1252088428.57	-2.80540534e-01	-4.73597944e+01	-5.25025878e+01	-2.94044705e+01	-5.44162759e+01	-3.07013420e+01	-7.61304171e+00	3.00784311e+01
1252374000	-2.78099335e-01	-4.73134553e+01	-5.24102011e+01	-2.98313304e+01	-5.43986565e+01	-3.09596558e+01	-7.61493526e+00	2.99926338e+01
1252659571.43	-2.77264998e-01	-4.73430714e+01	-5.24380709e+01	-2.97434589e+01	-5.43235007e+01	-3.11282872e+01	-7.60095912e+00	2.99528945e+01
1252945142.86	-2.79730488e-01	-4.73177385e+01	-5.23322853e+01	-3.03948504e+01	-5.41768243e+01	-3.06941294e+01	-7.60422184e+00	2.98805928e+01
1253230714.29	-2.77789574e-01	-4.73351481e+01	-5.22786928e+01	-3.00161212e+01	-5.41832083e+01	-3.09869960e+01	-7.61983550e+00	2.97839296e+01
1253516285.71	-2.76052836e-01	-4.73410527e+01	-5.21920528e+01	-3.05601610e+01	-5.41490521e+01	-3.12447028e+01	-7.62191320e+00	2.97575528e+01
1253801857.14	-2.78371383e-01	-4.73467688e+01	-5.20943970e+01	-3.09716763e+01	-5.39781259e+01	-3.14835266e+01	-7.62166047e+00	2.96668771e+01
1254087428.57	-2.78394725e-01	-4.73727703e+01	-5.20623455e+01	-3.11330271e+01	-5.38751993e+01	-3.11932282e+01	-7.61206629e+00	2.96207800e+01
1254373000	-2.79141785e-01	-4.73758020e+01	-5.20176098e+01	-3.16960262e+01	-5.39355253e+01	-3.20449386e+01	-7.60809656e+00	2.95157534e+01
1254658571.43	-2.82299538e-01	-4.74303565e+01	-5.18670811e+01	-3.21236403e+01	-5.36992256e+01	-3.22631389e+01	-7.61373927e+00	2.94816992e+01
1254944142.86	-2.78124161e-01	-4.74377517e+01	-5.18085578e+01	-3.21379152e+01	-5.36877821e+01	-3.24563150e+01	-7.61625339e+00	2.94079501e+01
1255229714.29	-2.80657573e-01	-4.74469829e+01	-5.16585404e+01	-3.31739345e+01	-5.36130637e+01	-3.27690100e+01	-7.61158782e+00	2.93214491e+01
1255515285.71	-2.77907155e-01	-4.74527679e+01	-5.16330206e+01	-3.35502291e+01	-5.35042819e+01	-3.34405026e+01	-7.60219907e+00	2.92170836e+01
1255800857.14	-2.83472278e-01	-4.74684162e+01	-5.15235102e+01	-3.45382318e+01	-5.33702239e+01	-3.40590918e+01	-7.60657329e+00	2.92539879e+01
1256086428.57	-2.79623839e-01	-4.74990807e+01	-5.14997522e+01	-3.48729781e+01	-5.33894923e+01	-3.43141829e+01	-7.60465130e+00	2.92037979e+01
1256372000	-2.77364291e-01	-4.75057880e+01	-5.14876083e+01	-3.62067407e+01	-5.32709333e+01	-3.56134680e+01	-7.61632485e+00	2.90847575e+01
1256657571.43	-2.74698882e-01	-4.75261711e+01	-5.13250419e+01	-3.67129818e+01	-5.32149601e+01	-3.62933391e+01	-7.60752615e+00	2.89903302e+01
1256943142.86	-2.78707135e-01	-4.75346038e+01	-5.12242462e+01	-3.74494464e+01	-5.31287425e+01	-3.67056015e+01	-7.60990017e+00	2.88811320e+01
1257228714.29	-2.77136449e-01	-4.75635204e+01	-5.11837183e+01	-3.81126000e+01	-5.30518529e+01	-3.75998530e+01	-7.60849935e+00	2.88718679e+01
1257514285.71	-2.75011588e-01	-4.75788917e+01	-5.11328453e+01	-3.92080154e+01	-5.30287670e+01	-3.85788027e+01	-7.60381848e+00	2.87202265e+01
1257799857.14	-2.75981747e-01	-4.76297174e+01	-5.11161760e+01	-4.04505702e+01	-5.29570094e+01	-3.97154419e+01	-7.59780790e+00	2.86112258e+01
1258085428.57	-2.79248965e-01	-4.76408462e+01	-5.11152264e+01	-4.13206753e+01	-5.29677320e+01	-4.05106163e+01	-7.60308683e+00	2.85478297e+01
1258371000	-2.79376283e-01	-4.76342502e+01	-5.10125523e+01	-4.21775280e+01	-5.29292668e+01	-4.18617574e+01	-7.59459533e+00	2.84891889e+01
1258656571.43	-2.76961560e-01	-4.76361498e+01	-5.10021024e+01	-4.32942019e+01	-5.29608242e+01	-4.24515297e+01	-7.59490717e+00	2.83503933e+01
1258942142.86	-2.80157076e-01	-4.76527598e+01	-5.10223670e+01	-4.47522281e+01	-5.29586324e+01	-4.32644958e+01	-7.59737777e+00	2.82415334e+01
1259227714.29	-2.76215547e-01	-4.76765622e+01	-5.09959542e+01	-4.55863316e+01	-5.29932626e+01	-4.44913927e+01	-7.60661231e+00	2.81927679e+01
1259513285.71	-2.78713549e-01	-4.76943536e+01	-5.10974712e+01	-4.64870070e+01	-5.30012313e+01	-4.55726825e+01	-7.60671305e+00	2.80790680e+01
1259798857.14	-2.76177462e-01	-4.77028854e+01	-5.10042560e+01	-4.75782559e+01	-5.30672130e+01	-4.63350283e+01	-7.61402165e+00	2.80469417e+01
1260084428.57	-2.76964902e-01	-4.77299054e+01	-5.10823732e+01	-4.89183771e+01	-5.30474478e+01	-4.68910199e+01	-7.60846906e+00	2.79019717e+01
1260370000	-2.77689310e-01	-4.77393498e+01	-5.10650634e+01	-4.94593461e+01	-5.31565364e+01	-4.80101046e+01	-7.61543009e+00	2.78456976e+01
1260655571.43	-2.75909281e-01	-4.77389869e+01	-5.11462991e+01	-5.05467419e+01	-5.32310575e+01	-4.85837016e+01	-7.62170835e+00	2.77747417e+01
1260941142.86	-2.75853819e-01	-4.77678321e+01	-5.11468054e+01	-5.17540550e+01	-5.32793556e+01	-4.91292432e+01	-7.61819553e+00	2.76033463e+01
1261226714.29	-2.75654558e-01	-4.77910971e+01	-5.12111246e+01	-5.28409767e+01	-5.33584829e+01	-5.00236983e+01	-7.60692852e+00	2.75834994e+01
1261512285.71	-2.77959538e-01	-4.77853642e+01	-5.12279853e+01	-5.37796861e+01	-5.34135509e+01	-5.05218581e+01	-7.61572030e+00	2.74454671e+01
1261797857.14	-2.78653842e-01	-4.78025340e+01	-5.12897073e+01	-5.42681038e+01	-5.34601830e+01	-5.12380225e+01	-7.61288224e+00	2.74246346e+01
1262083428.57	-2.76948038e-01	-4.78062421e+01	-5.13776969e+01	-5.47766231e+01	-5.35616460e+01	-5.15209328e+01	-7.62093849e+00	2.73165817e+01
1262369000	-2.76973323e-01	-4.78092130e+01	-5.13265184e+01	-5.59415316e+01	-5.36159442e+01	-5.20668954e+01	-7.59550972e+00	2.72347927e+01
1262654571.43	-2.76267750e-01	-4.78466863e+01	-5.15028404e+01	-5.67018748e+01	-5.37445496e+01	-5.25340914e+01	-7.60936726e+00	2.71832830e+01
1262940142.86	-2.78352015e-01	-4.78621178e+01	-5.14916235e+01	-5.80948469e+01	-5.37948187e+01	-5.31450137e+01	-7.61477262e+00	2.70804690e+01
1263225714.29	-2.75607416e-01	-4.78619353e+01	-5.16025010e+01	-5.80715891e+01	-5.39296493e+01	-5.26837743e+01	-7.63367094e+00	2.70226808e+01
1263511285.71	-2.77179543e-01	-4.78567309e+01	-5.16748237e+01	-5.94802932e+01	-5.39218055e+01	-5.37967132e+01	-7.62694132e+00	2.68836635e+01
1263796857.14	-2.75827308e-01	-4.78723078e+01	-5.16863541e+01	-6.01261488e+01	-5.40764541e+01	-5.37780692e+01	-7.63518271e+00	2.68856293e+01
1264082428.57	-2.72691100e-01	-4.78814737e+01	-5.18426487e+01	-6.08806104e+01	-5.41449081e+01	-5.42941262e+01	-7.62941429e+00	2.68259198e+01
1264368000	-2.73313653e-01	-4.79228310e+01	-5.19206027e+01	-6.13922870e+01	-5.42461983e+01	-5.43792129e+01	-7.64030674e+00	2.68447353e+01
1264653571.43	-2.72001742e-01	-4.79315928e+01	-5.20671649e+01	-6.20529399e+01	-5.43328618e+01	-5.49343927e+01	-7.63527812e+00	2.68266295e+01
1264939142.86	-2.71965981e-01	-4.79537967e+01	-5.21227725e+01	-6.28708941e+01	-5.44023391e+01	-5.50121675e+01	-7.64560015e+00	2.68145476e+01
1265224714.29	-2.75927719e-01	-4.79723510e+01	-5.22511066e+01	-6.35217056e+01	-5.45026578e+01	-5.52246556e+01	-7.64807746e+00	2.66524147e+01
1265510285.71	-2.75309782e-01	-4.79589655e+01	-5.22998177e+01	-6.44841178e+01	-5.46507732e+01	-5.51994221e+01	-7.64271721e+00	2.67239736e+01
1265795857.14	-2.73607520e-01	-4.79809229e+01	-5.24722842e+01	-6.45213890e+01	-5.47478538e+01	-5.57810952e+01	-7.66362981e+00	2.66762658e+01
1266081428.57	-2.68989062e-01	-4.80015311e+01	-5.25636902e+01	-6.53866849e+01	-5.49381645e+01	-5.49922288e+01	-7.66553481e+00	2.66396790e+01
1266367000	-2.70363931e-01	-4.79824718e+01	-5.28234976e+01	-6.56205200e+01	-5.50604766e+01	-5.54524220e+01	-7.66570955e+00	2.65170038e+01
1266652571.43	-2.70326201e-01	-4.79902713e+01	-5.28905778e+01	-6.57586119e+01	-5.51264975e+01	-5.46504520e+01	-7.67108899e+00	2.64871619e+01
1266938142.86	-2.70439584e-01	-4.80058619e+01	-5.30641848e+01	-6.66441486e+01	-5.52527629e+01	-5.41127331e+01	-7.67330781e+00	2.64405727e+01
1267223714.29	-2.74255446e-01	-4.80248802e+01	-5.31936373e+01	-6.66543519e+01	-5.54060889e+01	-5.41535832e+01	-7.68282970e+00	2.64749144e+01
1267509285.71	-2.72558388e-01	-4.80325969e+01	-5.34383365e+01	-6.67145404e+01	-5.55475533e+01	-5.39897384e+01	-7.67542305e+00	2.63422159e+01
1267794857.14	-2.75367575e-01	-4.80486109e+01	-5.36523204e+01	-6.65262376e+01	-5.57361756e+01	-5.33933761e+01	-7.67843772e+00	2.62580100e+01
1268080428.57	-2.74516625e-01	-4.80606578e+01	-5.37521481e+01	-6.68537332e+01	-5.59026140e+01	-5.20398229e+01	-7.67837041e+00	2.62975066e+01
1268366000	-2.76272148e-01	-4.80939402e+01	-5.39950690e+01	-6.62790297e+01	-5.58113909e+01	-5.09837064e+01	-7.68938472e+00	2.62248362e+01
1268651571.43	-2.75470483e-01	-4.80821761e+01	-5.40572167e+01	-6.55528862e+01	-5.60584299e+01	-5.01048918e+01	-7.69178874e+00	2.61012078e+01
1268937142.86	-2.75499824e-01	-4.80975159e+01	-5.42480086e+01	-6.56090304e+01	-5.60049777e+01	-4.85386516e+01	-7.68440130e+00	2.60353003e+01
1269222714.29	-2.70563637e-01	-4.81064851e+01	-5.44413637e+01	-6.40066229e+01	-5.60562253e+01	-4.70660407e+01	-7.68971025e+00	2.59355311e+01
1269508285.71	-2.75309105e-01	-4.81027954e+01	-5.45462465e+01	-6.39281772e+01	-5.59906071e+01	-4.60898409e+01	-7.69457477e+00	2.58203156e+01
1269793857.14	-2.75479544e-01	-4.81039933e+01	-5.46268861e+01	-6.27738190e+01	-5.60277429e+01	-4.44814399e+01	-7.68891803e+00	2.57393579e+01
1270079428.57	-2.75967330e-01	-4.81149791e+01	-5.46944844e+01	-6.21551220e+01	-5.59350272e+01	-4.27937007e+01	-7.69097806e+00	2.56089339e+01
1270365000	-2.76900852e-01	-4.81378729e+01	-5.47777491e+01	-6.04709331e+01	-5.58178284e+01	-4.16492790e+01	-7.69956244e+00	2.55836199e+01
1270650571.43	-2.79413688e-01	-4.81512608e+01	-5.47541189e+01	-5.95573492e+01	-5.57248485e+01	-4.00854684e+01	-7.69790065e+00	2.55750766e+01
1270936142.86	-2.82149985e-01	-4.81542230e+01	-5.49235685e+01	-5.79341349e+01	-5.55455072e+01	-3.89835321e+01	-7.68401357e+00	2.55139858e+01
1271221714.29	-2.78300530e-01	-4.81689746e+01	-5.48584284e+01	-5.69704677e+01	-5.55129350e+01	-3.78805614e+01	-7.67801921e+00	2.54441104e+01
1271507285.71	-2.79304012e-01	-4.81804320e+01	-5.49081011e+01	-5.64571924e+01	-5.52461043e+01	-3.72446539e+01	-7.67344625e+00	2.53602760e+01
1271792857.14	-2.79577370e-01	-4.81699444e+01	-5.47362427e+01	-5.51587518e+01	-5.50859137e+01	-3.63684771e+01	-7.68539375e+00	2.52655243e+01
1272078428.57	-2.82020425e-01	-4.82036773e+01	-5.46762599e+01	-5.37399835e+01	-5.48868206e+01	-3.54083921e+01	-7.68045449e+00	2.52516650e+01
1272364000	-2.80763067e-01	-4.82095735e+01	-5.47415207e+01	-5.26979686e+01	-5.47322596e+01	-3.46893642e+01	-7.68030427e+00	2.52635975e+01
1272649571.43	-2.80619528e-01	-4.82102883e+01	-5.45300661e+01	-5.15235139e+01	-5.44659021e+01	-3.38280471e+01	-7.67820141e+00	2.51383017e+01
1272935142.86	-2.76038470e-01	-4.82370293e+01	-5.44209251e+01	-5.07885510e+01	-5.43164188e+01	-3.40918507e+01	-7.67680203e+00	2.50134516e+01
1273220714.29	-2.77365951e-01	-4.82571899e+01	-5.43052621e+01	-5.01565094e+01	-5.40747032e+01	-3.39207408e+01	-7.66547002e+00	2.49079819e+01
1273506285.71	-2.74772202e-01	-4.82955942e+01	-5.41819569e+01	-4.96413213e+01	-5.39147070e+01	-3.37342378e+01	-7.66943817e+00	2.47543203e+01
1273791857.14	-2.72195004e-01	-4.83163467e+01	-5.40598314e+01	-4.88361643e+01	-5.36243370e+01	-3.35836820e+01	-7.68225095e+00	2.47541094e+01
1274077428.57	-2.75295958e-01	-4.83025973e+01	-5.39700557e+01	-4.85797837e+01	-5.35492549e+01	-3.36669824e+01	-7.67403923e+00	2.46500265e+01
1274363000	-2.75909744e-01	-4.83010427e+01	-5.38524788e+01	-4.81020862e+01	-5.33401460e+01	-3.30909190e+01	-7.67445909e+00	2.45895521e+01
1274648571.43	-2.77751274e-01	-4.83011714e+01	-5.36318546e+01	-4.79593981e+01	-5.31664671e+01	-3.33097063e+01	-7.67636583e+00	2.45649518e+01
1274934142.86	-2.74327119e-01	-4.83216704e+01	-5.34721511e+01	-4.73202546e+01	-5.29264500e+01	-3.38415600e+01	-7.66132681e+00	2.45025427e+01
1275219714.29	-2.76516507e-01	-4.83327380e+01	-5.34186886e+01	-4.66698408e+01	-5.27898209e+01	-3.38123521e+01	-7.67132826e+00	2.44608027e+01
1275505285.71	-2.74904246e-01	-4.83305735e+01	-5.32168728e+01	-4.64824554e+01	-5.25586306e+01	-3.39915527e+01	-7.66926296e+00	2.44246452e+01
1275790857.14	-2.73129721e-01	-4.83568364e+01	-5.30299894e+01	-4.63931458e+01	-5.24445800e+01	-3.42506046e+01	-7.66589253e+00	2.43193164e+01
1276076428.57	-2.68910479e-01	-4.83845947e+01	-5.29774659e+01	-4.60896563e+01	-5.22726143e+01	-3.43342417e+01	-7.65630000e+00	2.42180007e+01
1276362000	-2.69955820e-01	-4.84009732e+01	-5.27733889e+01	-4.57983173e+01	-5.20005195e+01	-3.48341219e+01	-7.67185137e+00	2.40881162e+01
1276647571.43	-2.70555061e-01	-4.84174080e+01	-5.26079042e+01	-4.63669257e+01	-5.18600740e+01	-3.52196441e+01	-7.67320945e+00	2.40930509e+01
1276933142.86	-2.71437211e-01	-4.84268458e+01	-5.25015502e+01	-4.62752503e+01	-5.17042245e+01	-3.55179066e+01	-7.67117714e+00	2.39691464e+01
1277218714.29	-2.70434183e-01	-4.84337517e+01	-5.23156159e+01	-4.61513875e+01	-5.15259206e+01	-3.60189069e+01	-7.68223240e+00	2.38256702e+01
1277504285.71	-2.69993370e-01	-4.84538879e+01	-5.21826012e+01	-4.59333470e+01	-5.14127612e+01	-3.63950992e+01	-7.67624038e+00	2.37624382e+01
1277789857.14	-2.67889226e-01	-4.84602197e+01	-5.19524551e+01	-4.60627917e+01	-5.12233708e+01	-3.63470270e+01	-7.67552391e+00	2.37413721e+01
1278075428.57	-2.73412621e-01	-4.84731132e+01	-5.18463969e+01	-4.61861404e+01	-5.10564218e+01	-3.71349137e+01	-7.68453542e+00	2.36973823e+01
1278361000	-2.71824430e-01	-4.84839544e+01	-5.16983534e+01	-4.68062589e+01	-5.10014402e+01	-3.76867443e+01	-7.68381006e+00	2.35691910e+01
1278646571.43	-2.69128153e-01	-4.84748203e+01	-5.14919169e+01	-4.70588082e+01	-5.07637760e+01	-3.79315790e+01	-7.70289625e+00	2.33267341e+01
1278932142.86	-2.65738052e-01	-4.85040803e+01	-5.14417699e+01	-4.70970589e+01	-5.06224456e+01	-3.85547798e+01	-7.71009853e+00	2.32561527e+01
1279217714.29	-2.68189082e-01	-4.85078081e+01	-5.12591393e+01	-4.71503877e+01	-5.03993220e+01	-3.94162636e+01	-7.71484693e+00	2.31611107e+01
1279503285.71	-2.66941379e-01	-4.85148442e+01	-5.10795766e+01	-4.75186661e+01	-5.02909677e+01	-3.96924977e+01	-7.72563506e+00	2.30841602e+01
1279788857.14	-2.70165308e-01	-4.85444782e+01	-5.09071690e+01	-4.80682530e+01	-5.02161775e+01	-4.06082678e+01	-7.73250386e+00	2.29991207e+01
1280074428.57	-2.70200878e-01	-4.85429528e+01	-5.07606820e+01	-4.88805600e+01	-5.00228401e+01	-4.10548003e+01	-7.72768893e+00	2.29513000e+01
1280360000	-2.73033202e-01	-4.85559292e+01	-5.07050320e+01	-4.91010857e+01	-4.98179346e+01	-4.18521846e+01	-7.73117292e+00	2.28416425e+01
1280645571.43	-2.68668258e-01	-4.85590123e+01	-5.05043170e+01	-4.97139042e+01	-4.97368949e+01	-4.24309429e+01	-7.73120106e+00	2.27718268e+01
1280931142.86	-2.67767196e-01	-4.85765439e+01	-5.03507580e+01	-5.04885710e+01	-4.96352247e+01	-4.33360419e+01	-7.73294109e+00	2.26718226e+01
1281216714.29	-2.69357680e-01	-4.86007867e+01	-5.02846448e+01	-5.08916114e+01	-4.94586415e+01	-4.41077672e+01	-7.73382836e+00	2.26453359e+01
1281502285.71	-2.66640630e-01	-4.86170917e+01	-5.01981433e+01	-5.17927028e+01	-4.93342198e+01	-4.49871546e+01	-7.74351192e+00	2.25943132e+01
1281787857.14	-2.64244067e-01	-4.86343726e+01	-5.00171029e+01	-5.20273018e+01	-4.92470958e+01	-4.57158416e+01	-7.75149548e+00	2.25370930e+01
1282073428.57	-2.64840095e-01	-4.86196812e+01	-4.99388505e+01	-5.29811184e+01	-4.91027759e+01	-4.65517843e+01	-7.76073204e+00	2.23879542e+01
1282359000	-2.64814041e-01	-4.86301392e+01	-4.97958263e+01	-5.37706023e+01	-4.90048890e+01	-4.74159618e+01	-7.77581683e+00	2.24038340e+01
1282644571.43	-2.62380884e-01	-4.86493820e+01	-4.97597680e+01	-5.39073793e+01	-4.88647395e+01	-4.82477775e+01	-7.78284601e+00	2.23399631e+01
1282930142.86	-2.65902139e-01	-4.86722234e+01	-4.96030587e+01	-5.48002190e+01	-4.88138578e+01	-4.90405131e+01	-7.78490510e+00	2.22379758e+01
1283215714.29	-2.66151735e-01	-4.86707314e+01	-4.95499686e+01	-5.53172233e+01	-4.87573056e+01	-5.00850980e+01	-7.78120860e+00	2.22483813e+01
1283501285.71	-2.65839792e-01	-4.86677450e+01	-4.94968006e+01	-5.56936804e+01	-4.86441200e+01	-5.04636124e+01	-7.79261971e+00	2.22241437e+01
1283786857.14	-2.68535106e-01	-4.86744050e+01	-4.93836495e+01	-5.61879983e+01	-4.85524432e+01	-5.16075418e+01	-7.79834232e+00	2.22152258e+01
1284072428.57	-2.68703743e-01	-4.86982089e+01	-4.92544611e+01	-5.74407151e+01	-4.85426106e+01	-5.25157458e+01	-7.81239371e+00	2.21826995e+01
1284358000	-2.67449107e-01	-4.87004111e+01	-4.92062560e+01	-5.80436586e+01	-4.83920837e+01	-5.32681988e+01	-7.81535063e+00	2.22058051e+01
1284643571.43	-2.63225947e-01	-4.87014413e+01	-4.91965156e+01	-5.81410866e+01	-4.83320280e+01	-5.37278940e+01	-7.81722084e+00	2.21996443e+01
1284929142.86	-2.63412258e-01	-4.87044298e+01	-4.90886175e+01	-5.88044687e+01	-4.82471880e+01	-5.46707341e+01	-7.81281959e+00	2.21917083e+01
1285214714.29	-2.58518513e-01	-4.86978844e+01	-4.89717363e+01	-5.91192598e+01	-4.81778111e+01	-5.53578193e+01	-7.82491366e+00	2.22486505e+01
1285500285.71	-2.63591286e-01	-4.87112971e+01	-4.89475910e+01	-5.97594230e+01	-4.81457759e+01	-5.59870250e+01	-7.83789415e+00	2.22501784e+01
1285785857.14	-2.64105329e-01	-4.87394588e+01	-4.88638646e+01	-6.02178021e+01	-4.80760814e+01	-5.68631210e+01	-7.83854556e+00	2.22257810e+01
1286071428.57	-2.65880688e-01	-4.87492784e+01	-4.87414073e+01	-6.08265718e+01	-4.80111814e+01	-5.76071354e+01	-7.83815444e+00	2.22403938e+01
1286357000	-2.64833641e-01	-4.87679469e+01	-4.86781524e+01	-6.13321823e+01	-4.79121931e+01	-5.82911177e+01	-7.85070763e+00	2.22408289e+01
1286642571.43	-2.67160879e-01	-4.87683728e+01	-4.85508881e+01	-6.19219662e+01	-4.78724809e+01	-5.89496946e+01	-7.85719034e+00	2.22073598e+01
1286928142.86	-2.64514338e-01	-4.87933707e+01	-4.84578248e+01	-6.24648555e+01	-4.78120921e+01	-5.96596421e+01	-7.86318026e+00	2.21876082e+01
1287213714.29	-2.64200980e-01	-4.87833103e+01	-4.84140517e+01	-6.30631378e+01	-4.77229902e+01	-6.04096707e+01	-7.86745587e+00	2.22135656e+01
1287499285.71	-2.60317110e-01	-4.87961520e+01	-4.82747287e+01	-6.36889769e+01	-4.76935525e+01	-6.10418620e+01	-7.88898406e+00	2.22007619e+01
1287784857.14	-2.62382881e-01	-4.88083881e+01	-4.82028654e+01	-6.44946267e+01	-4.76106174e+01	-6.17842230e+01	-7.89451172e+00	2.21603351e+01
1288070428.57	-2.58135614e-01	-4.87977972e+01	-4.81479442e+01	-6.50175001e+01	-4.75553795e+01	-6.22366553e+01	-7.89150024e+00	2.20930304e+01
1288356000	-2.63224757e-01	-4.88292463e+01	-4.80433779e+01	-6.54574162e+01	-4.74734679e+01	-6.29211293e+01	-7.89016831e+00	2.20768000e+01
1288641571.43	-2.61983845e-01	-4.88363285e+01	-4.79888742e+01	-6.62849670e+01	-4.74105830e+01	-6.36459886e+01	-7.89676844e+00	2.19995705e+01
1288927142.86	-2.64434609e-01	-4.88652088e+01	-4.78850025e+01	-6.71160002e+01	-4.73699667e+01	-6.45333527e+01	-7.90843691e+00	2.19945852e+01
1289212714.29	-2.63946137e-01	-4.88617192e+01	-4.77582515e+01	-6.76493148e+01	-4.72729393e+01	-6.49960756e+01	-7.92930581e+00	2.20370960e+01
1289498285.71	-2.68357228e-01	-4.88765319e+01	-4.76726888e+01	-6.83751208e+01	-4.71984927e+01	-6.56537811e+01	-7.93233861e+00	2.19969113e+01
1289783857.14	-2.71377056e-01	-4.88910157e+01	-4.76466358e+01	-6.89108852e+01	-4.71356127e+01	-6.62180934e+01	-7.94924161e+00	2.19696583e+01
1290069428.57	-2.70845312e-01	-4.88908317e+01	-4.75787603e+01	-6.99097915e+01	-4.71259172e+01	-6.71052568e+01	-7.95680996e+00	2.18902445e+01
1290355000	-2.70323345e-01	-4.88873013e+01	-4.74495309e+01	-7.05552343e+01	-4.70057071e+01	-6.77138317e+01	-7.97254295e+00	2.19162001e+01
1290640571.43	-2.67580857e-01	-4.89103556e+01	-4.74415758e+01	-7.12616365e+01	-4.69807432e+01	-6.85915693e+01	-7.98386359e+00	2.18303106e+01
1290926142.86	-2.69837015e-01	-4.89533992e+01	-4.73484507e+01	-7.22836684e+01	-4.69225536e+01	-6.92044527e+01	-7.99609236e+00	2.18083541e+01
1291211714.29	-2.70565414e-01	-4.89413444e+01	-4.73181333e+01	-7.28379301e+01	-4.68510513e+01	-6.99772097e+01	-7.99443329e+00	2.17712499e+01
1291497285.71	-2.69609434e-01	-4.89373462e+01	-4.72464579e+01	-7.36061832e+01	-4.68070970e+01	-7.06208918e+01	-7.99978881e+00	2.18553476e+01
1291782857.14	-2.71455860e-01	-4.89687099e+01	-4.71845103e+01	-7.44891570e+01	-4.67545643e+01	-7.16352351e+01	-8.00482322e+00	2.17543894e+01
1292068428.57	-2.71501927e-01	-4.89844062e+01	-4.71732984e+01	-7.52138808e+01	-4.66862050e+01	-7.22197826e+01	-8.02818253e+00	2.17498806e+01
1292354000	-2.75027742e-01	-4.89934108e+01	-4.71006401e+01	-7.59021853e+01	-4.66402676e+01	-7.29106951e+01	-8.03461631e+00	2.16949695e+01
1292639571.43	-2.73459310e-01	-4.90073525e+01	-4.70643459e+01	-7.68442798e+01	-4.66243573e+01	-7.36552377e+01	-8.04468049e+00	2.16914310e+01
1292925142.86	-2.72739660e-01	-4.90093469e+01	-4.70118431e+01	-7.73536235e+01	-4.65426671e+01	-7.45364495e+01	-8.04515431e+00	2.16806152e+01
1293210714.29	-2.75410660e-01	-4.90306037e+01	-4.69438270e+01	-7.81714424e+01	-4.64721291e+01	-7.51100124e+01	-8.05861332e+00	2.16357591e+01
1293496285.71	-2.73241911e-01	-4.90358131e+01	-4.69210148e+01	-7.88529562e+01	-4.64259526e+01	-7.58130776e+01	-8.05778645e+00	2.16711404e+01
1293781857.14	-2.76079746e-01	-4.90679219e+01	-4.68833159e+01	-7.96244553e+01	-4.63493349e+01	-7.63433385e+01	-8.06928614e+00	2.17217312e+01
1294067428.57	-2.80604387e-01	-4.90945905e+01	-4.68517608e+01	-8.01402542e+01	-4.63239624e+01	-7.69641014e+01	-8.05742323e+00	2.16920772e+01
1294353000	-2.77434944e-01	-4.90759094e+01	-4.67848153e+01	-8.09593064e+01	-4.63095274e+01	-7.78803798e+01	-8.08204724e+00	2.17321553e+01
1294638571.43	-2.75858607e-01	-4.91099638e+01	-4.67857024e+01	-8.14621433e+01	-4.62037476e+01	-7.86048421e+01	-8.08709731e+00	2.17740133e+01
1294924142.86	-2.74055199e-01	-4.91067563e+01	-4.67260131e+01	-8.24792331e+01	-4.61871692e+01	-7.91877032e+01	-8.09422336e+00	2.17141239e+01
1295209714.29	-2.70830610e-01	-4.91104660e+01	-4.66946515e+01	-8.28793846e+01	-4.61258950e+01	-7.99467883e+01	-8.09424392e+00	2.16834141e+01
1295495285.71	-2.69040032e-01	-4.91220972e+01	-4.66327391e+01	-8.35563164e+01	-4.60446730e+01	-8.08911626e+01	-8.10229368e+00	2.16246779e+01
1295780857.14	-2.72049336e-01	-4.91002202e+01	-4.65580597e+01	-8.41450155e+01	-4.60269061e+01	-8.17160686e+01	-8.10901632e+00	2.15981201e+01
1296066428.57	-2.74495002e-01	-4.91178970e+01	-4.64959459e+01	-8.49420533e+01	-4.59929010e+01	-8.22559482e+01	-8.11326541e+00	2.16087313e+01
1296352000	-2.73574765e-01	-4.91222715e+01	-4.64790612e+01	-8.56960232e+01	-4.59080960e+01	-8.29653415e+01	-8.12228934e+00	2.16030445e+01
1296637571.43	-2.73081082e-01	-4.91295647e+01	-4.64621519e+01	-8.66481261e+01	-4.58539213e+01	-8.38735368e+01	-8.13565790e+00	2.15915546e+01
1296923142.86	-2.72880739e-01	-4.91606210e+01	-4.64212626e+01	-8.72008895e+01	-4.57742827e+01	-8.45118223e+01	-8.14204507e+00	2.16876141e+01
1297208714.29	-2.78400372e-01	-4.91427341e+01	-4.63607219e+01	-8.78235507e+01	-4.57621584e+01	-8.54065157e+01	-8.14101687e+00	2.17119981e+01
1297494285.71	-2.78751855e-01	-4.91819750e+01	-4.63395225e+01	-8.88178474e+01	-4.57265588e+01	-8.64198665e+01	-8.15876491e+00	2.17714073e+01
1297779857.14	-2.75276718e-01	-4.91781717e+01	-4.63405125e+01	-8.95055878e+01	-4.56712111e+01	-8.71952032e+01	-8.15482490e+00	2.17673913e+01
1298065428.57	-2.72269137e-01	-4.91936977e+01	-4.62721249e+01	-9.03999458e+01	-4.56144279e+01	-8.79988974e+01	-8.16318823e+00	2.17220085e+01
1298351000	-2.79097103e-01	-4.91845742e+01	-4.62444740e+01	-9.10639987e+01	-4.55390684e+01	-8.88400372e+01	-8.17399646e+00	2.17167740e+01
1298636571.43	-2.81228966e-01	-4.91892507e+01	-4.62296327e+01	-9.18132489e+01	-4.55322802e+01	-8.99835324e+01	-8.17587710e+00	2.17520906e+01
1298922142.86	-2.77632842e-01	-4.92005297e+01	-4.62041664e+01	-9.25753789e+01	-4.55078987e+01	-9.08000847e+01	-8.18112178e+00	2.17748045e+01
1299207714.29	-2.75982562e-01	-4.91954022e+01	-4.61403568e+01	-9.37956575e+01	-4.54649369e+01	-9.16681607e+01	-8.18340386e+00	2.18097556e+01
1299493285.71	-2.82778956e-01	-4.92062109e+01	-4.61611107e+01	-9.41073605e+01	-4.54764806e+01	-9.25839509e+01	-8.17016484e+00	2.18183605e+01
1299778857.14	-2.77656077e-01	-4.92206276e+01	-4.61570583e+01	-9.50620274e+01	-4.54071016e+01	-9.32701385e+01	-8.18762734e+00	2.18282551e+01
1300064428.57	-2.78793120e-01	-4.92215223e+01	-4.61390019e+01	-9.56397347e+01	-4.54069653e+01	-9.43839704e+01	-8.17108545e+00	2.18070822e+01
1300350000	-2.77972850e-01	-4.92296473e+01	-4.61196868e+01	-9.64378551e+01	-4.54023117e+01	-9.53315700e+01	-8.19159619e+00	2.16819462e+01
1300635571.43	-2.78366127e-01	-4.92489394e+01	-4.61442364e+01	-9.70181173e+01	-4.53985267e+01	-9.61206355e+01	-8.19016968e+00	2.17088149e+01
1300921142.86	-2.79425988e-01	-4.92681754e+01	-4.60995717e+01	-9.78220489e+01	-4.54112461e+01	-9.71194108e+01	-8.17913968e+00	2.17767058e+01
1301206714.29	-2.81478166e-01	-4.93074732e+01	-4.61212558e+01	-9.86715309e+01	-4.53901773e+01	-9.80165891e+01	-8.17830109e+00	2.18217507e+01
1301492285.71	-2.79890519e-01	-4.93180922e+01	-4.61343677e+01	-9.94766781e+01	-4.53933140e+01	-9.87902898e+01	-8.17546019e+00	2.17427991e+01
1301777857.14	-2.81212032e-01	-4.92873210e+01	-4.60923444e+01	-9.99541296e+01	-4.54047941e+01	-9.93662041e+01	-8.18171192e+00	2.17403361e+01
1302063428.57	-2.79145693e-01	-4.93074284e+01	-4.61562241e+01	-1.00541365e+02	-4.54148031e+01	-1.00397587e+02	-8.18250489e+00	2.17710007e+01
1302349000	-2.81348568e-01	-4.93251352e+01	-4.61245276e+01	-1.01206978e+02	-4.54376870e+01	-1.01330375e+02	-8.17289242e+00	2.17957862e+01
1302634571.43	-2.81511664e-01	-4.93300801e+01	-4.61587738e+01	-1.02026574e+02	-4.54568124e+01	-1.02016817e+02	-8.17494444e+00	2.17602018e+01
1302920142.86	-2.78250949e-01	-4.93274475e+01	-4.61450819e+01	-1.02276039e+02	-4.54660091e+01	-1.02812217e+02	-8.17280163e+00	2.16633573e+01
1303205714.29	-2.78930323e-01	-4.93241905e+01	-4.61393567e+01	-1.03223913e+02	-4.54898043e+01	-1.03451329e+02	-8.16758755e+00	2.16669812e+01
1303491285.71	-2.80297405e-01	-4.93446218e+01	-4.61219223e+01	-1.03605125e+02	-4.55256027e+01	-1.04199824e+02	-8.16109090e+00	2.16152880e+01
1303776857.14	-2.83843255e-01	-4.93839464e+01	-4.61610999e+01	-1.04144723e+02	-4.55497996e+01	-1.04776149e+02	-8.17028850e+00	2.15379439e+01
1304062428.57	-2.83562505e-01	-4.93949165e+01	-4.61704634e+01	-1.04583492e+02	-4.55543403e+01	-1.05273509e+02	-8.16076757e+00	2.14890590e+01
1304348000	-2.85789178e-01	-4.93862333e+01	-4.61958127e+01	-1.05281524e+02	-4.55591073e+01	-1.06030341e+02	-8.15855609e+00	2.14718125e+01
1304633571.43	-2.86182597e-01	-4.94082556e+01	-4.61906833e+01	-1.05753679e+02	-4.55971076e+01	-1.06507093e+02	-8.14821422e+00	2.14925066e+01
1304919142.86	-2.85524828e-01	-4.94399970e+01	-4.61819812e+01	-1.06418446e+02	-4.55998592e+01	-1.07344093e+02	-8.15339179e+00	2.14607751e+01
1305204714.29	-2.86110316e-01	-4.94693401e+01	-4.61737158e+01	-1.06906175e+02	-4.56277287e+01	-1.07876334e+02	-8.15070090e+00	2.15222688e+01
1305490285.71	-2.86019739e-01	-4.94812779e+01	-4.61977109e+01	-1.07547039e+02	-4.56118503e+01	-1.08441756e+02	-8.15822674e+00	2.14606050e+01
1305775857.14	-2.87140638e-01	-4.95152262e+01	-4.62040441e+01	-1.08022675e+02	-4.56670733e+01	-1.09083041e+02	-8.15501347e+00	2.14393128e+01
1306061428.57	-2.86366120e-01	-4.95049759e+01	-4.62192135e+01	-1.08227849e+02	-4.56976622e+01	-1.09523112e+02	-8.15174656e+00	2.14469949e+01
1306347000	-2.86424002e-01	-4.95134068e+01	-4.62004874e+01	-1.08807069e+02	-4.56857246e+01	-1.10047101e+02	-8.13635324e+00	2.13723009e+01
1306632571.43	-2.88004564e-01	-4.95383340e+01	-4.62137832e+01	-1.09582960e+02	-4.56922852e+01	-1.10499412e+02	-8.13619334e+00	2.13183426e+01
1306918142.86	-2.86443042e-01	-4.95469612e+01	-4.62321343e+01	-1.09794669e+02	-4.57303669e+01	-1.10969564e+02	-8.14460810e+00	2.13461556e+01
1307203714.29	-2.91846416e-01	-4.95587638e+01	-4.62390546e+01	-1.10309517e+02	-4.57606026e+01	-1.11490699e+02	-8.14898761e+00	2.12523112e+01
1307489285.71	-2.93568427e-01	-4.95833761e+01	-4.62418520e+01	-1.10840763e+02	-4.57562115e+01	-1.11949714e+02	-8.13867780e+00	2.11857135e+01
1307774857.14	-2.90652013e-01	-4.95829751e+01	-4.62094466e+01	-1.11333699e+02	-4.57973918e+01	-1.12514024e+02	-8.14151404e+00	2.11504027e+01
1308060428.57	-2.92173164e-01	-4.96407496e+01	-4.62264313e+01	-1.11545525e+02	-4.57895206e+01	-1.12956316e+02	-8.13556325e+00	2.10646946e+01
1308346000	-2.90138402e-01	-4.96493366e+01	-4.62172666e+01	-1.12068101e+02	-4.58110986e+01	-1.13282544e+02	-8.12420650e+00	2.09130833e+01
1308631571.43	-2.90828205e-01	-4.96539693e+01	-4.62330974e+01	-1.12582628e+02	-4.58109466e+01	-1.13816690e+02	-8.11704014e+00	2.09140271e+01
1308917142.86	-2.91010524e-01	-4.96496456e+01	-4.62102451e+01	-1.13158380e+02	-4.58407183e+01	-1.14164514e+02	-8.11753829e+00	2.07896541e+01
1309202714.29	-2.97364374e-01	-4.96872232e+01	-4.62274071e+01	-1.13181740e+02	-4.58469453e+01	-1.14542341e+02	-8.11230234e+00	2.07728080e+01
1309488285.71	-2.92785015e-01	-4.97150038e+01	-4.62700852e+01	-1.13559063e+02	-4.58545516e+01	-1.15157351e+02	-8.10974764e+00	2.06908035e+01
1309773857.14	-2.96055594e-01	-4.97301847e+01	-4.62486563e+01	-1.14126348e+02	-4.58766137e+01	-1.15511015e+02	-8.10829191e+00	2.06544833e+01
1310059428.57	-2.96503079e-01	-4.97582767e+01	-4.62718822e+01	-1.14496758e+02	-4.58594751e+01	-1.15873947e+02	-8.11061637e+00	2.05574211e+01
1310345000	-2.95539817e-01	-4.97640540e+01	-4.62389871e+01	-1.14869966e+02	-4.58587161e+01	-1.16429843e+02	-8.10294725e+00	2.06330359e+01
1310630571.43	-2.98946077e-01	-4.97900144e+01	-4.62362823e+01	-1.15256805e+02	-4.58501103e+01	-1.16601964e+02	-8.09805543e+00	2.04625883e+01
1310916142.86	-2.98140795e-01	-4.97962359e+01	-4.62151218e+01	-1.15621498e+02	-4.58766833e+01	-1.17254757e+02	-8.08846727e+00	2.05308311e+01
1311201714.29	-2.97468012e-01	-4.98338646e+01	-4.62342154e+01	-1.15846923e+02	-4.58895435e+01	-1.17466128e+02	-8.09858734e+00	2.03717359e+01
1311487285.71	-2.95582417e-01	-4.98396170e+01	-4.61943875e+01	-1.16279147e+02	-4.58673611e+01	-1.17863645e+02	-8.09096031e+00	2.02622518e+01
1311772857.14	-2.97759572e-01	-4.98823495e+01	-4.62050478e+01	-1.16854045e+02	-4.58863576e+01	-1.18331496e+02	-8.08801147e+00	2.03326344e+01
1312058428.57	-3.03514638e-01	-4.98709885e+01	-4.62516501e+01	-1.16750626e+02	-4.59000236e+01	-1.18569392e+02	-8.07669400e+00	2.02475024e+01
1312344000	-3.03683913e-01	-4.99190431e+01	-4.62057125e+01	-1.17296222e+02	-4.59003597e+01	-1.19046229e+02	-8.08443002e+00	2.01819820e+01
1312629571.43	-3.06858296e-01	-4.99143584e+01	-4.62044853e+01	-1.17746424e+02	-4.59272642e+01	-1.19474314e+02	-8.08208320e+00	2.01742093e+01
1312915142.86	-3.06914418e-01	-4.99528432e+01	-4.61829519e+01	-1.18096588e+02	-4.59216388e+01	-1.19831116e+02	-8.08034223e+00	2.01276619e+01
1313200714.29	-3.04047673e-01	-4.99726717e+01	-4.62046734e+01	-1.18508404e+02	-4.59137738e+01	-1.20276970e+02	-8.07632710e+00	2.01100212e+01
1313486285.71	-3.06922613e-01	-4.99408574e+01	-4.61997880e+01	-1.18919089e+02	-4.59108930e+01	-1.20546757e+02	-8.07730225e+00	1.99799637e+01
1313771857.14	-3.03667314e-01	-4.99690837e+01	-4.62031126e+01	-1.19316104e+02	-4.59328071e+01	-1.21016697e+02	-8.07924307e+00	1.99481504e+01
1314057428.57	-3.04698356e-01	-4.99726757e+01	-4.61552203e+01	-1.19596702e+02	-4.59682270e+01	-1.21418457e+02	-8.08494046e+00	1.99738370e+01
1314343000	-3.01834795e-01	-5.00353784e+01	-4.61744165e+01	-1.19845614e+02	-4.59465306e+01	-1.21854127e+02	-8.08606789e+00	1.99070424e+01
1314628571.43	-2.95924679e-01	-5.00402790e+01	-4.61525775e+01	-1.20267105e+02	-4.59395958e+01	-1.21987075e+02	-8.08603318e+00	1.98258712e+01
1314914142.86	-3.01212471e-01	-5.00403388e+01	-4.61395340e+01	-1.20543287e+02	-4.59794385e+01	-1.22356109e+02	-8.07683157e+00	1.98225109e+01
1315199714.29	-3.01933244e-01	-5.00604638e+01	-4.61560295e+01	-1.20804787e+02	-4.59793306e+01	-1.22613634e+02	-8.07943940e+00	1.97936192e+01
1315485285.71	-3.07935808e-01	-5.00596051e+01	-4.61457937e+01	-1.21114117e+02	-4.59696960e+01	-1.22764386e+02	-8.09051791e+00	1.96753948e+01
1315770857.14	-3.08986454e-01	-5.01212424e+01	-4.61794982e+01	-1.21365215e+02	-4.59928527e+01	-1.22901158e+02	-8.08929068e+00	1.96908109e+01
1316056428.57	-3.10156606e-01	-5.01079268e+01	-4.61858377e+01	-1.21868250e+02	-4.60180362e+01	-1.23485062e+02	-8.08401663e+00	1.96702324e+01
1316342000	-3.09542570e-01	-5.01484815e+01	-4.61652457e+01	-1.22086521e+02	-4.60112702e+01	-1.23614959e+02	-8.07499746e+00	1.96137231e+01
1316627571.43	-3.10610254e-01	-5.01166861e+01	-4.61452771e+01	-1.22197765e+02	-4.59936909e+01	-1.23630235e+02	-8.07123244e+00	1.96652047e+01
1316913142.86	-3.04981530e-01	-5.01576386e+01	-4.61468296e+01	-1.22461238e+02	-4.60354147e+01	-1.23862052e+02	-8.06971465e+00	1.96371037e+01
1317198714.29	-3.04755482e-01	-5.01695810e+01	-4.61237027e+01	-1.22594134e+02	-4.60220026e+01	-1.24044291e+02	-8.05359353e+00	1.95206265e+01
1317484285.71	-3.03073497e-01	-5.01713533e+01	-4.61040102e+01	-1.22892102e+02	-4.60012041e+01	-1.24179005e+02	-8.05889093e+00	1.95126097e+01
1317769857.14	-3.07595855e-01	-5.01976869e+01	-4.60971197e+01	-1.22748881e+02	-4.59875274e+01	-1.24393430e+02	-8.06321906e+00	1.93689149e+01
1318055428.57	-3.05807822e-01	-5.02184754e+01	-4.60772204e+01	-1.22928577e+02	-4.59650999e+01	-1.24504678e+02	-8.05724700e+00	1.93251748e+01
1318341000	-3.06663396e-01	-5.02519222e+01	-4.60680261e+01	-1.23075994e+02	-4.59575002e+01	-1.24730349e+02	-8.05160664e+00	1.93083590e+01
1318626571.43	-3.04360853e-01	-5.02695600e+01	-4.60277726e+01	-1.23575064e+02	-4.59012250e+01	-1.24624488e+02	-8.04752358e+00	1.94010896e+01
1318912142.86	-3.10710953e-01	-5.02890467e+01	-4.59890427e+01	-1.23520419e+02	-4.59219458e+01	-1.24729787e+02	-8.03452178e+00	1.93359420e+01
1319197714.29	-3.09896903e-01	-5.03365541e+01	-4.59569699e+01	-1.23342199e+02	-4.58753429e+01	-1.24935305e+02	-8.04243163e+00	1.92403778e+01
1319483285.71	-3.11432423e-01	-5.02879929e+01	-4.58887024e+01	-1.23865778e+02	-4.58182147e+01	-1.24925932e+02	-8.03356014e+00	1.92946430e+01
1319768857.14	-3.13330958e-01	-5.02907452e+01	-4.58286025e+01	-1.23763996e+02	-4.58002888e+01	-1.25090476e+02	-8.02015580e+00	1.92701722e+01
1320054428.57	-3.14058862e-01	-5.03012992e+01	-4.57723894e+01	-1.23869765e+02	-4.57361009e+01	-1.25336418e+02	-8.01734821e+00	1.92570241e+01
1320340000	-3.12739946e-01	-5.03600163e+01	-4.57341071e+01	-1.24149802e+02	-4.56911879e+01	-1.25515939e+02	-8.01113117e+00	1.91062412e+01
1320625571.43	-3.13044367e-01	-5.03801398e+01	-4.56923909e+01	-1.24720963e+02	-4.56352468e+01	-1.25611900e+02	-8.00192122e+00	1.90920480e+01
1320911142.86	-3.10465219e-01	-5.04084115e+01	-4.56402863e+01	-1.24914025e+02	-4.55786199e+01	-1.26024631e+02	-7.99112075e+00	1.91072036e+01
1321196714.29	-3.13436309e-01	-5.04185532e+01	-4.55661503e+01	-1.25324894e+02	-4.55307481e+01	-1.26092188e+02	-7.98993007e+00	1.90941388e+01
1321482285.71	-3.10653053e-01	-5.04123030e+01	-4.55176423e+01	-1.25436508e+02	-4.54846602e+01	-1.26251491e+02	-7.97428805e+00	1.91931884e+01
1321767857.14	-3.11231504e-01	-5.04434938e+01	-4.54260229e+01	-1.25738739e+02	-4.54026933e+01	-1.26615783e+02	-7.96643389e+00	1.91550216e+01
1322053428.57	-3.12844334e-01	-5.04796093e+01	-4.53879098e+01	-1.26286847e+02	-4.53956820e+01	-1.26911009e+02	-7.96628533e+00	1.91864695e+01
1322339000	-3.13145106e-01	-5.04828350e+01	-4.53357452e+01	-1.26710630e+02	-4.53077640e+01	-1.27305129e+02	-7.96020950e+00	1.91053550e+01
1322624571.43	-3.10463207e-01	-5.05127561e+01	-4.52960847e+01	-1.27076014e+02	-4.52542253e+01	-1.27800327e+02	-7.95167781e+00	1.91304573e+01
1322910142.86	-3.13307810e-01	-5.05040545e+01	-4.52098299e+01	-1.27401393e+02	-4.52238550e+01	-1.28014997e+02	-7.96106908e+00	1.91349946e+01
1323195714.29	-3.14584181e-01	-5.05282602e+01	-4.51526961e+01	-1.27723531e+02	-4.51929634e+01	-1.28493415e+02	-7.95294474e+00	1.91404653e+01
1323481285.71	-3.14185362e-01	-5.05517010e+01	-4.50980029e+01	-1.28469055e+02	-4.51139264e+01	-1.28819451e+02	-7.94604421e+00	1.90771482e+01
1323766857.14	-3.12205587e-01	-5.05554972e+01	-4.50253909e+01	-1.28637906e+02	-4.50427793e+01	-1.29237764e+02	-7.93766233e+00	1.90680812e+01
1324052428.57	-3.11306682e-01	-5.05907933e+01	-4.50188056e+01	-1.29236594e+02	-4.49909487e+01	-1.29605624e+02	-7.93356958e+00	1.90591986e+01
1324338000	-3.13535145e-01	-5.06071484e+01	-4.49442032e+01	-1.29701282e+02	-4.49606967e+01	-1.30065271e+02	-7.92839316e+00	1.89649728e+01
1324623571.43	-3.10332214e-01	-5.05962647e+01	-4.48549442e+01	-1.30133885e+02	-4.48880300e+01	-1.30661540e+02	-7.93014130e+00	1.89831508e+01
1324909142.86	-3.11312509e-01	-5.05975503e+01	-4.48311312e+01	-1.30654169e+02	-4.48309074e+01	-1.31032695e+02	-7.91763133e+00	1.89641270e+01
1325194714.29	-3.13466382e-01	-5.06195994e+01	-4.47701175e+01	-1.31201306e+02	-4.47777365e+01	-1.31405344e+02	-7.91334619e+00	1.89320750e+01
1325480285.71	-3.17014605e-01	-5.06226377e+01	-4.47480432e+01	-1.31428937e+02	-4.47134289e+01	-1.31671080e+02	-7.89826821e+00	1.88307667e+01
1325765857.14	-3.15533436e-01	-5.06515646e+01	-4.46434990e+01	-1.32152507e+02	-4.46724903e+01	-1.32324728e+02	-7.90087643e+00	1.87716943e+01
1326051428.57	-3.13122472e-01	-5.06783242e+01	-4.46082975e+01	-1.32640418e+02	-4.46225681e+01	-1.32835674e+02	-7.88857332e+00	1.87151159e+01
1326337000	-3.10736759e-01	-5.06764639e+01	-4.45720661e+01	-1.33215477e+02	-4.45862062e+01	-1.33159329e+02	-7.88856662e+00	1.86480704e+01
1326622571.43	-3.16968334e-01	-5.06494063e+01	-4.45144043e+01	-1.33692962e+02	-4.45159739e+01	-1.33851869e+02	-7.88136695e+00	1.86131211e+01
1326908142.86	-3.19548444e-01	-5.06508304e+01	-4.44530641e+01	-1.34333039e+02	-4.44715966e+01	-1.34268591e+02	-7.87433291e+00	1.85202111e+01
1327193714.29	-3.20996043e-01	-5.06807753e+01	-4.44170117e+01	-1.35135178e+02	-4.44049335e+01	-1.34867211e+02	-7.86045834e+00	1.85272786e+01
1327479285.71	-3.23460498e-01	-5.07291669e+01	-4.43795739e+01	-1.35664065e+02	-4.43801657e+01	-1.35451242e+02	-7.85959645e+00	1.83900189e+01
1327764857.14	-3.20610649e-01	-5.07336460e+01	-4.43283267e+01	-1.36293946e+02	-4.43059001e+01	-1.35974668e+02	-7.85853845e+00	1.83442982e+01
1328050428.57	-3.17935678e-01	-5.07167186e+01	-4.42791191e+01	-1.37209331e+02	-4.42559215e+01	-1.36824210e+02	-7.83624300e+00	1.82826997e+01
1328336000	-3.17478698e-01	-5.07308960e+01	-4.42359366e+01	-1.37758240e+02	-4.42254520e+01	-1.37069153e+02	-7.82785671e+00	1.82745716e+01
1328621571.43	-3.22929311e-01	-5.07585399e+01	-4.42120729e+01	-1.38343642e+02	-4.41766945e+01	-1.38033515e+02	-7.81349367e+00	1.82344991e+01
1328907142.86	-3.25531996e-01	-5.07776707e+01	-4.41880732e+01	-1.38962475e+02	-4.41514291e+01	-1.38425001e+02	-7.80987682e+00	1.81266008e+01
1329192714.29	-3.22542271e-01	-5.07892455e+01	-4.41564748e+01	-1.39859630e+02	-4.41314758e+01	-1.39313662e+02	-7.79467836e+00	1.81137752e+01
1329478285.71	-3.21148552e-01	-5.08033323e+01	-4.41238326e+01	-1.40514461e+02	-4.40889520e+01	-1.39959004e+02	-7.78400232e+00	1.80765845e+01
1329763857.14	-3.25877393e-01	-5.08043173e+01	-4.41001969e+01	-1.41104722e+02	-4.40715802e+01	-1.40559082e+02	-7.78330236e+00	1.80142396e+01
1330049428.57	-3.23458603e-01	-5.08387249e+01	-4.40879823e+01	-1.41894291e+02	-4.40094218e+01	-1.41268386e+02	-7.77518460e+00	1.81088324e+01
1330335000	-3.23835910e-01	-5.08550739e+01	-4.40545618e+01	-1.42632539e+02	-4.40017886e+01	-1.41837722e+02	-7.75762595e+00	1.80120826e+01
1330620571.43	-3.24154819e-01	-5.08568498e+01	-4.40282112e+01	-1.43483969e+02	-4.39894738e+01	-1.42507314e+02	-7.73073324e+00	1.79275535e+01
1330906142.86	-3.23178671e-01	-5.08642523e+01	-4.40455958e+01	-1.44020245e+02	-4.39741322e+01	-1.43233548e+02	-7.72561928e+00	1.78925266e+01
1331191714.29	-3.26572706e-01	-5.08277776e+01	-4.40154771e+01	-1.44751353e+02	-4.39150200e+01	-1.43862853e+02	-7.72813183e+00	1.78105495e+01
1331477285.71	-3.24539611e-01	-5.08229400e+01	-4.40072336e+01	-1.45544264e+02	-4.39394595e+01	-1.44517985e+02	-7.72399061e+00	1.78552139e+01
1331762857.14	-3.28562510e-01	-5.08339368e+01	-4.40122110e+01	-1.46049125e+02	-4.39391454e+01	-1.45107624e+02	-7.71649435e+00	1.77999677e+01
1332048428.57	-3.31805374e-01	-5.08527137e+01	-4.40488698e+01	-1.46659752e+02	-4.39477468e+01	-1.45767699e+02	-7.69963858e+00	1.77596695e+01
1332334000	-3.28636922e-01	-5.08512170e+01	-4.40627030e+01	-1.47551422e+02	-4.39372016e+01	-1.46406400e+02	-7.68897476e+00	1.77079760e+01
1332619571.43	-3.25397780e-01	-5.08659673e+01	-4.40590745e+01	-1.48098422e+02	-4.39219388e+01	-1.47046356e+02	-7.67946066e+00	1.77027873e+01
1332905142.86	-3.26604950e-01	-5.08732314e+01	-4.40524994e+01	-1.48628344e+02	-4.39392576e+01	-1.47586571e+02	-7.65799981e+00	1.76703323e+01
1333190714.29	-3.37413170e-01	-5.09056690e+01	-4.40875691e+01	-1.49395542e+02	-4.39381943e+01	-1.48142729e+02	-7.64385087e+00	1.76663622e+01
1333476285.71	-3.30834983e-01	-5.09326424e+01	-4.41086209e+01	-1.50048460e+02	-4.39315289e+01	-1.48545693e+02	-7.63453720e+00	1.77045505e+01
1333761857.14	-3.34044976e-01	-5.09226915e+01	-4.41116658e+01	-1.50486728e+02	-4.39233283e+01	-1.49362063e+02	-7.61739362e+00	1.76498401e+01
1334047428.57	-3.33924323e-01	-5.09499575e+01	-4.41423677e+01	-1.51000166e+02	-4.39388305e+01	-1.49762769e+02	-7.61087610e+00	1.76458763e+01
1334333000	-3.32702568e-01	-5.09579278e+01	-4.41783076e+01	-1.51569261e+02	-4.39660434e+01	-1.50212784e+02	-7.58653722e+00	1.75742742e+01
1334618571.43	-3.32333186e-01	-5.09607465e+01	-4.42133097e+01	-1.52041410e+02	-4.39630479e+01	-1.50752744e+02	-7.57394013e+00	1.75621687e+01
1334904142.86	-3.32383161e-01	-5.10002586e+01	-4.42607358e+01	-1.52311657e+02	-4.39665028e+01	-1.51309330e+02	-7.55800534e+00	1.75860871e+01
1335189714.29	-3.34945899e-01	-5.09910088e+01	-4.42313647e+01	-1.53005538e+02	-4.39837618e+01	-1.51729579e+02	-7.54049754e+00	1.75595810e+01
1335475285.71	-3.36115301e-01	-5.09775047e+01	-4.42886303e+01	-1.53435146e+02	-4.40138346e+01	-1.52170326e+02	-7.53215772e+00	1.75856913e+01
1335760857.14	-3.34338877e-01	-5.10078133e+01	-4.42811443e+01	-1.53813742e+02	-4.40204213e+01	-1.52608674e+02	-7.51571632e+00	1.75088581e+01
1336046428.57	-3.34881807e-01	-5.10152506e+01	-4.43463199e+01	-1.54147435e+02	-4.40464161e+01	-1.52858348e+02	-7.49709569e+00	1.74697057e+01
1336332000	-3.34951449e-01	-5.10191289e+01	-4.43605128e+01	-1.54409243e+02	-4.40499360e+01	-1.53498078e+02	-7.48063531e+00	1.73668243e+01
1336617571.43	-3.31239383e-01	-5.10556132e+01	-4.43979243e+01	-1.54767639e+02	-4.40605712e+01	-1.53763761e+02	-7.46850232e+00	1.73603188e+01
1336903142.86	-3.27770644e-01	-5.10470803e+01	-4.44249850e+01	-1.55084343e+02	-4.40903978e+01	-1.54262415e+02	-7.45986922e+00	1.73352836e+01
1337188714.29	-3.31382606e-01	-5.10567964e+01	-4.44565519e+01	-1.55410034e+02	-4.40840919e+01	-1.54498484e+02	-7.44587482e+00	1.73020400e+01
1337474285.71	-3.28569807e-01	-5.10677733e+01	-4.44660839e+01	-1.55746938e+02	-4.40933291e+01	-1.54823997e+02	-7.42599839e+00	1.72498701e+01
1337759857.14	-3.33170071e-01	-5.10891532e+01	-4.44530482e+01	-1.55931485e+02	-4.40993244e+01	-1.54947768e+02	-7.41811453e+00	1.71834993e+01
1338045428.57	-3.31717519e-01	-5.11067351e+01	-4.44966569e+01	-1.56087021e+02	-4.41196750e+01	-1.55290168e+02	-7.39325911e+00	1.71355104e+01
1338331000	-3.31921502e-01	-5.11107079e+01	-4.45240804e+01	-1.56374011e+02	-4.41497721e+01	-1.55711176e+02	-7.36673705e+00	1.70587652e+01
1338616571.43	-3.31370586e-01	-5.10990898e+01	-4.45282448e+01	-1.56487685e+02	-4.41171145e+01	-1.55834093e+02	-7.36411484e+00	1.69365947e+01
1338902142.86	-3.29477795e-01	-5.11109220e+01	-4.45320261e+01	-1.56783907e+02	-4.41170370e+01	-1.56252628e+02	-7.33134218e+00	1.69075862e+01
1339187714.29	-3.32756706e-01	-5.10986610e+01	-4.45439021e+01	-1.57077227e+02	-4.41385213e+01	-1.56440685e+02	-7.31558372e+00	1.68254564e+01
1339473285.71	-3.34782678e-01	-5.11320841e+01	-4.45291269e+01	-1.56994643e+02	-4.41208619e+01	-1.56597461e+02	-7.29333922e+00	1.67342503e+01
1339758857.14	-3.34062059e-01	-5.11371200e+01	-4.45320596e+01	-1.57166807e+02	-4.41036337e+01	-1.56870291e+02	-7.25494720e+00	1.66995924e+01
1340044428.57	-3.32257870e-01	-5.11693916e+01	-4.45344212e+01	-1.57206998e+02	-4.41038711e+01	-1.57222174e+02	-7.25571079e+00	1.66966528e+01
1340330000	-3.28806378e-01	-5.12113507e+01	-4.45355331e+01	-1.57605201e+02	-4.40947374e+01	-1.57512097e+02	-7.24842317e+00	1.66887664e+01
1340615571.43	-3.34155321e-01	-5.12046939e+01	-4.45316813e+01	-1.57653208e+02	-4.41064869e+01	-1.57502163e+02	-7.22131143e+00	1.65381345e+01
1340901142.86	-3.33266578e-01	-5.11711962e+01	-4.45470723e+01	-1.57722083e+02	-4.40845231e+01	-1.57736714e+02	-7.19543269e+00	1.64560576e+01
1341186714.29	-3.36177109e-01	-5.11736189e+01	-4.45312584e+01	-1.57935617e+02	-4.40871420e+01	-1.57815467e+02	-7.18376389e+00	1.64249809e+01
1341472285.71	-3.31607398e-01	-5.12068435e+01	-4.45437081e+01	-1.57997490e+02	-4.40683794e+01	-1.58049126e+02	-7.16534036e+00	1.64368750e+01
1341757857.14	-3.34124514e-01	-5.12026190e+01	-4.45266875e+01	-1.58017078e+02	-4.40622959e+01	-1.58202984e+02	-7.14725969e+00	1.63185094e+01
1342043428.57	-3.34520242e-01	-5.12061360e+01	-4.45075540e+01	-1.58175435e+02	-4.40331266e+01	-1.58471739e+02	-7.12449101e+00	1.63026834e+01
1342329000	-3.33271565e-01	-5.12191069e+01	-4.45186681e+01	-1.58237083e+02	-4.40147241e+01	-1.58431898e+02	-7.09816792e+00	1.62802108e+01
1342614571.43	-3.36047430e-01	-5.12189706e+01	-4.44535466e+01	-1.58302133e+02	-4.39933755e+01	-1.58699421e+02	-7.08688905e+00	1.61153563e+01
1342900142.86	-3.34747992e-01	-5.12342779e+01	-4.44722298e+01	-1.58318539e+02	-4.39942565e+01	-1.58939418e+02	-7.06980741e+00	1.60300477e+01
1343185714.29	-3.36252700e-01	-5.12402738e+01	-4.44221079e+01	-1.58282524e+02	-4.39542562e+01	-1.59151596e+02	-7.04658626e+00	1.60609246e+01
1343471285.71	-3.33141459e-01	-5.12689429e+01	-4.44044276e+01	-1.58597084e+02	-4.39294905e+01	-1.59362780e+02	-7.02616924e+00	1.60498860e+01
1343756857.14	-3.34047074e-01	-5.12736236e+01	-4.43964120e+01	-1.58202836e+02	-4.38963650e+01	-1.59403713e+02	-6.99957143e+00	1.60280943e+01
1344042428.57	-3.34456409e-01	-5.12902257e+01	-4.43277817e+01	-1.58605215e+02	-4.38522887e+01	-1.59517549e+02	-6.98286215e+00	1.59418221e+01
1344328000	-3.34518714e-01	-5.12897998e+01	-4.42874024e+01	-1.58794114e+02	-4.37854638e+01	-1.59820263e+02	-6.96431189e+00	1.59541412e+01
1344613571.43	-3.33620206e-01	-5.12956915e+01	-4.42562605e+01	-1.58796723e+02	-4.37573536e+01	-1.59879976e+02	-6.94156259e+00	1.58689630e+01
1344899142.86	-3.35276592e-01	-5.12795302e+01	-4.42090352e+01	-1.58635109e+02	-4.37309631e+01	-1.60034044e+02	-6.93062990e+00	1.59516125e+01
1345184714.29	-3.36213044e-01	-5.12780211e+01	-4.41500290e+01	-1.59031751e+02	-4.36715677e+01	-1.60261420e+02	-6.90965496e+00	1.57952251e+01
1345470285.71	-3.32644678e-01	-5.12688901e+01	-4.41156525e+01	-1.58799951e+02	-4.36230420e+01	-1.60374085e+02	-6.90862838e+00	1.57480732e+01
1345755857.14	-3.33004846e-01	-5.12929315e+01	-4.40396472e+01	-1.59107625e+02	-4.35610732e+01	-1.60471961e+02	-6.88256162e+00	1.56902853e+01
1346041428.57	-3.35952429e-01	-5.13157571e+01	-4.39871386e+01	-1.59084015e+02	-4.35037542e+01	-1.60875684e+02	-6.88158666e+00	1.56128375e+01
1346327000	-3.31347206e-01	-5.12910467e+01	-4.39246961e+01	-1.59269021e+02	-4.34556504e+01	-1.61101276e+02	-6.86553198e+00	1.54859098e+01
1346612571.43	-3.35866403e-01	-5.13166676e+01	-4.38723851e+01	-1.59370397e+02	-4.34210387e+01	-1.61427176e+02	-6.85802919e+00	1.54847996e+01
1346898142.86	-3.34767633e-01	-5.13134406e+01	-4.38058381e+01	-1.59825935e+02	-4.33574965e+01	-1.61811010e+02	-6.84113178e+00	1.52873065e+01
1347183714.29	-3.32288998e-01	-5.13135587e+01	-4.37403521e+01	-1.59931354e+02	-4.32749355e+01	-1.62152025e+02	-6.82580463e+00	1.53037171e+01
1347469285.71	-3.34393959e-01	-5.13177521e+01	-4.36620854e+01	-1.60143902e+02	-4.32093184e+01	-1.62385169e+02	-6.81364257e+00	1.51892870e+01
1347754857.14	-3.31448232e-01	-5.13254652e+01	-4.35985032e+01	-1.60478914e+02	-4.31481074e+01	-1.62726055e+02	-6.79853806e+00	1.51815798e+01
1348040428.57	-3.32329543e-01	-5.13282163e+01	-4.35433035e+01	-1.60756351e+02	-4.30685058e+01	-1.63151767e+02	-6.78750846e+00	1.50449225e+01
1348326000	-3.31751143e-01	-5.13146918e+01	-4.34570120e+01	-1.61023098e+02	-4.30064722e+01	-1.63441271e+02	-6.77421794e+00	1.50195519e+01
1348611571.43	-3.32381390e-01	-5.13308689e+01	-4.33987105e+01	-1.61339664e+02	-4.29598124e+01	-1.63730336e+02	-6.76246471e+00	1.49186684e+01
1348897142.86	-3.32635379e-01	-5.13484950e+01	-4.33164277e+01	-1.61627315e+02	-4.29076249e+01	-1.64172544e+02	-6.75407775e+00	1.48771228e+01
1349182714.29	-3.34025545e-01	-5.13742463e+01	-4.32614597e+01	-1.62208373e+02	-4.28697885e+01	-1.64748418e+02	-6.72941184e+00	1.47712593e+01
1349468285.71	-3.34056259e-01	-5.14060838e+01	-4.31814032e+01	-1.62506271e+02	-4.27874659e+01	-1.65208895e+02	-6.71983021e+00	1.46678176e+01
1349753857.14	-3.32875639e-01	-5.14079811e+01	-4.31372461e+01	-1.62756815e+02	-4.27632659e+01	-1.65749155e+02	-6.70245335e+00	1.45958642e+01
1350039428.57	-3.36357330e-01	-5.14199358e+01	-4.30866783e+01	-1.63336118e+02	-4.27059479e+01	-1.66154358e+02	-6.68678085e+00	1.45347265e+01
1350325000	-3.34397554e-01	-5.14265973e+01	-4.30187249e+01	-1.63914738e+02	-4.26538146e+01	-1.66648456e+02	-6.67662916e+00	1.44222873e+01
1350610571.43	-3.27749935e-01	-5.14506418e+01	-4.29268202e+01	-1.64153103e+02	-4.25987390e+01	-1.67088339e+02	-6.66409830e+00	1.44001494e+01
1350896142.86	-3.30420820e-01	-5.14176232e+01	-4.29080457e+01	-1.64535699e+02	-4.25910209e+01	-1.67554900e+02	-6.64990292e+00	1.43076981e+01
1351181714.29	-3.32363419e-01	-5.14330088e+01	-4.28591546e+01	-1.64963335e+02	-4.25293812e+01	-1.68088628e+02	-6.63737640e+00	1.41812152e+01
1351467285.71	-3.35581209e-01	-5.14353472e+01	-4.27974713e+01	-1.65564048e+02	-4.24767922e+01	-1.68453502e+02	-6.62591576e+00	1.41120636e+01
1351752857.14	-3.38706127e-01	-5.14520042e+01	-4.27607531e+01	-1.65886964e+02	-4.24554282e+01	-1.68991248e+02	-6.60517389e+00	1.40133110e+01
1352038428.57	-3.40836728e-01	-5.14658719e+01	-4.26755982e+01	-1.66274522e+02	-4.24276924e+01	-1.69478363e+02	-6.59053406e+00	1.39615308e+01
1352324000	-3.40812168e-01	-5.14863482e+01	-4.26573360e+01	-1.66631635e+02	-4.23740503e+01	-1.69867970e+02	-6.58148660e+00	1.38536264e+01
1352609571.43	-3.43196291e-01	-5.15061494e+01	-4.25841018e+01	-1.66930977e+02	-4.23408580e+01	-1.70350728e+02	-6.55788261e+00	1.37487944e+01
1352895142.86	-3.38575186e-01	-5.15279753e+01	-4.25039402e+01	-1.67541771e+02	-4.22773286e+01	-1.70757749e+02	-6.54084044e+00	1.37195420e+01
1353180714.29	-3.36926551e-01	-5.15239351e+01	-4.24735341e+01	-1.67988065e+02	-4.22684736e+01	-1.71221870e+02	-6.53063263e+00	1.36257406e+01
1353466285.71	-3.33242322e-01	-5.15358756e+01	-4.24093936e+01	-1.68432843e+02	-4.22014292e+01	-1.71473140e+02	-6.51965659e+00	1.35269952e+01
1353751857.14	-3.39112268e-01	-5.15523543e+01	-4.23597071e+01	-1.68947806e+02	-4.21516968e+01	-1.71935496e+02	-6.50416789e+00	1.34719717e+01
1354037428.57	-3.35120943e-01	-5.15804652e+01	-4.22847300e+01	-1.69261029e+02	-4.21171158e+01	-1.72358393e+02	-6.50323511e+00	1.33033071e+01
1354323000	-3.33277674e-01	-5.16074121e+01	-4.22235568e+01	-1.69778542e+02	-4.20571197e+01	-1.72924662e+02	-6.48434639e+00	1.32084478e+01
1354608571.43	-3.32390262e-01	-5.15792661e+01	-4.21912407e+01	-1.70198998e+02	-4.20072876e+01	-1.73246673e+02	-6.47133123e+00	1.30670380e+01
1354894142.86	-3.37317563e-01	-5.15906927e+01	-4.21063308e+01	-1.70782243e+02	-4.19747299e+01	-1.73842837e+02	-6.46321278e+00	1.29002253e+01
1355179714.29	-3.37399564e-01	-5.16029580e+01	-4.20546477e+01	-1.71227191e+02	-4.19314741e+01	-1.74284811e+02	-6.45227029e+00	1.27805182e+01
1355465285.71	-3.34476421e-01	-5.15992686e+01	-4.20150998e+01	-1.71894627e+02	-4.18597097e+01	-1.74649610e+02	-6.43934381e+00	1.27370680e+01
1355750857.14	-3.36717372e-01	-5.15816029e+01	-4.19086117e+01	-1.72398881e+02	-4.18080133e+01	-1.75153337e+02	-6.43639510e+00	1.26718209e+01
1356036428.57	-3.39589947e-01	-5.15948924e+01	-4.18924484e+01	-1.72813039e+02	-4.18438480e+01	-1.75850985e+02	-6.42375838e+00	1.25653653e+01
1356322000	-3.38657033e-01	-5.15983889e+01	-4.18302060e+01	-1.73319404e+02	-4.17707403e+01	-1.76019789e+02	-6.41639771e+00	1.24849598e+01
1356607571.43	-3.35023872e-01	-5.15934878e+01	-4.17582113e+01	-1.74005541e+02	-4.18498346e+01	-1.76749156e+02	-6.40534872e+00	1.23428787e+01
1356893142.86	-3.38611844e-01	-5.15873301e+01	-4.17225031e+01	-1.74398794e+02	-4.17588288e+01	-1.77051456e+02	-6.38676417e+00	1.22883512e+01
1357178714.29	-3.36224226e-01	-5.16296044e+01	-4.16592446e+01	-1.75088757e+02	-4.16563963e+01	-1.78084592e+02	-6.37066303e+00	1.21176273e+01
1357464285.71	-3.35192581e-01	-5.16171444e+01	-4.16268865e+01	-1.75746452e+02	-4.16600825e+01	-1.78508969e+02	-6.35993288e+00	1.20703108e+01
1357749857.14	-3.37519579e-01	-5.16403039e+01	-4.15810146e+01	-1.76113379e+02	-4.15494536e+01	-1.78992737e+02	-6.35458723e+00	1.19486800e+01
1358035428.57	-3.38106035e-01	-5.16438229e+01	-4.15301480e+01	-1.76843548e+02	-4.15277622e+01	-1.79860311e+02	-6.34654016e+00	1.18172091e+01
1358321000	-3.36680265e-01	-5.16621044e+01	-4.14892313e+01	-1.77436066e+02	-4.15132051e+01	-1.79969068e+02	-6.32571139e+00	1.16618024e+01
1358606571.43	-3.38262724e-01	-5.16868924e+01	-4.14180770e+01	-1.77851809e+02	-4.14492196e+01	1.79441515e+02	-6.32445737e+00	1.15919986e+01
1358892142.86	-3.35334047e-01	-5.16745325e+01	-4.14016167e+01	-1.78509411e+02	-4.14984678e+01	1.78973780e+02	-6.30868479e+00	1.14988294e+01
1359177714.29	-3.35061628e-01	-5.16999964e+01	-4.13559053e+01	-1.78981181e+02	-4.13799711e+01	1.78228442e+02	-6.29883440e+00	1.13947331e+01
1359463285.71	-3.30656686e-01	-5.16672960e+01	-4.13127880e+01	-1.79658732e+02	-4.13756634e+01	1.77767820e+02	-6.28505336e+00	1.12563582e+01
1359748857.14	-3.34213792e-01	-5.16746527e+01	-4.12877809e+01	1.79760788e+02	-4.13331881e+01	1.77178720e+02	-6.27940087e+00	1.11319100e+01
1360034428.57	-3.33409969e-01	-5.16783367e+01	-4.12387550e+01	1.79210175e+02	-4.13585680e+01	1.76606041e+02	-6.26884099e+00	1.10525147e+01
1360320000	-3.36610812e-01	-5.16891604e+01	-4.12088389e+01	1.78465081e+02	-4.12653148e+01	1.75862107e+02	-6.25900428e+00	1.09090984e+01
1360605571.43	-3.36835616e-01	-5.16892995e+01	-4.11758011e+01	1.77947604e+02	-4.13391977e+01	1.75269653e+02	-6.25024532e+00	1.08076769e+01
1360891142.86	-3.36674047e-01	-5.16968992e+01	-4.11295162e+01	1.77375746e+02	-4.12475136e+01	1.74605383e+02	-6.23584742e+00	1.07129135e+01
1361176714.29	-3.33187941e-01	-5.16829663e+01	-4.11130559e+01	1.76857558e+02	-4.11843032e+01	1.74140677e+02	-6.22968788e+00	1.05948027e+01
1361462285.71	-3.31712835e-01	-5.17368732e+01	-4.10784165e+01	1.76426120e+02	-4.12233256e+01	1.73406534e+02	-6.23143181e+00	1.04415547e+01
1361747857.14	-3.34846888e-01	-5.17475190e+01	-4.10517698e+01	1.75883016e+02	-4.11753671e+01	1.72920236e+02	-6.22332800e+00	1.03512512e+01
1362033428.57	-3.35803342e-01	-5.17628858e+01	-4.10325211e+01	1.75445932e+02	-4.11524147e+01	1.72748672e+02	-6.21475010e+00	1.02343318e+01
1362319000	-3.36574425e-01	-5.17807940e+01	-4.09968169e+01	1.74919630e+02	-4.10607217e+01	1.72002659e+02	-6.20850059e+00	1.01364416e+01
1362604571.43	-3.36889549e-01	-5.17668612e+01	-4.09668497e+01	1.74417268e+02	-4.10808941e+01	1.71553624e+02	-6.19599120e+00	9.95342264e+00
1362890142.86	-3.35243721e-01	-5.17551041e+01	-4.09460756e+01	1.73834865e+02	-4.10752951e+01	1.71419730e+02	-6.18114591e+00	9.89062538e+00
1363175714.29	-3.36616686e-01	-5.17556785e+01	-4.08794058e+01	1.73451820e+02	-4.10335202e+01	1.70504266e+02	-6.16464497e+00	9.76677453e+00
1363461285.71	-3.38147496e-01	-5.17971239e+01	-4.08832302e+01	1.72995859e+02	-4.09818478e+01	1.70138035e+02	-6.15835841e+00	9.72877672e+00
1363746857.14	-3.37561049e-01	-5.18288986e+01	-4.08234759e+01	1.72447814e+02	-4.09682765e+01	1.69761823e+02	-6.15093113e+00	9.58831950e+00
1364032428.57	-3.37976634e-01	-5.18076232e+01	-4.08039267e+01	1.71962483e+02	-4.09668079e+01	1.69605431e+02	-6.14315763e+00	9.45442611e+00
1364318000	-3.40999027e-01	-5.18198618e+01	-4.07680891e+01	1.71447877e+02	-4.09062256e+01	1.68756004e+02	-6.13700207e+00	9.40699952e+00
1364603571.43	-3.44195309e-01	-5.18682338e+01	-4.07236015e+01	1.70920660e+02	-4.08904525e+01	1.68490508e+02	-6.14349850e+00	9.21330402e+00
1364889142.86	-3.43048535e-01	-5.18503434e+01	-4.06828292e+01	1.70523456e+02	-4.08492066e+01	1.68234993e+02	-6.14430066e+00	9.08355786e+00
1365174714.29	-3.44515142e-01	-5.18557116e+01	-4.06462950e+01	1.69966176e+02	-4.07986383e+01	1.67403231e+02	-6.12785724e+00	8.96410786e+00
1365460285.71	-3.42451482e-01	-5.18445148e+01	-4.05739337e+01	1.69497132e+02	-4.07277813e+01	1.67066541e+02	-6.11730041e+00	8.90553695e+00
1365745857.14	-3.46408287e-01	-5.18395925e+01	-4.05383799e+01	1.68952776e+02	-4.07456878e+01	1.66472132e+02	-6.09104135e+00	8.72447429e+00
1366031428.57	-3.42747634e-01	-5.18916646e+01	-4.04807984e+01	1.68345414e+02	-4.06954822e+01	1.65906472e+02	-6.08814894e+00	8.57513728e+00
1366317000	-3.43547559e-01	-5.19041774e+01	-4.04555205e+01	1.67821831e+02	-4.06499151e+01	1.65361613e+02	-6.09222476e+00	8.43588556e+00
1366602571.43	-3.48005847e-01	-5.19187563e+01	-4.04072980e+01	1.67334929e+02	-4.05766021e+01	1.64644505e+02	-6.08394062e+00	8.25762607e+00
1366888142.86	-3.48976443e-01	-5.19430057e+01	-4.03806843e+01	1.66835253e+02	-4.05439082e+01	1.64352809e+02	-6.07761670e+00	8.19486134e+00
1367173714.29	-3.44570933e-01	-5.19515628e+01	-4.03165590e+01	1.66185725e+02	-4.05252931e+01	1.63752633e+02	-6.07322026e+00	8.06231621e+00
1367459285.71	-3.44141930e-01	-5.19706670e+01	-4.02821366e+01	1.65667340e+02	-4.04377375e+01	1.63290049e+02	-6.06957756e+00	7.90433338e+00
1367744857.14	-3.41588339e-01	-5.19765161e+01	-4.02356251e+01	1.65038520e+02	-4.04043945e+01	1.62697384e+02	-6.06143883e+00	7.76909176e+00
1368030428.57	-3.36341892e-01	-5.20001740e+01	-4.01878970e+01	1.64549061e+02	-4.03653750e+01	1.62088789e+02	-6.05437659e+00	7.66891413e+00
1368316000	-3.40774270e-01	-5.20128828e+01	-4.01425728e+01	1.63821758e+02	-4.02877754e+01	1.61517774e+02	-6.04746847e+00	7.56900715e+00
1368601571.43	-3.44020359e-01	-5.20414030e+01	-4.01105256e+01	1.63318459e+02	-4.02706616e+01	1.61025447e+02	-6.05707138e+00	7.35847268e+00
1368887142.86	-3.43362106e-01	-5.20756451e+01	-4.00603385e+01	1.62732954e+02	-4.01845225e+01	1.60327367e+02	-6.05024923e+00	7.29093508e+00
1369172714.29	-3.47274799e-01	-5.20699056e+01	-4.00341725e+01	1.62199973e+02	-4.01131672e+01	1.59401674e+02	-6.03016403e+00	7.20145405e+00
1369458285.71	-3.45819816e-01	-5.20893044e+01	-3.99778631e+01	1.61624987e+02	-4.01252197e+01	1.58902702e+02	-6.03016770e+00	7.04606857e+00
1369743857.14	-3.47606827e-01	-5.21459293e+01	-3.99491239e+01	1.60974804e+02	-4.00606698e+01	1.58596813e+02	-6.02452614e+00	6.86582917e+00
1370029428.57	-3.48655885e-01	-5.21485538e+01	-3.99177239e+01	1.60245568e+02	-4.00506043e+01	1.58207960e+02	-6.02156907e+00	6.72693715e+00
1370315000	-3.51510259e-01	-5.21748160e+01	-3.98755971e+01	1.59719391e+02	-3.99885394e+01	1.57445692e+02	-6.01693901e+00	6.63226370e+00
1370600571.43	-3.51186708e-01	-5.21745343e+01	-3.98313572e+01	1.59158434e+02	-3.99252536e+01	1.56436211e+02	-6.01949158e+00	6.47840885e+00
1370886142.86	-3.48443802e-01	-5.22310665e+01	-3.97694430e+01	1.58422110e+02	-3.98542147e+01	1.55851509e+02	-6.00141904e+00	6.39301130e+00
1371171714.29	-3.46432808e-01	-5.22360859e+01	-3.97268330e+01	1.57776434e+02	-3.98537518e+01	1.54995855e+02	-5.99708566e+00	6.33117477e+00
1371457285.71	-3.47642995e-01	-5.22492691e+01	-3.98549850e+01	1.57165710e+02	-3.98720375e+01	1.54611747e+02	-6.00006891e+00	6.17363291e+00
1371742857.14	-3.51202726e-01	-5.22101966e+01	-3.98647065e+01	1.56280115e+02	-3.97841224e+01	1.53839547e+02	-5.99443684e+00	6.05426206e+00
1372028428.57	-3.53391594e-01	-5.22600966e+01	-3.97731010e+01	1.55376831e+02	-3.97619182e+01	1.53175632e+02	-6.00110227e+00	5.84842584e+00
1372314000	-3.55893510e-01	-5.22528440e+01	-3.97533644e+01	1.54932659e+02	-3.97186921e+01	1.52371454e+02	-5.99508583e+00	5.78526277e+00
1372599571.43	-3.56191862e-01	-5.23301495e+01	-3.97240079e+01	1.54275665e+02	-3.97163825e+01	1.51817120e+02	-6.00782462e+00	5.66919143e+00
1372885142.86	-3.54312755e-01	-5.23539335e+01	-3.96898663e+01	1.53482523e+02	-3.97270134e+01	1.51222626e+02	-6.00570704e+00	5.67905697e+00
1373170714.29	-3.53795348e-01	-5.23674885e+01	-3.96611751e+01	1.52722512e+02	-3.96874107e+01	1.50271619e+02	-6.01033387e+00	5.56498539e+00
1373456285.71	-3.52707024e-01	-5.23807202e+01	-3.95853143e+01	1.51966581e+02	-3.96389926e+01	1.49613047e+02	-6.00494328e+00	5.36514090e+00
1373741857.14	-3.53117058e-01	-5.24252942e+01	-3.95626616e+01	1.50977031e+02	-3.96737006e+01	1.49155207e+02	-6.00786188e+00	5.16878732e+00
1374027428.57	-3.54936424e-01	-5.24535097e+01	-3.95602056e+01	1.50424921e+02	-3.96537396e+01	1.48256660e+02	-5.99984075e+00	5.11309648e+00
1374313000	-3.63445707e-01	-5.24747479e+01	-3.94992011e+01	1.49723265e+02	-3.95841709e+01	1.47412878e+02	-5.99458864e+00	5.00302343e+00
1374598571.43	-3.61926863e-01	-5.24339334e+01	-3.94849553e+01	1.48981656e+02	-3.95619657e+01	1.46693446e+02	-5.99403367e+00	4.90397890e+00
1374884142.86	-3.53013862e-01	-5.24057837e+01	-3.94563190e+01	1.48477890e+02	-3.96221802e+01	1.46317498e+02	-5.98932013e+00	4.80119296e+00
1375169714.29	-3.52814761e-01	-5.24419307e+01	-3.95004913e+01	1.47762664e+02	-3.95512651e+01	1.45766324e+02	-5.98258943e+00	4.61067384e+00
1375455285.71	-3.49754389e-01	-5.24526091e+01	-3.94174786e+01	1.46718364e+02	-3.95773039e+01	1.45005338e+02	-5.97696992e+00	4.54504855e+00
1375740857.14	-3.51175635e-01	-5.24738353e+01	-3.94239807e+01	1.46195220e+02	-3.95765874e+01	1.44284756e+02	-5.97609912e+00	4.39392993e+00
1376026428.57	-3.49159685e-01	-5.24804286e+01	-3.94061040e+01	1.45121250e+02	-3.95459743e+01	1.43375243e+02	-5.96508086e+00	4.32186227e+00
1376312000	-3.51383809e-01	-5.25233692e+01	-3.93387832e+01	1.44470318e+02	-3.95748824e+01	1.42641983e+02	-5.96663943e+00	4.19019250e+00
1376597571.43	-3.50492665e-01	-5.25488892e+01	-3.92937000e+01	1.43968211e+02	-3.96071158e+01	1.41984632e+02	-5.96208854e+00	4.06445194e+00
1376883142.86	-3.49236000e-01	-5.25608277e+01	-3.93877721e+01	1.42924611e+02	-3.95836969e+01	1.41242736e+02	-5.96407002e+00	3.95442363e+00
1377168714.29	-3.53988397e-01	-5.25923757e+01	-3.93605819e+01	1.42612116e+02	-3.95516649e+01	1.40383439e+02	-5.96518242e+00	3.74584303e+00
1377454285.71	-3.56249654e-01	-5.26354445e+01	-3.93929096e+01	1.41742243e+02	-3.96114524e+01	1.39548332e+02	-5.95033771e+00	3.68929152e+00
1377739857.14	-3.55502675e-01	-5.26471068e+01	-3.93383103e+01	1.40940434e+02	-3.95946206e+01	1.39004121e+02	-5.95134559e+00	3.55963223e+00
1378025428.57	-3.53656961e-01	-5.26413761e+01	-3.93923408e+01	1.40229721e+02	-3.96330596e+01	1.38593305e+02	-5.95197994e+00	3.54898260e+00
1378311000	-3.54090991e-01	-5.26762283e+01	-3.93874508e+01	1.39621374e+02	-3.96166812e+01	1.38031468e+02	-5.96220859e+00	3.38988337e+00
1378596571.43	-3.52973567e-01	-5.26865682e+01	-3.93705305e+01	1.39067298e+02	-3.96653876e+01	1.37299471e+02	-5.95788219e+00	3.33497108e+00
1378882142.86	-3.50458891e-01	-5.26910322e+01	-3.93565551e+01	1.38187601e+02	-3.96666289e+01	1.36673817e+02	-5.95095024e+00	3.17077917e+00
1379167714.29	-3.53702396e-01	-5.27358135e+01	-3.94537076e+01	1.38013602e+02	-3.96739242e+01	1.36108894e+02	-5.94591895e+00	3.11795523e+00
1379453285.71	-3.51408333e-01	-5.27281211e+01	-3.94226441e+01	1.37623135e+02	-3.96793653e+01	1.35481512e+02	-5.94838762e+00	3.00364707e+00
1379738857.14	-3.51260356e-01	-5.27649408e+01	-3.94510605e+01	1.36750784e+02	-3.97450786e+01	1.34822443e+02	-5.95195407e+00	2.90958585e+00
1380024428.57	-3.52385914e-01	-5.27797529e+01	-3.94289402e+01	1.36123390e+02	-3.97455633e+01	1.34465925e+02	-5.95745412e+00	2.82859751e+00
1380310000	-3.52779189e-01	-5.28159473e+01	-3.94718984e+01	1.35361106e+02	-3.97713425e+01	1.34082718e+02	-5.94747489e+00	2.73254062e+00
1380595571.43	-3.54795979e-01	-5.28427622e+01	-3.94779894e+01	1.34734986e+02	-3.97839278e+01	1.33561200e+02	-5.95497777e+00	2.55652597e+00
1380881142.86	-3.54200574e-01	-5.28280982e+01	-3.95102690e+01	1.34096325e+02	-3.97871561e+01	1.33380424e+02	-5.96212635e+00	2.45430922e+00
1381166714.29	-3.52216010e-01	-5.28603206e+01	-3.95214940e+01	1.33717892e+02	-3.98325225e+01	1.33011669e+02	-5.96095686e+00	2.31400996e+00
1381452285.71	-3.49484916e-01	-5.28778754e+01	-3.94993145e+01	1.33237378e+02	-3.98761293e+01	1.32581638e+02	-5.96367925e+00	2.25565033e+00
1381737857.14	-3.48729954e-01	-5.28915929e+01	-3.95294445e+01	1.32960553e+02	-3.98394594e+01	1.32052552e+02	-5.96170746e+00	2.05673306e+00
1382023428.57	-3.52451591e-01	-5.29302357e+01	-3.95035621e+01	1.32453362e+02	-3.98400041e+01	1.31842335e+02	-5.96523945e+00	1.94365229e+00
1382309000	-3.51805312e-01	-5.29452724e+01	-3.95220804e+01	1.31862619e+02	-3.98551881e+01	1.31442059e+02	-5.96051658e+00	1.82633868e+00
1382594571.43	-3.52534179e-01	-5.29771860e+01	-3.95283568e+01	1.31479183e+02	-3.98553995e+01	1.30979769e+02	-5.95836269e+00	1.62424118e+00
1382880142.86	-3.54715605e-01	-5.29883123e+01	-3.94934563e+01	1.30865232e+02	-3.98448562e+01	1.30573636e+02	-5.97102270e+00	1.46359677e+00
1383165714.29	-3.54518772e-01	-5.30070758e+01	-3.95227834e+01	1.30669574e+02	-3.98621476e+01	1.30300412e+02	-5.97144863e+00	1.32965274e+00
1383451285.71	-3.52137712e-01	-5.30471100e+01	-3.94903518e+01	1.30126682e+02	-3.98157178e+01	1.29713453e+02	-5.97843471e+00	1.10675944e+00
1383736857.14	-3.55059836e-01	-5.30582226e+01	-3.95192428e+01	1.29652830e+02	-3.98063228e+01	1.29463870e+02	-5.97269317e+00	9.83499821e-01
1384022428.57	-3.51609279e-01	-5.30675805e+01	-3.95159292e+01	1.28954895e+02	-3.97720542e+01	1.29054670e+02	-5.96975515e+00	8.49585797e-01
1384308000	-3.56646501e-01	-5.30837709e+01	-3.95043710e+01	1.28465657e+02	-3.98084337e+01	1.28719065e+02	-5.97337110e+00	6.35493295e-01
1384593571.43	-3.55352906e-01	-5.31004398e+01	-3.95644804e+01	1.28051809e+02	-3.97856505e+01	1.28393446e+02	-5.96994434e+00	5.05538758e-01
1384879142.86	-3.54625375e-01	-5.31403671e+01	-3.94756621e+01	1.27158251e+02	-3.97535389e+01	1.28165838e+02	-5.96047086e+00	3.70752190e-01
1385164714.29	-3.52282448e-01	-5.31528439e+01	-3.95004081e+01	1.27436889e+02	-3.97661298e+01	1.27365041e+02	-5.97680459e+00	3.12617749e-01
1385450285.71	-3.51048098e-01	-5.31847480e+01	-3.94395498e+01	1.26553776e+02	-3.97518543e+01	1.26904981e+02	-5.97280823e+00	2.03853929e-01
1385735857.14	-3.52440605e-01	-5.31764357e+01	-3.94742198e+01	1.25909124e+02	-3.96970662e+01	1.26615876e+02	-5.97305542e+00	3.84226601e-02
1386021428.57	-3.52725086e-01	-5.31989024e+01	-3.94109210e+01	1.25402774e+02	-3.97071128e+01	1.26019867e+02	-5.96444473e+00	-8.48867267e-02
1386307000	-3.52552988e-01	-5.32331373e+01	-3.94363788e+01	1.24963812e+02	-3.96716346e+01	1.25700410e+02	-5.96685691e+00	-2.05050176e-01
1386592571.43	-3.55528337e-01	-5.32615913e+01	-3.93883886e+01	1.24737579e+02	-3.96794262e+01	1.25117145e+02	-5.97909756e+00	-3.29984642e-01
1386878142.86	-3.55155172e-01	-5.32779802e+01	-3.94582775e+01	1.23786673e+02	-3.96170386e+01	1.24911392e+02	-5.97295978e+00	-4.40671472e-01
1387163714.29	-3.57941298e-01	-5.32778522e+01	-3.94006996e+01	1.23645092e+02	-3.95976692e+01	1.24470660e+02	-5.97013907e+00	-5.98356864e-01
1387449285.71	-3.55233880e-01	-5.33029786e+01	-3.94810848e+01	1.22854500e+02	-3.96107284e+01	1.23754121e+02	-5.96684349e+00	-6.64038496e-01
1387734857.14	-3.57475047e-01	-5.33285124e+01	-3.94394536e+01	1.22990582e+02	-3.95330427e+01	1.23765690e+02	-5.96864535e+00	-7.89160661e-01
1388020428.57	-3.55432021e-01	-5.33637519e+01	-3.93857029e+01	1.22048347e+02	-3.95749400e+01	1.22959781e+02	-5.96818256e+00	-9.27748160e-01
1388306000	-3.61469257e-01	-5.33673189e+01	-3.94018213e+01	1.21807156e+02	-3.95630114e+01	1.22723601e+02	-5.96640609e+00	-1.06604088e+00
1388591571.43	-3.63337775e-01	-5.33610237e+01	-3.93501871e+01	1.21217980e+02	-3.95158621e+01	1.22388446e+02	-5.97247791e+00	-1.17015460e+00
1388877142.86	-3.62167437e-01	-5.33786235e+01	-3.92409979e+01	1.20987102e+02	-3.94934960e+01	1.21378139e+02	-5.96869370e+00	-1.36385786e+00
1389162714.29	-3.60348995e-01	-5.34189888e+01	-3.93460557e+01	1.20191686e+02	-3.94642340e+01	1.21162026e+02	-5.97782997e+00	-1.51478166e+00
1389448285.71	-3.58791716e-01	-5.34375702e+01	-3.93079092e+01	1.20039221e+02	-3.94572773e+01	1.20689812e+02	-5.97270237e+00	-1.67793833e+00
1389733857.14	-3.60291401e-01	-5.34322628e+01	-3.92693582e+01	1.19008640e+02	-3.93630652e+01	1.20263181e+02	-5.97649618e+00	-1.81683877e+00
1390019428.57	-3.60766874e-01	-5.34478074e+01	-3.92495022e+01	1.18677850e+02	-3.93729473e+01	1.19496215e+02	-5.96543710e+00	-1.92717569e+00
1390305000	-3.59379235e-01	-5.34688912e+01	-3.91987885e+01	1.18167110e+02	-3.93369645e+01	1.19502166e+02	-5.96553560e+00	-2.01671234e+00
1390590571.43	-3.58765519e-01	-5.34683475e+01	-3.92291678e+01	1.17675377e+02	-3.93121167e+01	1.18576937e+02	-5.95084884e+00	-2.22712077e+00
1390876142.86	-3.60719025e-01	-5.34837358e+01	-3.91496139e+01	1.16707028e+02	-3.92902220e+01	1.18105242e+02	-5.95421851e+00	-2.37872088e+00
1391161714.29	-3.62429712e-01	-5.34917036e+01	-3.91952715e+01	1.16524057e+02	-3.92745665e+01	1.17436753e+02	-5.95488545e+00	-2.56270865e+00
1391447285.71	-3.66957940e-01	-5.35117090e+01	-3.91911102e+01	1.15648668e+02	-3.92600007e+01	1.16831694e+02	-5.95316103e+00	-2.69515277e+00
1391732857.14	-3.68422487e-01	-5.35383744e+01	-3.91031779e+01	1.15154149e+02	-3.92459248e+01	1.16245945e+02	-5.95212108e+00	-2.82758065e+00
1392018428.57	-3.66772869e-01	-5.35442098e+01	-3.90674825e+01	1.14614329e+02	-3.92578658e+01	1.15825931e+02	-5.95480242e+00	-3.02738333e+00
1392304000	-3.65762262e-01	-5.35590677e+01	-3.90953639e+01	1.13789964e+02	-3.92079044e+01	1.14876714e+02	-5.96509721e+00	-3.12045735e+00
1392589571.43	-3.65006404e-01	-5.36030306e+01	-3.91114179e+01	1.13110772e+02	-3.91607848e+01	1.14420191e+02	-5.95914647e+00	-3.20247482e+00
1392875142.86	-3.65158940e-01	-5.36380859e+01	-3.91408872e+01	1.12377359e+02	-3.91622068e+01	1.13703129e+02	-5.95914564e+00	-3.31568610e+00
1393160714.29	-3.70159422e-01	-5.36500944e+01	-3.90813125e+01	1.11835321e+02	-3.91449659e+01	1.13107407e+02	-5.95318019e+00	-3.46469053e+00
1393446285.71	-3.69521578e-01	-5.36961507e+01	-3.90480565e+01	1.11184520e+02	-3.91262504e+01	1.12429867e+02	-5.95234942e+00	-3.59467213e+00
1393731857.14	-3.69994829e-01	-5.36793246e+01	-3.90966952e+01	1.10758571e+02	-3.91435341e+01	1.11825014e+02	-5.95916734e+00	-3.70559003e+00
1394017428.57	-3.70439031e-01	-5.37174942e+01	-3.90295629e+01	1.09858994e+02	-3.91127463e+01	1.11496419e+02	-5.95492472e+00	-3.89138351e+00
1394303000	-3.74739813e-01	-5.37126378e+01	-3.91238993e+01	1.09270929e+02	-3.90823870e+01	1.10506429e+02	-5.97120358e+00	-4.05443210e+00
1394588571.43	-3.72557060e-01	-5.37608294e+01	-3.90459094e+01	1.07897263e+02	-3.91356678e+01	1.09654004e+02	-5.97725138e+00	-4.20729956e+00
1394874142.86	-3.74826689e-01	-5.37854678e+01	-3.90492240e+01	1.08121393e+02	-3.91038309e+01	1.09081492e+02	-5.97608943e+00	-4.27602751e+00
1395159714.29	-3.74858340e-01	-5.38001729e+01	-3.91141808e+01	1.07164313e+02	-3.91303184e+01	1.08449537e+02	-5.97725453e+00	-4.50713671e+00
1395445285.71	-3.74520502e-01	-5.38034178e+01	-3.91446014e+01	1.06398222e+02	-3.91193970e+01	1.07895254e+02	-5.99249715e+00	-4.62330188e+00
1395730857.14	-3.75585269e-01	-5.38233166e+01	-3.91492490e+01	1.05713144e+02	-3.91050558e+01	1.07388025e+02	-5.99856776e+00	-4.78764154e+00
1396016428.57	-3.78500683e-01	-5.38670262e+01	-3.91642971e+01	1.05426676e+02	-3.91447672e+01	1.06782187e+02	-6.00244516e+00	-4.87422777e+00
1396302000	-3.83257958e-01	-5.38612168e+01	-3.92224536e+01	1.04569660e+02	-3.91437010e+01	1.06084589e+02	-6.00697325e+00	-5.12391184e+00
1396587571.43	-3.78471022e-01	-5.38865135e+01	-3.92024474e+01	1.03715724e+02	-3.91707465e+01	1.05568642e+02	-6.01728934e+00	-5.23293931e+00
1396873142.86	-3.80595264e-01	-5.39137181e+01	-3.92693604e+01	1.03178735e+02	-3.91313650e+01	1.04593146e+02	-6.00298775e+00	-5.27747733e+00
1397158714.29	-3.79196076e-01	-5.39147858e+01	-3.92601764e+01	1.02921921e+02	-3.91398670e+01	1.04476472e+02	-6.00262939e+00	-5.49850905e+00
1397444285.71	-3.83166123e-01	-5.39317575e+01	-3.92872568e+01	1.02196847e+02	-3.91777776e+01	1.03689339e+02	-6.01218923e+00	-5.60097313e+00
1397729857.14	-3.83574325e-01	-5.39565673e+01	-3.93476407e+01	1.01790384e+02	-3.91762593e+01	1.03046612e+02	-6.00456840e+00	-5.68319785e+00
1398015428.57	-3.83084901e-01	-5.39666219e+01	-3.93563446e+01	1.01447684e+02	-3.92242953e+01	1.02696610e+02	-6.00797383e+00	-5.80674505e+00
1398301000	-3.85815251e-01	-5.39570819e+01	-3.94403366e+01	1.00568135e+02	-3.92426223e+01	1.02088189e+02	-5.99848242e+00	-5.92641587e+00
1398586571.43	-3.86425876e-01	-5.40136385e+01	-3.94213280e+01	1.00088215e+02	-3.92499777e+01	1.01683768e+02	-6.00522079e+00	-5.98582338e+00
1398872142.86	-3.88980649e-01	-5.40409298e+01	-3.94033468e+01	9.94529521e+01	-3.92385268e+01	1.00640233e+02	-6.00191973e+00	-5.97865389e+00
1399157714.29	-3.87890245e-01	-5.40444783e+01	-3.95188593e+01	9.88363640e+01	-3.93069345e+01	1.00676440e+02	-6.01222116e+00	-6.08206469e+00
1399443285.71	-3.87626492e-01	-5.40146250e+01	-3.95667606e+01	9.85937095e+01	-3.93526119e+01	9.99615872e+01	-6.01732030e+00	-6.17831770e+00
1399728857.14	-3.87763170e-01	-5.40540956e+01	-3.95513594e+01	9.80378010e+01	-3.93156092e+01	9.96602388e+01	-6.01753092e+00	-6.22784991e+00
1400014428.57	-3.88083923e-01	-5.40754787e+01	-3.95133226e+01	9.76419180e+01	-3.93864948e+01	9.92701569e+01	-6.01921291e+00	-6.26606375e+00
1400300000	-3.86825605e-01	-5.40886862e+01	-3.96312722e+01	9.74870850e+01	-3.93325236e+01	9.85761614e+01	-6.02072296e+00	-6.33256186e+00
1400585571.43	-3.90739094e-01	-5.40954409e+01	-3.96038115e+01	9.69123785e+01	-3.94226877e+01	9.83228095e+01	-6.01747144e+00	-6.43698361e+00
1400871142.86	-3.89825049e-01	-5.40738128e+01	-3.96372639e+01	9.66626653e+01	-3.93501241e+01	9.76571314e+01	-6.01569476e+00	-6.42648049e+00
1401156714.29	-3.88213732e-01	-5.41356266e+01	-3.96898793e+01	9.59249202e+01	-3.94193425e+01	9.71939349e+01	-6.02093731e+00	-6.55114923e+00
1401442285.71	-3.88876411e-01	-5.41791899e+01	-3.96638083e+01	9.57800522e+01	-3.94580518e+01	9.71018424e+01	-6.01487161e+00	-6.60264475e+00
1401727857.14	-3.90212934e-01	-5.41939026e+01	-3.97040171e+01	9.51956218e+01	-3.94288925e+01	9.65097300e+01	-6.01298748e+00	-6.68350794e+00
1402013428.57	-3.91551682e-01	-5.41920299e+01	-3.97003324e+01	9.50340364e+01	-3.94344442e+01	9.59184120e+01	-6.01078132e+00	-6.72626362e+00
1402299000	-3.95749797e-01	-5.41850165e+01	-3.97481700e+01	9.43897588e+01	-3.94619641e+01	9.56023355e+01	-6.01487372e+00	-6.84210004e+00
1402584571.43	-3.96090936e-01	-5.42058948e+01	-3.97559930e+01	9.46453080e+01	-3.94652063e+01	9.52907612e+01	-6.01130889e+00	-6.90064315e+00
1402870142.86	-3.97673863e-01	-5.42380002e+01	-3.97603524e+01	9.40332512e+01	-3.94383176e+01	9.50589583e+01	-6.01308860e+00	-6.95600521e+00
1403155714.29	-3.92588818e-01	-5.42275061e+01	-3.97524674e+01	9.37028368e+01	-3.94309938e+01	9.43496238e+01	-6.01325298e+00	-7.00795449e+00
1403441285.71	-3.93243704e-01	-5.42209144e+01	-3.97682441e+01	9.35747670e+01	-3.94796672e+01	9.39165031e+01	-6.00744060e+00	-7.06741762e+00
1403726857.14	-3.94465651e-01	-5.42513466e+01	-3.98307375e+01	9.31740763e+01	-3.95131601e+01	9.36281744e+01	-6.01193602e+00	-7.21236280e+00
1404012428.57	-3.99966309e-01	-5.42769975e+01	-3.98313169e+01	9.26408455e+01	-3.94728118e+01	9.32992120e+01	-5.99779206e+00	-7.30578387e+00
1404298000	-3.96105800e-01	-5.42881921e+01	-3.98173879e+01	9.24946683e+01	-3.94921591e+01	9.26018057e+01	-6.00335484e+00	-7.44013700e+00
1404583571.43	-3.97012988e-01	-5.42903827e+01	-3.98048387e+01	9.19465175e+01	-3.94637285e+01	9.21907375e+01	-5.99430907e+00	-7.52341830e+00
1404869142.86	-3.97745528e-01	-5.43070103e+01	-3.98812143e+01	9.15774455e+01	-3.95177095e+01	9.23107908e+01	-5.99235144e+00	-7.66501738e+00
1405154714.29	-4.03766386e-01	-5.43010098e+01	-3.98597170e+01	9.14702544e+01	-3.95697391e+01	9.14179284e+01	-5.99279735e+00	-7.75055454e+00
1405440285.71	-4.04358953e-01	-5.42919572e+01	-3.98409282e+01	9.10807642e+01	-3.95382575e+01	9.13408334e+01	-5.98130372e+00	-7.85554334e+00
1405725857.14	-4.00243457e-01	-5.43089820e+01	-3.98946920e+01	9.09539036e+01	-3.94855844e+01	9.08297124e+01	-5.97780887e+00	-7.98850145e+00
1406011428.57	-4.03182161e-01	-5.43095289e+01	-3.98371612e+01	9.02787593e+01	-3.95417109e+01	9.04721720e+01	-5.98755267e+00	-8.12418509e+00
1406297000	-4.01224391e-01	-5.43346439e+01	-3.98698083e+01	8.97655702e+01	-3.95329614e+01	8.97415978e+01	-5.96586515e+00	-8.26237414e+00
1406582571.43	-4.02965362e-01	-5.43632019e+01	-3.98674386e+01	8.97902355e+01	-3.95149295e+01	8.90691929e+01	-5.97839033e+00	-8.40023113e+00
1406868142.86	-4.02291336e-01	-5.43476113e+01	-3.98531777e+01	8.94355923e+01	-3.95776189e+01	8.91120367e+01	-5.96440392e+00	-8.53309471e+00
1407153714.29	-4.01202722e-01	-5.43434299e+01	-3.98492416e+01	8.94548769e+01	-3.95663251e+01	8.84714060e+01	-5.95949532e+00	-8.62750974e+00
1407439285.71	-4.03654210e-01	-5.43517429e+01	-3.98865406e+01	8.88464099e+01	-3.96048651e+01	8.80231096e+01	-5.95902503e+00	-8.73262600e+00
1407724857.14	-4.01215902e-01	-5.43609627e+01	-3.98211489e+01	8.85680381e+01	-3.95608502e+01	8.75944817e+01	-5.95128548e+00	-8.81303196e+00
1408010428.57	-3.99722179e-01	-5.43854604e+01	-3.98190540e+01	8.80307138e+01	-3.96087094e+01	8.71464621e+01	-5.95845321e+00	-8.89625975e+00
1408296000	-4.04064768e-01	-5.43829243e+01	-3.98433964e+01	8.78915297e+01	-3.96577553e+01	8.67970675e+01	-5.95825080e+00	-9.04057436e+00
1408581571.43	-4.03476086e-01	-5.44205547e+01	-3.98680644e+01	8.75830580e+01	-3.95982551e+01	8.66850890e+01	-5.95655285e+00	-9.18135984e+00
1408867142.86	-4.06038259e-01	-5.44280413e+01	-3.98395505e+01	8.70349197e+01	-3.95931629e+01	8.61045680e+01	-5.95107790e+00	-9.29348904e+00
1409152714.29	-4.09320003e-01	-5.44381058e+01	-3.98140129e+01	8.67470918e+01	-3.95782336e+01	8.58923393e+01	-5.96291790e+00	-9.39902045e+00
1409438285.71	-4.07887084e-01	-5.44698221e+01	-3.98343053e+01	8.70278700e+01	-3.96305794e+01	8.53042297e+01	-5.96864664e+00	-9.51938762e+00
1409723857.14	-4.09172755e-01	-5.44948952e+01	-3.98138160e+01	8.61448751e+01	-3.95827478e+01	8.53161910e+01	-5.97102023e+00	-9.58816817e+00
1410009428.57	-4.09965035e-01	-5.45166029e+01	-3.97699144e+01	8.60835897e+01	-3.96335561e+01	8.48135825e+01	-5.97676320e+00	-9.66325830e+00
1410295000	-4.12549109e-01	-5.45095935e+01	-3.97847143e+01	8.57560295e+01	-3.96172051e+01	8.43930566e+01	-5.97283107e+00	-9.78669916e+00
1410580571.43	-4.15229976e-01	-5.45174033e+01	-3.98106690e+01	8.57644164e+01	-3.96299562e+01	8.42356124e+01	-5.96513446e+00	-9.92087141e+00
1410866142.86	-4.17511587e-01	-5.45047969e+01	-3.97739181e+01	8.52433476e+01	-3.95811496e+01	8.40425834e+01	-5.97372388e+00	-9.99619185e+00
1411151714.29	-4.15492910e-01	-5.44884713e+01	-3.97509007e+01	8.45758848e+01	-3.96493337e+01	8.31454301e+01	-5.96781601e+00	-1.01178907e+01
1411437285.71	-4.10985654e-01	-5.45408587e+01	-3.96954275e+01	8.40323284e+01	-3.95894731e+01	8.31998481e+01	-5.95757233e+00	-1.01724765e+01
1411722857.14	-4.07867091e-01	-5.45610438e+01	-3.97191089e+01	8.36378553e+01	-3.95792000e+01	8.26322411e+01	-5.96270234e+00	-1.02542248e+01
1412008428.57	-4.15795178e-01	-5.45550800e+01	-3.96590466e+01	8.35506336e+01	-3.96014997e+01	8.23828021e+01	-5.95868415e+00	-1.03086291e+01
1412294000	-4.18377976e-01	-5.45412286e+01	-3.97294474e+01	8.33448913e+01	-3.95418226e+01	8.18999269e+01	-5.96406782e+00	-1.03388136e+01
1412579571.43	-4.21843306e-01	-5.45550669e+01	-3.96484342e+01	8.26542708e+01	-3.95209521e+01	8.17823373e+01	-5.95862817e+00	-1.04676874e+01
1412865142.86	-4.23395611e-01	-5.45820963e+01	-3.96420715e+01	8.26351198e+01	-3.95383431e+01	8.09628618e+01	-5.94999842e+00	-1.05818067e+01
1413150714.29	-4.22186742e-01	-5.45800736e+01	-3.96426983e+01	8.18426139e+01	-3.95600281e+01	8.12677657e+01	-5.94811110e+00	-1.07278208e+01
1413436285.71	-4.18685074e-01	-5.45954503e+01	-3.96548243e+01	8.17632916e+01	-3.95796546e+01	8.03495176e+01	-5.95074926e+00	-1.08468595e+01
1413721857.14	-4.20632509e-01	-5.46153890e+01	-3.95966033e+01	8.10166211e+01	-3.95268542e+01	8.01317429e+01	-5.95007370e+00	-1.09084530e+01
1414007428.57	-4.17100588e-01	-5.46122294e+01	-3.95795911e+01	8.08002463e+01	-3.94698467e+01	7.96344658e+01	-5.94685235e+00	-1.09191344e+01
1414293000	-4.20658171e-01	-5.46074952e+01	-3.95925233e+01	8.08045251e+01	-3.94590153e+01	7.93853216e+01	-5.93758223e+00	-1.10430638e+01
1414578571.43	-4.21132102e-01	-5.46081242e+01	-3.95541490e+01	7.97359514e+01	-3.94708091e+01	7.92593594e+01	-5.93645463e+00	-1.11935042e+01
1414864142.86	-4.21676162e-01	-5.46356697e+01	-3.95466797e+01	7.97893202e+01	-3.94606542e+01	7.89015953e+01	-5.93649349e+00	-1.13129736e+01
1415149714.29	-4.21238203e-01	-5.46563835e+01	-3.94910792e+01	7.88563659e+01	-3.94150783e+01	7.79663249e+01	-5.93468678e+00	-1.13547450e+01
1415435285.71	-4.19093506e-01	-5.46476193e+01	-3.94777311e+01	7.85765093e+01	-3.93768939e+01	7.76881378e+01	-5.93619076e+00	-1.14140734e+01
1415720857.14	-4.19119592e-01	-5.46673778e+01	-3.94503120e+01	7.83046669e+01	-3.94009934e+01	7.69039253e+01	-5.91848231e+00	-1.14469645e+01
1416006428.57	-4.21696011e-01	-5.46701816e+01	-3.94905980e+01	7.77497676e+01	-3.93770662e+01	7.69039109e+01	-5.92387755e+00	-1.15074675e+01
1416292000	-4.22566410e-01	-5.46582517e+01	-3.93666504e+01	7.70827760e+01	-3.94114301e+01	7.65630892e+01	-5.91583241e+00	-1.15904906e+01
1416577571.43	-4.20395304e-01	-5.46384722e+01	-3.94490937e+01	7.66103613e+01	-3.93744028e+01	7.59412235e+01	-5.90268705e+00	-1.16606608e+01
1416863142.86	-4.21238628e-01	-5.46496598e+01	-3.93875180e+01	7.63376285e+01	-3.92947016e+01	7.56375905e+01	-5.90127369e+00	-1.17720108e+01
1417148714.29	-4.20795042e-01	-5.46635677e+01	-3.93306507e+01	7.61928151e+01	-3.93066636e+01	7.51090986e+01	-5.88622253e+00	-1.18562959e+01
1417434285.71	-4.20172309e-01	-5.46456926e+01	-3.93395484e+01	7.52452719e+01	-3.92416729e+01	7.46779045e+01	-5.88642331e+00	-1.19382518e+01
1417719857.14	-4.17397102e-01	-5.46822468e+01	-3.93059167e+01	7.50164140e+01	-3.92601139e+01	7.43144810e+01	-5.87896777e+00	-1.20005612e+01
1418005428.57	-4.17891460e-01	-5.46729852e+01	-3.93488200e+01	7.39683041e+01	-3.93074000e+01	7.37581351e+01	-5.87393190e+00	-1.20603305e+01
1418291000	-4.17617034e-01	-5.46970283e+01	-3.92652167e+01	7.40978982e+01	-3.92991160e+01	7.37069360e+01	-5.86807050e+00	-1.21937030e+01
1418576571.43	-4.21197672e-01	-5.46925154e+01	-3.92718704e+01	7.36504480e+01	-3.92627515e+01	7.28930878e+01	-5.86136372e+00	-1.22936985e+01
1418862142.86	-4.24095712e-01	-5.46867302e+01	-3.92671472e+01	7.27900162e+01	-3.92750771e+01	7.21988158e+01	-5.84846385e+00	-1.23490224e+01
1419147714.29	-4.20819808e-01	-5.46897156e+01	-3.92990539e+01	7.27058640e+01	-3.92286891e+01	7.20994279e+01	-5.84712460e+00	-1.24372735e+01
1419433285.71	-4.20564132e-01	-5.46676985e+01	-3.93231290e+01	7.14013479e+01	-3.92956812e+01	7.16752348e+01	-5.84141406e+00	-1.25682340e+01
1419718857.14	-4.17756175e-01	-5.46653244e+01	-3.92242507e+01	7.13038541e+01	-3.92259208e+01	7.11156899e+01	-5.83226005e+00	-1.26472141e+01
1420004428.57	-4.19517942e-01	-5.46435916e+01	-3.92717011e+01	7.06890356e+01	-3.91987035e+01	7.05273553e+01	-5.81549213e+00	-1.27222583e+01
1420290000	-4.20548684e-01	-5.46836923e+01	-3.92571955e+01	6.99218411e+01	-3.92229084e+01	7.02494450e+01	-5.81146297e+00	-1.28514189e+01
1420575571.43	-4.25337566e-01	-5.46815732e+01	-3.92058757e+01	6.94157345e+01	-3.92354927e+01	6.98798284e+01	-5.81688660e+00	-1.29397309e+01
1420861142.86	-4.22837835e-01	-5.47140059e+01	-3.91910546e+01	6.92603809e+01	-3.92285403e+01	6.93920126e+01	-5.80449464e+00	-1.29985785e+01
1421146714.29	-4.19706708e-01	-5.47012809e+01	-3.92609663e+01	6.85408920e+01	-3.92540836e+01	6.91081889e+01	-5.79566422e+00	-1.31422465e+01
1421432285.71	-4.21174137e-01	-5.46986048e+01	-3.92472154e+01	6.80596621e+01	-3.92145310e+01	6.86906088e+01	-5.79138290e+00	-1.32592621e+01
1421717857.14	-4.22122575e-01	-5.47053972e+01	-3.92643840e+01	6.76901549e+01	-3.92154659e+01	6.81613884e+01	-5.78333169e+00	-1.33368463e+01
1422003428.57	-4.23803285e-01	-5.46767631e+01	-3.92073198e+01	6.75253671e+01	-3.91996911e+01	6.76225236e+01	-5.78365444e+00	-1.34055948e+01
1422289000	-4.25155005e-01	-5.47341951e+01	-3.92835853e+01	6.70385366e+01	-3.91778199e+01	6.74750750e+01	-5.77931123e+00	-1.35021991e+01
1422574571.43	-4.23976395e-01	-5.47471873e+01	-3.92398955e+01	6.64096250e+01	-3.91702148e+01	6.69189079e+01	-5.77131678e+00	-1.36428654e+01
1422860142.86	-4.23652039e-01	-5.47423426e+01	-3.92671158e+01	6.57001063e+01	-3.91845082e+01	6.63541581e+01	-5.76660148e+00	-1.37018827e+01
1423145714.29	-4.19732889e-01	-5.47537130e+01	-3.92427409e+01	6.52267376e+01	-3.92043801e+01	6.60331232e+01	-5.76249378e+00	-1.38673300e+01
1423431285.71	-4.24283438e-01	-5.47474997e+01	-3.91946325e+01	6.49522459e+01	-3.92011349e+01	6.55178023e+01	-5.76094024e+00	-1.39389150e+01
1423716857.14	-4.20192497e-01	-5.47654757e+01	-3.93058136e+01	6.43411857e+01	-3.91944235e+01	6.51509311e+01	-5.75062076e+00	-1.40477871e+01
1424002428.57	-4.17420392e-01	-5.47601720e+01	-3.93106863e+01	6.39950750e+01	-3.91738806e+01	6.48843478e+01	-5.74719652e+00	-1.41137767e+01
1424288000	-4.23683048e-01	-5.47387584e+01	-3.92872502e+01	6.35088284e+01	-3.91641906e+01	6.44677905e+01	-5.74495384e+00	-1.42382381e+01
1424573571.43	-4.25301698e-01	-5.47676758e+01	-3.92421273e+01	6.32968212e+01	-3.91592634e+01	6.41255186e+01	-5.74306184e+00	-1.43106426e+01
1424859142.86	-4.26171900e-01	-5.47708492e+01	-3.92867838e+01	6.30677593e+01	-3.91522030e+01	6.34930649e+01	-5.73433901e+00	-1.44413204e+01
1425144714.29	-4.24033290e-01	-5.47617009e+01	-3.92464595e+01	6.28121646e+01	-3.91361394e+01	6.33253723e+01	-5.73772250e+00	-1.44848247e+01
1425430285.71	-4.23569592e-01	-5.47735360e+01	-3.92278750e+01	6.26478880e+01	-3.91321767e+01	6.30289093e+01	-5.73282724e+00	-1.46148569e+01
1425715857.14	-4.24970451e-01	-5.47486552e+01	-3.92214989e+01	6.14596728e+01	-3.91398522e+01	6.27030281e+01	-5.71535618e+00	-1.47085297e+01
1426001428.57	-4.26337893e-01	-5.47758886e+01	-3.92485367e+01	6.15053997e+01	-3.91135678e+01	6.21886743e+01	-5.71459789e+00	-1.48077483e+01
1426287000	-4.25592168e-01	-5.47432049e+01	-3.92752510e+01	6.09387974e+01	-3.90707600e+01	6.17591424e+01	-5.70314918e+00	-1.48660436e+01
1426572571.43	-4.24626077e-01	-5.47370456e+01	-3.92362882e+01	6.07488601e+01	-3.90935336e+01	6.13847946e+01	-5.70794054e+00	-1.48809833e+01
1426858142.86	-4.22415082e-01	-5.47654026e+01	-3.92736731e+01	6.02930803e+01	-3.90714556e+01	6.10968060e+01	-5.69936569e+00	-1.50275652e+01
1427143714.29	-4.25411685e-01	-5.47663005e+01	-3.92353884e+01	5.95948361e+01	-3.90872551e+01	6.05597377e+01	-5.70317614e+00	-1.51269815e+01
1427429285.71	-4.24589081e-01	-5.47956712e+01	-3.92214605e+01	5.96350682e+01	-3.90696301e+01	6.04246349e+01	-5.70773836e+00	-1.52023729e+01
1427714857.14	-4.26701420e-01	-5.48206263e+01	-3.92023659e+01	5.92048952e+01	-3.90281477e+01	5.96867245e+01	-5.71326506e+00	-1.52892235e+01
1428000428.57	-4.25317806e-01	-5.48092376e+01	-3.91966471e+01	5.86774136e+01	-3.90236246e+01	5.92273682e+01	-5.69569682e+00	-1.53750641e+01
1428286000	-4.24614636e-01	-5.48094902e+01	-3.91812278e+01	5.81839178e+01	-3.90282815e+01	5.87026007e+01	-5.70347923e+00	-1.54857253e+01
1428571571.43	-4.24599364e-01	-5.48120660e+01	-3.90780787e+01	5.78742594e+01	-3.90451787e+01	5.86652985e+01	-5.69297861e+00	-1.56154554e+01
1428857142.86	-4.22499029e-01	-5.48237118e+01	-3.91910805e+01	5.75270727e+01	-3.89906725e+01	5.78997150e+01	-5.69412649e+00	-1.57981309e+01
1429142714.29	-4.24435145e-01	-5.48772017e+01	-3.91687423e+01	5.70844622e+01	-3.89571813e+01	5.77697482e+01	-5.68875836e+00	-1.58678207e+01
1429428285.71	-4.20743167e-01	-5.48677412e+01	-3.91132342e+01	5.68396871e+01	-3.90047456e+01	5.71797161e+01	-5.68743626e+00	-1.60474403e+01
1429713857.14	-4.21883064e-01	-5.48812066e+01	-3.90794842e+01	5.62002976e+01	-3.89546024e+01	5.71176072e+01	-5.68245676e+00	-1.60792626e+01
1429999428.57	-4.22945492e-01	-5.49016263e+01	-3.90591490e+01	5.56484280e+01	-3.89552088e+01	5.63263117e+01	-5.68662287e+00	-1.62209888e+01
1430285000	-4.23700016e-01	-5.49156503e+01	-3.90689121e+01	5.54907890e+01	-3.89247281e+01	5.59987733e+01	-5.68146391e+00	-1.62416478e+01
1430570571.43	-4.21528917e-01	-5.49133438e+01	-3.90541203e+01	5.50950073e+01	-3.89293143e+01	5.57119103e+01	-5.68566582e+00	-1.63988976e+01
1430856142.86	-4.26877658e-01	-5.49207314e+01	-3.90699995e+01	5.46754274e+01	-3.89389390e+01	5.50465474e+01	-5.68170752e+00	-1.64315867e+01
1431141714.29	-4.25295892e-01	-5.49340707e+01	-3.90530971e+01	5.41731706e+01	-3.88948092e+01	5.46236353e+01	-5.69046324e+00	-1.65305670e+01
1431427285.71	-4.24673324e-01	-5.49294785e+01	-3.90314304e+01	5.36771116e+01	-3.88562680e+01	5.41463491e+01	-5.69045017e+00	-1.65839058e+01
1431712857.14	-4.22353599e-01	-5.49639687e+01	-3.89636912e+01	5.32427183e+01	-3.88576997e+01	5.38184370e+01	-5.68917232e+00	-1.66520027e+01
1431998428.57	-4.24662318e-01	-5.49783567e+01	-3.89695980e+01	5.26210349e+01	-3.88781671e+01	5.31259891e+01	-5.68311442e+00	-1.67569210e+01
1432284000	-4.23569676e-01	-5.49662414e+01	-3.89210567e+01	5.22147027e+01	-3.88574115e+01	5.29387444e+01	-5.68191661e+00	-1.67927309e+01
1432569571.43	-4.18894715e-01	-5.49477612e+01	-3.89755614e+01	5.20654688e+01	-3.88604441e+01	5.24195482e+01	-5.68165878e+00	-1.68575230e+01
1432855142.86	-4.21831350e-01	-5.49819407e+01	-3.89260769e+01	5.15820189e+01	-3.88438890e+01	5.24090540e+01	-5.68458181e+00	-1.69140981e+01
1433140714.29	-4.23208588e-01	-5.50060208e+01	-3.89260526e+01	5.08768347e+01	-3.88408498e+01	5.15299826e+01	-5.68464247e+00	-1.69600327e+01
1433426285.71	-4.24644840e-01	-5.50416841e+01	-3.88862434e+01	5.05726304e+01	-3.88187201e+01	5.10808539e+01	-5.67230807e+00	-1.69615380e+01
1433711857.14	-4.25327113e-01	-5.50755892e+01	-3.89045078e+01	4.96450589e+01	-3.88067253e+01	5.08030891e+01	-5.67349843e+00	-1.70580401e+01
1433997428.57	-4.19081548e-01	-5.50676309e+01	-3.89157025e+01	4.94000922e+01	-3.87524996e+01	5.02447850e+01	-5.67477086e+00	-1.71133257e+01
1434283000	-4.19548480e-01	-5.50538144e+01	-3.88344341e+01	4.92186007e+01	-3.88054947e+01	4.95200310e+01	-5.67525914e+00	-1.72111026e+01
1434568571.43	-4.19619316e-01	-5.51059253e+01	-3.88766118e+01	4.84829915e+01	-3.87847116e+01	4.90990484e+01	-5.67358739e+00	-1.73218416e+01
1434854142.86	-4.19251189e-01	-5.50668346e+01	-3.88244580e+01	4.80690568e+01	-3.87886847e+01	4.85542864e+01	-5.67028628e+00	-1.74209495e+01
1435139714.29	-4.22553942e-01	-5.50979273e+01	-3.88343332e+01	4.75036258e+01	-3.87536590e+01	4.83123552e+01	-5.67259699e+00	-1.73929978e+01
1435425285.71	-4.16156270e-01	-5.50695793e+01	-3.87866676e+01	4.68961711e+01	-3.87564206e+01	4.78296111e+01	-5.68564316e+00	-1.74414569e+01
1435710857.14	-4.24591479e-01	-5.50573159e+01	-3.88878711e+01	4.67859769e+01	-3.87216411e+01	4.73655581e+01	-5.68287192e+00	-1.75028226e+01
1435996428.57	-4.20597760e-01	-5.50835000e+01	-3.88151366e+01	4.64595777e+01	-3.87758771e+01	4.69309734e+01	-5.69160315e+00	-1.75307574e+01
1436282000	-4.23600517e-01	-5.50879416e+01	-3.88636237e+01	4.56205268e+01	-3.87604372e+01	4.66847014e+01	-5.68792450e+00	-1.76279676e+01
1436567571.43	-4.18204141e-01	-5.51170733e+01	-3.88206485e+01	4.45849686e+01	-3.87651128e+01	4.60452863e+01	-5.69313314e+00	-1.77522579e+01
1436853142.86	-4.11160355e-01	-5.51508086e+01	-3.87831693e+01	4.48506695e+01	-3.87613445e+01	4.54783167e+01	-5.69094671e+00	-1.78725982e+01
1437138714.29	-4.16476173e-01	-5.51024832e+01	-3.88166074e+01	4.43152526e+01	-3.87355512e+01	4.53234090e+01	-5.69408318e+00	-1.79297210e+01
1437424285.71	-4.13825733e-01	-5.51196379e+01	-3.88058767e+01	4.37854426e+01	-3.87413581e+01	4.45568711e+01	-5.69661861e+00	-1.80038478e+01
1437709857.14	-4.11516254e-01	-5.51453607e+01	-3.88125378e+01	4.35477558e+01	-3.87399003e+01	4.43644381e+01	-5.69508165e+00	-1.81743797e+01
1437995428.57	-4.15352140e-01	-5.51560480e+01	-3.87934888e+01	4.32998603e+01	-3.87232654e+01	4.40198727e+01	-5.69390343e+00	-1.81778454e+01
1438281000	-4.13460079e-01	-5.51812656e+01	-3.88327476e+01	4.28119243e+01	-3.87273475e+01	4.34437525e+01	-5.69890177e+00	-1.83603939e+01
1438566571.43	-4.13020639e-01	-5.52011114e+01	-3.87891915e+01	4.25264577e+01	-3.87133576e+01	4.30515439e+01	-5.70257546e+00	-1.84386282e+01
1438852142.86	-4.17173697e-01	-5.51936518e+01	-3.88248742e+01	4.23330112e+01	-3.87212019e+01	4.24386928e+01	-5.70013033e+00	-1.85106851e+01
1439137714.29	-4.12443358e-01	-5.52377702e+01	-3.88591592e+01	4.12053254e+01	-3.86899516e+01	4.20379131e+01	-5.70175282e+00	-1.86490368e+01
1439423285.71	-4.15399713e-01	-5.52339531e+01	-3.88419988e+01	4.10009036e+01	-3.86907444e+01	4.16316443e+01	-5.68478131e+00	-1.87251259e+01
1439708857.14	-4.15702362e-01	-5.52485664e+01	-3.87898813e+01	4.05247308e+01	-3.87054474e+01	4.13931979e+01	-5.69673258e+00	-1.88428574e+01
1439994428.57	-4.15326511e-01	-5.52552195e+01	-3.87706614e+01	4.02798738e+01	-3.86845949e+01	4.11723697e+01	-5.70230860e+00	-1.89523272e+01
1440280000	-4.10541914e-01	-5.52740171e+01	-3.87616852e+01	3.97223898e+01	-3.86905127e+01	4.04930770e+01	-5.71063200e+00	-1.90576300e+01
1440565571.43	-4.10072742e-01	-5.53124108e+01	-3.88277938e+01	3.93865457e+01	-3.86759240e+01	4.01335977e+01	-5.71286411e+00	-1.91798634e+01
1440851142.86	-4.07707700e-01	-5.53176959e+01	-3.87676570e+01	3.90589075e+01	-3.86965587e+01	3.98608172e+01	-5.72076539e+00	-1.92761340e+01
1441136714.29	-4.08866025e-01	-5.53265036e+01	-3.87527152e+01	3.87138199e+01	-3.86877658e+01	3.92674527e+01	-5.70981508e+00	-1.93615041e+01
1441422285.71	-4.11450474e-01	-5.53580002e+01	-3.87154210e+01	3.81172486e+01	-3.86756694e+01	3.89078953e+01	-5.71011343e+00	-1.94210329e+01
1441707857.14	-4.10331560e-01	-5.53931023e+01	-3.86696352e+01	3.77476108e+01	-3.86197164e+01	3.87082259e+01	-5.70868068e+00	-1.95799524e+01
1441993428.57	-4.10961893e-01	-5.54318859e+01	-3.86724178e+01	3.73392271e+01	-3.86163803e+01	3.80677677e+01	-5.71883795e+00	-1.96318553e+01
1442279000	-4.16957119e-01	-5.54030939e+01	-3.87281364e+01	3.70721825e+01	-3.86052559e+01	3.74914841e+01	-5.70926672e+00	-1.97350263e+01
1442564571.43	-4.16669295e-01	-5.54198314e+01	-3.86768691e+01	3.66193367e+01	-3.86246832e+01	3.71985919e+01	-5.71172529e+00	-1.98591515e+01
1442850142.86	-4.13828467e-01	-5.54187400e+01	-3.86271982e+01	3.60828486e+01	-3.86074792e+01	3.66296036e+01	-5.72059961e+00	-1.98126848e+01
1443135714.29	-4.11152886e-01	-5.54584612e+01	-3.86395553e+01	3.58760557e+01	-3.85927403e+01	3.63868831e+01	-5.72783330e+00	-1.99809123e+01
1443421285.71	-4.08756887e-01	-5.54694152e+01	-3.85912397e+01	3.54675342e+01	-3.85563470e+01	3.59783951e+01	-5.73051350e+00	-2.00303461e+01
1443706857.14	-4.10958400e-01	-5.54313351e+01	-3.86174708e+01	3.46651355e+01	-3.85762583e+01	3.54289134e+01	-5.74283604e+00	-2.01517742e+01
1443992428.57	-4.08583786e-01	-5.54366565e+01	-3.85963783e+01	3.45791679e+01	-3.85740931e+01	3.52647339e+01	-5.74687605e+00	-2.02326513e+01
1444278000	-4.08852862e-01	-5.54966260e+01	-3.85876536e+01	3.38790791e+01	-3.85137819e+01	3.47820964e+01	-5.75366759e+00	-2.03342016e+01
1444563571.43	-4.03958795e-01	-5.55047515e+01	-3.85200057e+01	3.34300605e+01	-3.84982559e+01	3.39548118e+01	-5.74039001e+00	-2.03756371e+01
1444849142.86	-4.03901090e-01	-5.55312917e+01	-3.85930127e+01	3.24939174e+01	-3.85278810e+01	3.37729900e+01	-5.74824461e+00	-2.04933892e+01
1445134714.29	-4.03596178e-01	-5.55548892e+01	-3.85594336e+01	3.24344846e+01	-3.85085253e+01	3.34866729e+01	-5.75682332e+00	-2.06930634e+01
1445420285.71	-4.02916496e-01	-5.55774711e+01	-3.85451960e+01	3.18867375e+01	-3.84584438e+01	3.27671231e+01	-5.74637670e+00	-2.07546007e+01
1445705857.14	-4.02966196e-01	-5.56115025e+01	-3.85021806e+01	3.16172667e+01	-3.84607062e+01	3.21423675e+01	-5.75233283e+00	-2.08066831e+01
1445991428.57	-4.03624567e-01	-5.56097739e+01	-3.85644224e+01	3.09037326e+01	-3.84978553e+01	3.18315543e+01	-5.75395469e+00	-2.08884947e+01
1446277000	-4.04212640e-01	-5.56146246e+01	-3.85519657e+01	3.03623835e+01	-3.84511856e+01	3.14575420e+01	-5.76192443e+00	-2.10138332e+01
1446562571.43	-4.06265515e-01	-5.56447198e+01	-3.85332504e+01	3.01527929e+01	-3.84530590e+01	3.09335785e+01	-5.75403894e+00	-2.11174709e+01
1446848142.86	-4.08783922e-01	-5.56422493e+01	-3.85094490e+01	2.98701941e+01	-3.84708079e+01	3.04706829e+01	-5.76330820e+00	-2.11807677e+01
1447133714.29	-4.08437519e-01	-5.56646800e+01	-3.85550079e+01	2.95566247e+01	-3.84585616e+01	3.00174805e+01	-5.75377198e+00	-2.12566089e+01
1447419285.71	-4.01658716e-01	-5.57185837e+01	-3.85166268e+01	2.85580708e+01	-3.84353687e+01	2.95198501e+01	-5.76710016e+00	-2.13727307e+01
1447704857.14	-4.00876792e-01	-5.57340457e+01	-3.85422373e+01	2.80852063e+01	-3.84676045e+01	2.90444366e+01	-5.77668481e+00	-2.15037516e+01
1447990428.57	-4.02473124e-01	-5.57342790e+01	-3.85284618e+01	2.78692491e+01	-3.84074251e+01	2.85464033e+01	-5.77451277e+00	-2.15879695e+01
1448276000	-4.05266610e-01	-5.57501049e+01	-3.85117542e+01	2.76480038e+01	-3.84132947e+01	2.81429722e+01	-5.76269836e+00	-2.15588734e+01
1448561571.43	-3.99625080e-01	-5.57570389e+01	-3.84441091e+01	2.68607350e+01	-3.84172886e+01	2.80672222e+01	-5.75828416e+00	-2.16521900e+01
1448847142.86	-4.00955690e-01	-5.57516330e+01	-3.84964351e+01	2.68597652e+01	-3.83826257e+01	2.70002893e+01	-5.77093410e+00	-2.17397415e+01
1449132714.29	-3.96320549e-01	-5.57754080e+01	-3.84792666e+01	2.61089006e+01	-3.84287025e+01	2.68854577e+01	-5.78067445e+00	-2.18850274e+01
1449418285.71	-3.98585345e-01	-5.57779986e+01	-3.84858215e+01	2.56142723e+01	-3.84137270e+01	2.64142007e+01	-5.77131096e+00	-2.18759192e+01
1449703857.14	-4.00365524e-01	-5.57993269e+01	-3.84881960e+01	2.51570150e+01	-3.84082963e+01	2.61053573e+01	-5.76314948e+00	-2.18847622e+01
1449989428.57	-4.02274423e-01	-5.57909681e+01	-3.84318481e+01	2.47868453e+01	-3.83932677e+01	2.56892001e+01	-5.77244974e+00	-2.19567232e+01
1450275000	-4.01991989e-01	-5.58065398e+01	-3.84246113e+01	2.43238800e+01	-3.83582086e+01	2.53052563e+01	-5.77247269e+00	-2.21352676e+01
1450560571.43	-4.01042374e-01	-5.58136503e+01	-3.84511058e+01	2.42751023e+01	-3.83970840e+01	2.48947916e+01	-5.76612750e+00	-2.21548674e+01
1450846142.86	-4.03302226e-01	-5.58596160e+01	-3.84486967e+01	2.33277704e+01	-3.84210924e+01	2.44135483e+01	-5.76947052e+00	-2.21751570e+01
1451131714.29	-4.03574139e-01	-5.58929676e+01	-3.84284488e+01	2.31489687e+01	-3.83536074e+01	2.40620373e+01	-5.77016725e+00	-2.23073473e+01
1451417285.71	-4.00882940e-01	-5.59009437e+01	-3.84016131e+01	2.26855193e+01	-3.83782691e+01	2.37557409e+01	-5.77651051e+00	-2.25039857e+01
1451702857.14	-3.99427186e-01	-5.59212238e+01	-3.84417943e+01	2.23287890e+01	-3.83877071e+01	2.32090099e+01	-5.76731561e+00	-2.24941615e+01
1451988428.57	-3.99209200e-01	-5.59286705e+01	-3.84374134e+01	2.19907910e+01	-3.83963294e+01	2.27029006e+01	-5.77074620e+00	-2.25615773e+01
1452274000	-3.99327222e-01	-5.59508331e+01	-3.84074767e+01	2.15884422e+01	-3.83789883e+01	2.26074343e+01	-5.75360054e+00	-2.26555592e+01
1452559571.43	-3.97633924e-01	-5.59666914e+01	-3.84068432e+01	2.13385430e+01	-3.83683097e+01	2.19935276e+01	-5.76698697e+00	-2.27936299e+01
1452845142.86	-4.01835551e-01	-5.59893229e+01	-3.85103221e+01	2.08015715e+01	-3.83348130e+01	2.18008732e+01	-5.76837007e+00	-2.29698443e+01
1453130714.29	-4.03596699e-01	-5.60006917e+01	-3.84263808e+01	2.05039472e+01	-3.83640349e+01	2.11594255e+01	-5.76845234e+00	-2.29964592e+01
1453416285.71	-4.02675461e-01	-5.60230535e+01	-3.84009143e+01	1.99942143e+01	-3.83642944e+01	2.07981950e+01	-5.77289656e+00	-2.30816727e+01
1453701857.14	-4.04031344e-01	-5.60526876e+01	-3.84220931e+01	1.95499725e+01	-3.83517915e+01	2.03999366e+01	-5.77161263e+00	-2.31865976e+01
1453987428.57	-4.02785341e-01	-5.60850861e+01	-3.84734736e+01	1.94207190e+01	-3.83300816e+01	2.01356401e+01	-5.76299454e+00	-2.33478527e+01
1454273000	-4.01832388e-01	-5.60935935e+01	-3.84407006e+01	1.92026968e+01	-3.83082079e+01	1.96007196e+01	-5.75265903e+00	-2.34795427e+01
1454558571.43	-4.03304549e-01	-5.61314254e+01	-3.83873146e+01	1.89610489e+01	-3.83285831e+01	1.94086156e+01	-5.75301915e+00	-2.35485546e+01
1454844142.86	-4.07087155e-01	-5.61516409e+01	-3.83921168e+01	1.85415980e+01	-3.83040615e+01	1.91472652e+01	-5.74505022e+00	-2.36530622e+01
1455129714.29	-4.05556971e-01	-5.61868316e+01	-3.83585911e+01	1.81830360e+01	-3.83523797e+01	1.85451724e+01	-5.74622937e+00	-2.36778622e+01
1455415285.71	-4.03352819e-01	-5.61896516e+01	-3.83302246e+01	1.80461828e+01	-3.82641151e+01	1.84444804e+01	-5.75285088e+00	-2.37036702e+01
1455700857.14	-4.04520367e-01	-5.62119504e+01	-3.83135008e+01	1.74976020e+01	-3.82647874e+01	1.81236121e+01	-5.73964003e+00	-2.37988338e+01
1455986428.57	-4.08274304e-01	-5.62120619e+01	-3.83373587e+01	1.69121595e+01	-3.83113334e+01	1.78382011e+01	-5.73455213e+00	-2.38441968e+01
1456272000	-4.07033932e-01	-5.62140545e+01	-3.82788501e+01	1.64763246e+01	-3.82174640e+01	1.74107992e+01	-5.72447267e+00	-2.39746538e+01
1456557571.43	-4.07526279e-01	-5.62472334e+01	-3.83169928e+01	1.61365429e+01	-3.82670188e+01	1.69245393e+01	-5.73047785e+00	-2.40636643e+01
1456843142.86	-4.06717045e-01	-5.62650602e+01	-3.82611950e+01	1.62320646e+01	-3.82122597e+01	1.68797929e+01	-5.73317724e+00	-2.41635139e+01
1457128714.29	-4.05528479e-01	-5.62685003e+01	-3.82018522e+01	1.61105317e+01	-3.81825418e+01	1.64503301e+01	-5.73009399e+00	-2.42641977e+01
1457414285.71	-4.05084147e-01	-5.62947774e+01	-3.81794795e+01	1.53115969e+01	-3.81316751e+01	1.58871666e+01	-5.73731362e+00	-2.43228329e+01
1457699857.14	-4.07220644e-01	-5.63355686e+01	-3.81376978e+01	1.51795764e+01	-3.81605703e+01	1.55556964e+01	-5.72879717e+00	-2.44698837e+01
1457985428.57	-4.04644291e-01	-5.63699286e+01	-3.80929724e+01	1.47298135e+01	-3.81489214e+01	1.52148691e+01	-5.73904070e+00	-2.45096156e+01
1458271000	-4.07633653e-01	-5.63704544e+01	-3.80519661e+01	1.45363190e+01	-3.81104143e+01	1.49135265e+01	-5.73878127e+00	-2.47218512e+01
1458556571.43	-4.10675526e-01	-5.63921515e+01	-3.80206343e+01	1.40595591e+01	-3.80683038e+01	1.44465971e+01	-5.75838519e+00	-2.47608739e+01
1458842142.86	-4.13167956e-01	-5.64185712e+01	-3.80513096e+01	1.39648481e+01	-3.80368014e+01	1.45687134e+01	-5.75116532e+00	-2.49405476e+01
1459127714.29	-4.09860193e-01	-5.64406936e+01	-3.80012829e+01	1.30132853e+01	-3.80444997e+01	1.39473227e+01	-5.74910986e+00	-2.50541350e+01
1459413285.71	-4.11537747e-01	-5.64515722e+01	-3.79137165e+01	1.29639092e+01	-3.79958907e+01	1.33628778e+01	-5.74792106e+00	-2.51310369e+01
1459698857.14	-4.10822846e-01	-5.64731406e+01	-3.79481933e+01	1.22262574e+01	-3.79830414e+01	1.30699272e+01	-5.74843871e+00	-2.53191107e+01
1459984428.57	-4.08667521e-01	-5.65046434e+01	-3.78956079e+01	1.20721123e+01	-3.79377611e+01	1.25761394e+01	-5.74078803e+00	-2.53799599e+01
1460270000	-4.09954528e-01	-5.64987728e+01	-3.77922885e+01	1.17609725e+01	-3.79498984e+01	1.21744464e+01	-5.74979682e+00	-2.54621126e+01
1460555571.43	-4.10093093e-01	-5.65031749e+01	-3.78212022e+01	1.09303920e+01	-3.78523405e+01	1.19502903e+01	-5.75475414e+00	-2.55635949e+01
1460841142.86	-4.12351553e-01	-5.65463027e+01	-3.77685546e+01	1.08985533e+01	-3.78069534e+01	1.13788862e+01	-5.75586271e+00	-2.57198372e+01
1461126714.29	-4.09279850e-01	-5.65815609e+01	-3.76907336e+01	1.01453610e+01	-3.77895185e+01	1.08988448e+01	-5.76718301e+00	-2.58803482e+01
1461412285.71	-4.11650731e-01	-5.66049096e+01	-3.76691244e+01	9.71635888e+00	-3.77698099e+01	1.05648161e+01	-5.77537428e+00	-2.60608661e+01
1461697857.14	-4.11609693e-01	-5.66381953e+01	-3.75949426e+01	9.22418681e+00	-3.77691878e+01	9.86908695e+00	-5.77209826e+00	-2.60865851e+01
1461983428.57	-4.10514534e-01	-5.66625289e+01	-3.76173298e+01	8.58845874e+00	-3.77334004e+01	9.25467110e+00	-5.77074064e+00	-2.62397401e+01
1462269000	-4.11811935e-01	-5.66882801e+01	-3.75585996e+01	8.21165978e+00	-3.76736190e+01	9.01540942e+00	-5.77571252e+00	-2.63270544e+01
1462554571.43	-4.11000769e-01	-5.67075072e+01	-3.75254609e+01	7.20714414e+00	-3.76113745e+01	8.62082921e+00	-5.77040633e+00	-2.63630938e+01
1462840142.86	-4.14017040e-01	-5.67291335e+01	-3.75139682e+01	6.96536032e+00	-3.75377511e+01	8.00248643e+00	-5.77780836e+00	-2.65522383e+01
1463125714.29	-4.18591539e-01	-5.67539469e+01	-3.75029773e+01	6.37827557e+00	-3.75408874e+01	7.40369195e+00	-5.79038352e+00	-2.66804073e+01
1463411285.71	-4.19472198e-01	-5.67711469e+01	-3.74819537e+01	5.53919865e+00	-3.75428437e+01	7.03130568e+00	-5.79233702e+00	-2.67722976e+01
1463696857.14	-4.16646709e-01	-5.67718325e+01	-3.74204930e+01	4.98905582e+00	-3.75321468e+01	6.66963403e+00	-5.79751969e+00	-2.69016866e+01
1463982428.57	-4.18181573e-01	-5.67989415e+01	-3.74095187e+01	4.53071719e+00	-3.74927369e+01	5.89249429e+00	-5.80482060e+00	-2.70404342e+01
1464268000	-4.17207496e-01	-5.68295106e+01	-3.73941514e+01	3.86587660e+00	-3.74793642e+01	5.62037699e+00	-5.80288682e+00	-2.71509438e+01
1464553571.43	-4.18207384e-01	-5.68449405e+01	-3.73462175e+01	3.28711388e+00	-3.74151401e+01	5.13861274e+00	-5.80725070e+00	-2.72597503e+01
1464839142.86	-4.15105492e-01	-5.68455610e+01	-3.72681312e+01	2.47792213e+00	-3.74541754e+01	4.60434583e+00	-5.82098007e+00	-2.72327205e+01
1465124714.29	-4.14601768e-01	-5.68611327e+01	-3.72997827e+01	2.20686456e+00	-3.73778911e+01	3.62725864e+00	-5.81883388e+00	-2.72902648e+01
1465410285.71	-4.20004704e-01	-5.68626326e+01	-3.72467972e+01	1.30852198e+00	-3.73896126e+01	3.57372367e+00	-5.82764672e+00	-2.73965389e+01
1465695857.14	-4.20594300e-01	-5.68917447e+01	-3.72351776e+01	1.20317617e+00	-3.73480784e+01	2.72948643e+00	-5.82800858e+00	-2.75112596e+01
1465981428.57	-4.20650768e-01	-5.69260203e+01	-3.72562332e+01	1.37267330e-01	-3.73228512e+01	2.27191764e+00	-5.83335236e+00	-2.75764364e+01
1466267000	-4.20270259e-01	-5.69698301e+01	-3.72318366e+01	-4.37241387e-01	-3.73466829e+01	1.93543579e+00	-5.84206584e+00	-2.76524914e+01
1466552571.43	-4.20645307e-01	-5.69865084e+01	-3.72019938e+01	-7.74485326e-01	-3.72627934e+01	1.15267555e+00	-5.83658480e+00	-2.77236874e+01
1466838142.86	-4.21345860e-01	-5.70035772e+01	-3.71885847e+01	-1.12486344e+00	-3.72502832e+01	6.59827122e-01	-5.84326058e+00	-2.78379506e+01
1467123714.29	-4.17544721e-01	-5.69897473e+01	-3.71412096e+01	-1.97461243e+00	-3.72111599e+01	1.98256410e-01	-5.84639731e+00	-2.79037885e+01
1467409285.71	-4.20693506e-01	-5.70432708e+01	-3.71595148e+01	-2.41817571e+00	-3.72119340e+01	-3.39409758e-01	-5.85596929e+00	-2.80282117e+01
1467694857.14	-4.24494993e-01	-5.70580224e+01	-3.71150740e+01	-3.36406914e+00	-3.71971845e+01	-1.15899862e+00	-5.84346967e+00	-2.81522549e+01
1467980428.57	-4.26564599e-01	-5.70655556e+01	-3.71512616e+01	-3.89581410e+00	-3.71571669e+01	-1.28507087e+00	-5.84365219e+00	-2.82430996e+01
1468266000	-4.29815108e-01	-5.70712738e+01	-3.70874032e+01	-4.30956382e+00	-3.71457077e+01	-1.96956369e+00	-5.85447122e+00	-2.83693901e+01
1468551571.43	-4.30457036e-01	-5.70991090e+01	-3.70701710e+01	-5.12742184e+00	-3.71218609e+01	-2.57945522e+00	-5.85314369e+00	-2.84864563e+01
1468837142.86	-4.32538399e-01	-5.71501632e+01	-3.70606723e+01	-5.75403554e+00	-3.71415704e+01	-3.16061749e+00	-5.84388769e+00	-2.85238490e+01
1469122714.29	-4.30180365e-01	-5.71602625e+01	-3.70889664e+01	-6.12907500e+00	-3.70734547e+01	-3.69561113e+00	-5.84704623e+00	-2.85840931e+01
1469408285.71	-4.28491414e-01	-5.71854753e+01	-3.70450640e+01	-6.99473575e+00	-3.70232056e+01	-4.21167135e+00	-5.84863258e+00	-2.87242049e+01
1469693857.14	-4.26393986e-01	-5.71579043e+01	-3.70021815e+01	-7.34010008e+00	-3.70254263e+01	-4.91534144e+00	-5.84211294e+00	-2.87408153e+01
1469979428.57	-4.31740087e-01	-5.71921640e+01	-3.70217847e+01	-7.99736505e+00	-3.70128478e+01	-5.17456912e+00	-5.84296420e+00	-2.88157702e+01
1470265000	-4.28752484e-01	-5.71868108e+01	-3.69399107e+01	-8.32667504e+00	-3.69809005e+01	-5.93051529e+00	-5.84571582e+00	-2.89210809e+01
1470550571.43	-4.33192030e-01	-5.72220200e+01	-3.69904173e+01	-9.35449788e+00	-3.69581999e+01	-6.46437446e+00	-5.84934890e+00	-2.90109263e+01
1470836142.86	-4.31496974e-01	-5.72447953e+01	-3.69598845e+01	-9.62162820e+00	-3.69731325e+01	-7.02602879e+00	-5.85323104e+00	-2.90542593e+01
1471121714.29	-4.33700299e-01	-5.72667396e+01	-3.70083099e+01	-1.05011680e+01	-3.69201594e+01	-7.76860578e+00	-5.84536807e+00	-2.92076047e+01
1471407285.71	-4.31835959e-01	-5.72879810e+01	-3.69532854e+01	-1.10042932e+01	-3.69508400e+01	-8.36693076e+00	-5.84584432e+00	-2.92772053e+01
1471692857.14	-4.34799780e-01	-5.73053971e+01	-3.69171314e+01	-1.20502300e+01	-3.69367753e+01	-8.88601616e+00	-5.84619444e+00	-2.93965749e+01
1471978428.57	-4.37063436e-01	-5.73395376e+01	-3.69474189e+01	-1.24633016e+01	-3.69177253e+01	-9.28909145e+00	-5.83761147e+00	-2.95137720e+01
1472264000	-4.36413439e-01	-5.73482822e+01	-3.69117219e+01	-1.31037399e+01	-3.68553394e+01	-9.86461489e+00	-5.83665212e+00	-2.96240340e+01
1472549571.43	-4.36991885e-01	-5.73608766e+01	-3.68999912e+01	-1.38373970e+01	-3.68880802e+01	-1.07425359e+01	-5.83545386e+00	-2.97286377e+01
1472835142.86	-4.34561582e-01	-5.73900968e+01	-3.69332522e+01	-1.43595604e+01	-3.68727300e+01	-1.13684897e+01	-5.83251412e+00	-2.98312096e+01
1473120714.29	-4.37300626e-01	-5.74248691e+01	-3.68802179e+01	-1.47970810e+01	-3.68425884e+01	-1.19374068e+01	-5.82835689e+00	-2.99017641e+01
1473406285.71	-4.37493150e-01	-5.74447217e+01	-3.68927178e+01	-1.52649745e+01	-3.68433401e+01	-1.24905021e+01	-5.83342206e+00	-3.00364091e+01
1473691857.14	-4.35220530e-01	-5.74542287e+01	-3.68815166e+01	-1.60109257e+01	-3.68032969e+01	-1.28600105e+01	-5.83280122e+00	-3.00378325e+01
1473977428.57	-4.39360227e-01	-5.74792081e+01	-3.69309088e+01	-1.67611527e+01	-3.68285956e+01	-1.35803197e+01	-5.81993421e+00	-3.01288212e+01
1474263000	-4.40471785e-01	-5.74591506e+01	-3.69198588e+01	-1.73372264e+01	-3.67958244e+01	-1.39461948e+01	-5.82720267e+00	-3.02462743e+01
1474548571.43	-4.37567025e-01	-5.75168966e+01	-3.69095775e+01	-1.79712694e+01	-3.68164455e+01	-1.45556194e+01	-5.82977147e+00	-3.03429715e+01
1474834142.86	-4.43745503e-01	-5.75088530e+01	-3.68431865e+01	-1.87867881e+01	-3.68229303e+01	-1.52529512e+01	-5.81943895e+00	-3.04690757e+01
1475119714.29	-4.38562307e-01	-5.75210574e+01	-3.68938486e+01	-1.89807913e+01	-3.67442565e+01	-1.57883289e+01	-5.81489127e+00	-3.05187216e+01
1475405285.71	-4.37851725e-01	-5.75001807e+01	-3.68694185e+01	-1.99203740e+01	-3.67637751e+01	-1.63810017e+01	-5.81986833e+00	-3.05985219e+01
1475690857.14	-4.39535010e-01	-5.75346377e+01	-3.68971220e+01	-2.02928507e+01	-3.67702443e+01	-1.68593978e+01	-5.80713237e+00	-3.07113324e+01
1475976428.57	-4.43947322e-01	-5.75736345e+01	-3.68691383e+01	-2.08283385e+01	-3.67971177e+01	-1.73935433e+01	-5.80542546e+00	-3.08549919e+01
1476262000	-4.47005132e-01	-5.75649859e+01	-3.68443327e+01	-2.12529828e+01	-3.67656018e+01	-1.78664925e+01	-5.81064138e+00	-3.09179214e+01
1476547571.43	-4.49218823e-01	-5.75694405e+01	-3.68772674e+01	-2.21536882e+01	-3.67809892e+01	-1.87051398e+01	-5.81049201e+00	-3.10564713e+01
1476833142.86	-4.46026531e-01	-5.75600428e+01	-3.68814668e+01	-2.24842870e+01	-3.67640243e+01	-1.90965334e+01	-5.81226982e+00	-3.11200575e+01
1477118714.29	-4.45366010e-01	-5.75815024e+01	-3.69092670e+01	-2.34528497e+01	-3.67608927e+01	-1.97496637e+01	-5.80429765e+00	-3.12316600e+01
1477404285.71	-4.48702499e-01	-5.75947069e+01	-3.68841191e+01	-2.37350128e+01	-3.67261220e+01	-2.02504007e+01	-5.80253733e+00	-3.13290113e+01
1477689857.14	-4.48306090e-01	-5.76230955e+01	-3.68752378e+01	-2.44933236e+01	-3.67241877e+01	-2.10930468e+01	-5.80331710e+00	-3.14229248e+01
1477975428.57	-4.47170163e-01	-5.76081090e+01	-3.69023596e+01	-2.49663280e+01	-3.67377787e+01	-2.15481170e+01	-5.80697943e+00	-3.14706812e+01
1478261000	-4.47887651e-01	-5.76031352e+01	-3.69195679e+01	-2.56641807e+01	-3.67550373e+01	-2.20767110e+01	-5.80998357e+00	-3.16012638e+01
1478546571.43	-4.51090543e-01	-5.76222552e+01	-3.69059778e+01	-2.60776494e+01	-3.67304564e+01	-2.26738098e+01	-5.81440978e+00	-3.16285004e+01
1478832142.86	-4.53618700e-01	-5.76766926e+01	-3.68531236e+01	-2.66653209e+01	-3.67505591e+01	-2.31332976e+01	-5.80567700e+00	-3.16005320e+01
1479117714.29	-4.53912093e-01	-5.76571505e+01	-3.69160535e+01	-2.74415839e+01	-3.67120520e+01	-2.35807771e+01	-5.80509581e+00	-3.17779330e+01
1479403285.71	-4.56665772e-01	-5.76762720e+01	-3.69718815e+01	-2.79580082e+01	-3.67279109e+01	-2.39911159e+01	-5.80999180e+00	-3.18100721e+01
1479688857.14	-4.55811316e-01	-5.76791769e+01	-3.69177301e+01	-2.83340051e+01	-3.67521728e+01	-2.45771101e+01	-5.81016275e+00	-3.18392714e+01
1479974428.57	-4.58623584e-01	-5.76733587e+01	-3.69706637e+01	-2.90859393e+01	-3.67495851e+01	-2.52840772e+01	-5.80440947e+00	-3.18750866e+01
1480260000	-4.63166971e-01	-5.76920545e+01	-3.69303838e+01	-2.98060315e+01	-3.67513986e+01	-2.56292997e+01	-5.80186611e+00	-3.18951888e+01
1480545571.43	-4.61615880e-01	-5.77236792e+01	-3.69760775e+01	-2.98885878e+01	-3.67450877e+01	-2.62548228e+01	-5.80415421e+00	-3.19111050e+01
1480831142.86	-4.60059082e-01	-5.76726629e+01	-3.69685866e+01	-3.04912698e+01	-3.67583959e+01	-2.66433364e+01	-5.80750213e+00	-3.19744642e+01
1481116714.29	-4.60144601e-01	-5.76613355e+01	-3.70326121e+01	-3.09886958e+01	-3.67644335e+01	-2.73260113e+01	-5.81437551e+00	-3.20063445e+01
1481402285.71	-4.58739832e-01	-5.77098936e+01	-3.69827462e+01	-3.14173906e+01	-3.67185063e+01	-2.76921559e+01	-5.80903436e+00	-3.20813340e+01
1481687857.14	-4.62677598e-01	-5.77245968e+01	-3.70084681e+01	-3.20874307e+01	-3.67189632e+01	-2.83593489e+01	-5.80031533e+00	-3.20634142e+01
1481973428.57	-4.66814276e-01	-5.77499496e+01	-3.69977136e+01	-3.25663161e+01	-3.67547906e+01	-2.86896865e+01	-5.79674193e+00	-3.20868990e+01
1482259000	-4.66446316e-01	-5.77665281e+01	-3.69819246e+01	-3.29407510e+01	-3.67474847e+01	-2.92294146e+01	-5.79629916e+00	-3.21202042e+01
1482544571.43	-4.61780185e-01	-5.77641238e+01	-3.69958092e+01	-3.32681984e+01	-3.67339219e+01	-2.98265992e+01	-5.79711288e+00	-3.21532328e+01
1482830142.86	-4.65455324e-01	-5.77778495e+01	-3.70119178e+01	-3.36799407e+01	-3.67223432e+01	-3.00177849e+01	-5.79158173e+00	-3.22078078e+01
1483115714.29	-4.65547673e-01	-5.77487095e+01	-3.70076000e+01	-3.41703188e+01	-3.67123886e+01	-3.07460360e+01	-5.78629512e+00	-3.23484991e+01
1483401285.71	-4.67533855e-01	-5.77917188e+01	-3.70377828e+01	-3.50813910e+01	-3.67106995e+01	-3.10223446e+01	-5.79050860e+00	-3.23641628e+01
1483686857.14	-4.70511844e-01	-5.78173476e+01	-3.70467876e+01	-3.53276635e+01	-3.67022874e+01	-3.17075847e+01	-5.78735578e+00	-3.23662193e+01
1483972428.57	-4.69927385e-01	-5.78305956e+01	-3.70449979e+01	-3.56281802e+01	-3.67103743e+01	-3.20552793e+01	-5.77351244e+00	-3.24912588e+01
1484258000	-4.68749328e-01	-5.78385275e+01	-3.70481306e+01	-3.64971568e+01	-3.66739667e+01	-3.28868373e+01	-5.76540554e+00	-3.24629885e+01
1484543571.43	-4.68381241e-01	-5.78202388e+01	-3.70221575e+01	-3.63871760e+01	-3.66411990e+01	-3.31305810e+01	-5.75659348e+00	-3.25017404e+01
1484829142.86	-4.70505154e-01	-5.78366923e+01	-3.70142692e+01	-3.73635844e+01	-3.66607969e+01	-3.35917658e+01	-5.75802322e+00	-3.25572719e+01
1485114714.29	-4.70067317e-01	-5.78352643e+01	-3.69836852e+01	-3.76076225e+01	-3.66077954e+01	-3.38328544e+01	-5.74081831e+00	-3.25617708e+01
1485400285.71	-4.74548247e-01	-5.78381699e+01	-3.70198542e+01	-3.82423254e+01	-3.65986299e+01	-3.45329540e+01	-5.74711582e+00	-3.26323975e+01
1485685857.14	-4.78545249e-01	-5.78242252e+01	-3.70063907e+01	-3.85999173e+01	-3.66428248e+01	-3.52897300e+01	-5.74006499e+00	-3.26341134e+01
1485971428.57	-4.80032095e-01	-5.78494633e+01	-3.70229652e+01	-3.89860470e+01	-3.66142464e+01	-3.52852543e+01	-5.73611790e+00	-3.27054843e+01
1486257000	-4.76729340e-01	-5.78665092e+01	-3.70021292e+01	-3.94114365e+01	-3.66449412e+01	-3.60580238e+01	-5.70757946e+00	-3.26507043e+01
1486542571.43	-4.80376669e-01	-5.78508467e+01	-3.69706803e+01	-3.98763250e+01	-3.65900326e+01	-3.65990972e+01	-5.71547860e+00	-3.27695169e+01
1486828142.86	-4.80232347e-01	-5.78631340e+01	-3.69691840e+01	-4.02439442e+01	-3.65944410e+01	-3.70662480e+01	-5.70684050e+00	-3.28381919e+01
1487113714.29	-4.81468613e-01	-5.78948637e+01	-3.70037695e+01	-4.11384638e+01	-3.65974265e+01	-3.74077762e+01	-5.70257925e+00	-3.29099711e+01
1487399285.71	-4.80378573e-01	-5.78807808e+01	-3.70032627e+01	-4.11228935e+01	-3.65546714e+01	-3.80447249e+01	-5.69635890e+00	-3.29600563e+01
1487684857.14	-4.78850338e-01	-5.78628059e+01	-3.69744483e+01	-4.17447066e+01	-3.65590018e+01	-3.85624636e+01	-5.68721399e+00	-3.30231266e+01
1487970428.57	-4.83498258e-01	-5.78815885e+01	-3.69814521e+01	-4.22538718e+01	-3.65414363e+01	-3.91299275e+01	-5.67514822e+00	-3.30545191e+01
1488256000	-4.79714105e-01	-5.78809060e+01	-3.69786189e+01	-4.29413073e+01	-3.65300203e+01	-3.95807335e+01	-5.66743592e+00	-3.30957827e+01
1488541571.43	-4.81912190e-01	-5.79004461e+01	-3.69925679e+01	-4.34768216e+01	-3.64859127e+01	-4.00934623e+01	-5.67044300e+00	-3.31471107e+01
1488827142.86	-4.80377372e-01	-5.78948797e+01	-3.69910966e+01	-4.37827706e+01	-3.65085688e+01	-4.06648929e+01	-5.65813889e+00	-3.32451252e+01
1489112714.29	-4.79616331e-01	-5.79137105e+01	-3.69952923e+01	-4.41550760e+01	-3.64628521e+01	-4.11435430e+01	-5.64905213e+00	-3.31944498e+01
1489398285.71	-4.83030972e-01	-5.79155901e+01	-3.69856078e+01	-4.46307624e+01	-3.64551544e+01	-4.16732469e+01	-5.64133523e+00	-3.32362435e+01
1489683857.14	-4.87377857e-01	-5.78982905e+01	-3.69611251e+01	-4.48852433e+01	-3.64523771e+01	-4.20925317e+01	-5.62952402e+00	-3.32059873e+01
1489969428.57	-4.87897283e-01	-5.79197773e+01	-3.69261765e+01	-4.54843270e+01	-3.64450209e+01	-4.27244888e+01	-5.62548209e+00	-3.32485159e+01
1490255000	-4.89346720e-01	-5.79188107e+01	-3.69403794e+01	-4.58853838e+01	-3.64178410e+01	-4.34841711e+01	-5.62316315e+00	-3.32300329e+01
1490540571.43	-4.91682725e-01	-5.79472000e+01	-3.69468068e+01	-4.63438705e+01	-3.64110698e+01	-4.40080138e+01	-5.63313805e+00	-3.32627577e+01
1490826142.86	-4.93906229e-01	-5.79854088e+01	-3.69115507e+01	-4.70916231e+01	-3.64142392e+01	-4.43058373e+01	-5.62201068e+00	-3.32553270e+01
1491111714.29	-4.95109136e-01	-5.79913894e+01	-3.69001398e+01	-4.75044078e+01	-3.63666531e+01	-4.50977101e+01	-5.61480932e+00	-3.33967578e+01
1491397285.71	-4.98897731e-01	-5.79749789e+01	-3.68584323e+01	-4.81145126e+01	-3.63677160e+01	-4.55801140e+01	-5.60999624e+00	-3.34162661e+01
1491682857.14	-5.01041918e-01	-5.80037156e+01	-3.68799781e+01	-4.83254869e+01	-3.63535616e+01	-4.59737227e+01	-5.60964569e+00	-3.34355512e+01
1491968428.57	-5.03465371e-01	-5.79867086e+01	-3.68865880e+01	-4.88918470e+01	-3.63279547e+01	-4.65300532e+01	-5.60864354e+00	-3.35170335e+01
1492254000	-5.04825196e-01	-5.80162157e+01	-3.68796625e+01	-4.93275795e+01	-3.63191751e+01	-4.72311745e+01	-5.60879513e+00	-3.36118971e+01
1492539571.43	-5.00852937e-01	-5.80284495e+01	-3.68714652e+01	-5.02741122e+01	-3.62848599e+01	-4.77680759e+01	-5.61497966e+00	-3.36890714e+01
1492825142.86	-5.02412022e-01	-5.80261914e+01	-3.68669746e+01	-5.07278680e+01	-3.62768815e+01	-4.85155943e+01	-5.61011462e+00	-3.37196523e+01
1493110714.29	-5.03339817e-01	-5.80066843e+01	-3.67871259e+01	-5.05592517e+01	-3.62269673e+01	-4.89046900e+01	-5.60686691e+00	-3.38017117e+01
1493396285.71	-4.99256386e-01	-5.80091705e+01	-3.68169505e+01	-5.13477612e+01	-3.62752694e+01	-4.97194491e+01	-5.59863345e+00	-3.38782554e+01
1493681857.14	-5.02998919e-01	-5.80440889e+01	-3.68095942e+01	-5.17640790e+01	-3.62401700e+01	-5.02031449e+01	-5.59550294e+00	-3.39216905e+01
1493967428.57	-5.05481836e-01	-5.80057194e+01	-3.67680045e+01	-5.23839349e+01	-3.62143308e+01	-5.09378006e+01	-5.58672198e+00	-3.39595402e+01
1494253000	-5.06967658e-01	-5.80324594e+01	-3.67492281e+01	-5.29288116e+01	-3.61875387e+01	-5.15037207e+01	-5.59485966e+00	-3.39863971e+01
1494538571.43	-5.07656591e-01	-5.80295865e+01	-3.67553235e+01	-5.32008681e+01	-3.62117544e+01	-5.20254317e+01	-5.58280762e+00	-3.40809799e+01
1494824142.86	-5.11268736e-01	-5.80582760e+01	-3.66854828e+01	-5.39623201e+01	-3.61813706e+01	-5.27386642e+01	-5.59955723e+00	-3.41907053e+01
1495109714.29	-5.05414920e-01	-5.80279958e+01	-3.66499653e+01	-5.44792192e+01	-3.61737003e+01	-5.34405022e+01	-5.59846252e+00	-3.41719304e+01
1495395285.71	-5.07889060e-01	-5.80193242e+01	-3.66676266e+01	-5.50409166e+01	-3.61494548e+01	-5.39852415e+01	-5.59890571e+00	-3.42798141e+01
1495680857.14	-5.10302821e-01	-5.80169163e+01	-3.66574775e+01	-5.59060525e+01	-3.61257346e+01	-5.45157555e+01	-5.60568578e+00	-3.43427361e+01
1495966428.57	-5.09536768e-01	-5.80172236e+01	-3.66294002e+01	-5.61358314e+01	-3.61436297e+01	-5.52742244e+01	-5.60121673e+00	-3.44070261e+01
1496252000	-5.12896406e-01	-5.80391346e+01	-3.65758522e+01	-5.68733829e+01	-3.60717045e+01	-5.58517579e+01	-5.58042044e+00	-3.43639651e+01
1496537571.43	-5.18989131e-01	-5.80225060e+01	-3.65213371e+01	-5.72141329e+01	-3.60889268e+01	-5.64801031e+01	-5.58162155e+00	-3.45193706e+01
1496823142.86	-5.09239448e-01	-5.80491036e+01	-3.65288966e+01	-5.84120674e+01	-3.60681189e+01	-5.73419890e+01	-5.58403039e+00	-3.44943658e+01
1497108714.29	-5.07601062e-01	-5.80443092e+01	-3.65615616e+01	-5.85544226e+01	-3.60424920e+01	-5.76542967e+01	-5.57801584e+00	-3.45118905e+01
1497394285.71	-5.09495037e-01	-5.80241983e+01	-3.65178909e+01	-5.89637846e+01	-3.60588966e+01	-5.84701356e+01	-5.57135673e+00	-3.45598069e+01
1497679857.14	-5.11431815e-01	-5.80100385e+01	-3.64637532e+01	-5.97857707e+01	-3.60423693e+01	-5.91837872e+01	-5.57250267e+00	-3.45715758e+01
1497965428.57	-5.09831157e-01	-5.79994950e+01	-3.64380519e+01	-6.03621428e+01	-3.60233092e+01	-5.98642400e+01	-5.57150630e+00	-3.46240318e+01
1498251000	-5.14802299e-01	-5.80392289e+01	-3.64416154e+01	-6.11993104e+01	-3.60257641e+01	-6.07073963e+01	-5.56820238e+00	-3.46504551e+01
1498536571.43	-5.16447440e-01	-5.80146917e+01	-3.64078168e+01	-6.16869947e+01	-3.60286265e+01	-6.12471269e+01	-5.56618439e+00	-3.46283221e+01
1498822142.86	-5.13658609e-01	-5.80169133e+01	-3.64040225e+01	-6.25166499e+01	-3.60345476e+01	-6.18357414e+01	-5.57109661e+00	-3.46755594e+01
1499107714.29	-5.09003942e-01	-5.80266312e+01	-3.64033630e+01	-6.29850628e+01	-3.60021592e+01	-6.25374690e+01	-5.56729544e+00	-3.46744878e+01
1499393285.71	-5.12557050e-01	-5.80328913e+01	-3.64168164e+01	-6.35098447e+01	-3.60124748e+01	-6.30345837e+01	-5.56731588e+00	-3.47276707e+01
1499678857.14	-5.14020169e-01	-5.80279247e+01	-3.63525028e+01	-6.43919447e+01	-3.59972890e+01	-6.39113450e+01	-5.55454858e+00	-3.47974385e+01
1499964428.57	-5.13096321e-01	-5.80199233e+01	-3.63539485e+01	-6.47725725e+01	-3.59750797e+01	-6.44482671e+01	-5.56334263e+00	-3.48503388e+01
1500250000	-5.13191245e-01	-5.79896793e+01	-3.63236332e+01	-6.56457754e+01	-3.59937804e+01	-6.52347504e+01	-5.55278676e+00	-3.48801173e+01
1500535571.43	-5.15596752e-01	-5.80030345e+01	-3.63221131e+01	-6.64004906e+01	-3.60088979e+01	-6.59986166e+01	-5.54558826e+00	-3.48788441e+01
1500821142.86	-5.15302032e-01	-5.80319187e+01	-3.63341049e+01	-6.70865032e+01	-3.60263759e+01	-6.67755242e+01	-5.54887649e+00	-3.50051507e+01
1501106714.29	-5.15134439e-01	-5.80561818e+01	-3.63178446e+01	-6.76529648e+01	-3.60177922e+01	-6.72760035e+01	-5.53965231e+00	-3.51609036e+01
1501392285.71	-5.16702647e-01	-5.80350876e+01	-3.62755872e+01	-6.82297096e+01	-3.60071161e+01	-6.81076471e+01	-5.52579225e+00	-3.51673606e+01
1501677857.14	-5.15122257e-01	-5.80461693e+01	-3.63463223e+01	-6.89121057e+01	-3.60298908e+01	-6.86702626e+01	-5.51125293e+00	-3.52473508e+01
1501963428.57	-5.16779934e-01	-5.80655352e+01	-3.63178577e+01	-6.96755838e+01	-3.60380876e+01	-6.93846100e+01	-5.51662125e+00	-3.53175232e+01
1502249000	-5.20210806e-01	-5.80464218e+01	-3.63266807e+01	-7.03409589e+01	-3.60145943e+01	-7.00361975e+01	-5.51185852e+00	-3.53661239e+01
1502534571.43	-5.16383638e-01	-5.80517351e+01	-3.63277280e+01	-7.10908206e+01	-3.60346191e+01	-7.06952550e+01	-5.49811555e+00	-3.53730995e+01
1502820142.86	-5.15184785e-01	-5.80440603e+01	-3.63098141e+01	-7.16515243e+01	-3.60110601e+01	-7.13346590e+01	-5.49747736e+00	-3.54153110e+01
1503105714.29	-5.15968141e-01	-5.80490868e+01	-3.63369055e+01	-7.20685513e+01	-3.60589013e+01	-7.20995004e+01	-5.49645545e+00	-3.54999745e+01
1503391285.71	-5.15286676e-01	-5.80306138e+01	-3.63361278e+01	-7.32515164e+01	-3.60608950e+01	-7.25494120e+01	-5.48588425e+00	-3.56002304e+01
1503676857.14	-5.18799234e-01	-5.80251395e+01	-3.63401318e+01	-7.37145647e+01	-3.60935169e+01	-7.34050897e+01	-5.49553160e+00	-3.56948201e+01
1503962428.57	-5.16912270e-01	-5.80255366e+01	-3.63222936e+01	-7.42629757e+01	-3.60943683e+01	-7.40178426e+01	-5.47987923e+00	-3.56962336e+01
1504248000	-5.12867158e-01	-5.80403517e+01	-3.63425412e+01	-7.51075284e+01	-3.60991852e+01	-7.45561835e+01	-5.47735864e+00	-3.57582954e+01
1504533571.43	-5.16112445e-01	-5.80533150e+01	-3.63565902e+01	-7.56726979e+01	-3.61218929e+01	-7.52116296e+01	-5.47076109e+00	-3.58812097e+01
1504819142.86	-5.17245181e-01	-5.80579452e+01	-3.63608100e+01	-7.60853319e+01	-3.61122183e+01	-7.58746869e+01	-5.45760045e+00	-3.59652382e+01
1505104714.29	-5.18728001e-01	-5.80617383e+01	-3.63558915e+01	-7.70531327e+01	-3.61606969e+01	-7.65789934e+01	-5.44618118e+00	-3.60098759e+01
1505390285.71	-5.16204352e-01	-5.80439502e+01	-3.63773947e+01	-7.75682431e+01	-3.61560834e+01	-7.70610125e+01	-5.43090645e+00	-3.59976419e+01
1505675857.14	-5.16228710e-01	-5.80479169e+01	-3.63774293e+01	-7.81814561e+01	-3.61621034e+01	-7.76970663e+01	-5.42819625e+00	-3.60278358e+01
1505961428.57	-5.19690946e-01	-5.80571931e+01	-3.63809070e+01	-7.89437568e+01	-3.61603776e+01	-7.83333627e+01	-5.41452767e+00	-3.60725574e+01
1506247000	-5.20756202e-01	-5.80761134e+01	-3.64059534e+01	-7.94862616e+01	-3.61948551e+01	-7.89264970e+01	-5.41531450e+00	-3.61129475e+01
1506532571.43	-5.23211750e-01	-5.80601606e+01	-3.63923233e+01	-8.00141527e+01	-3.61714862e+01	-7.96370456e+01	-5.40390662e+00	-3.62292240e+01
1506818142.86	-5.16496031e-01	-5.80445633e+01	-3.64042920e+01	-8.06560536e+01	-3.61819950e+01	-8.02600081e+01	-5.40511845e+00	-3.62934113e+01
1507103714.29	-5.21848390e-01	-5.80193754e+01	-3.63778271e+01	-8.12833306e+01	-3.61984619e+01	-8.08395483e+01	-5.39854386e+00	-3.63167337e+01
1507389285.71	-5.20355859e-01	-5.80423462e+01	-3.64214812e+01	-8.20194330e+01	-3.62094569e+01	-8.13471511e+01	-5.39451540e+00	-3.63454911e+01
1507674857.14	-5.24983636e-01	-5.80350436e+01	-3.64286998e+01	-8.24578554e+01	-3.61994896e+01	-8.21195592e+01	-5.37449367e+00	-3.64325518e+01
1507960428.57	-5.23867111e-01	-5.80396150e+01	-3.64004738e+01	-8.30396025e+01	-3.62085748e+01	-8.28754625e+01	-5.37118565e+00	-3.64892712e+01
1508246000	-5.26477712e-01	-5.80442226e+01	-3.64224373e+01	-8.38823470e+01	-3.62205871e+01	-8.33613725e+01	-5.36553560e+00	-3.66328032e+01
1508531571.43	-5.22191358e-01	-5.80225596e+01	-3.64412028e+01	-8.42535650e+01	-3.62528240e+01	-8.37676759e+01	-5.36476806e+00	-3.66362299e+01
1508817142.86	-5.22384653e-01	-5.80034110e+01	-3.64500176e+01	-8.51879854e+01	-3.62552885e+01	-8.46503849e+01	-5.35950476e+00	-3.68172885e+01
1509102714.29	-5.22988495e-01	-5.80160612e+01	-3.64300537e+01	-8.60172526e+01	-3.62417989e+01	-8.52095397e+01	-5.34999366e+00	-3.68911404e+01
1509388285.71	-5.25676916e-01	-5.80490362e+01	-3.64149996e+01	-8.64764984e+01	-3.62659451e+01	-8.58393541e+01	-5.34244057e+00	-3.69637684e+01
1509673857.14	-5.29149002e-01	-5.80320825e+01	-3.64341990e+01	-8.74614950e+01	-3.63063369e+01	-8.67147638e+01	-5.33186175e+00	-3.70016635e+01
1509959428.57	-5.25704920e-01	-5.80216614e+01	-3.64853539e+01	-8.78937240e+01	-3.62791102e+01	-8.74019081e+01	-5.32739754e+00	-3.71027494e+01
1510245000	-5.23776997e-01	-5.80382993e+01	-3.64768728e+01	-8.90251774e+01	-3.63053367e+01	-8.79503516e+01	-5.31609154e+00	-3.71964177e+01
1510530571.43	-5.23367762e-01	-5.80080347e+01	-3.64908493e+01	-8.96003069e+01	-3.63140921e+01	-8.87006298e+01	-5.31171403e+00	-3.72924718e+01
1510816142.86	-5.24838640e-01	-5.80188720e+01	-3.64935638e+01	-9.02727164e+01	-3.63290291e+01	-8.93322639e+01	-5.30474963e+00	-3.74149767e+01
1511101714.29	-5.24181063e-01	-5.79840915e+01	-3.65316797e+01	-9.13742063e+01	-3.63656397e+01	-8.99761138e+01	-5.29225279e+00	-3.75623950e+01
1511387285.71	-5.22685312e-01	-5.79881808e+01	-3.65657981e+01	-9.16303697e+01	-3.63661754e+01	-9.07872659e+01	-5.28570345e+00	-3.77134012e+01
1511672857.14	-5.21964652e-01	-5.80002871e+01	-3.65618475e+01	-9.25391039e+01	-3.63965595e+01	-9.16153746e+01	-5.28565120e+00	-3.77425096e+01
1511958428.57	-5.22950939e-01	-5.80119354e+01	-3.66251693e+01	-9.33174055e+01	-3.64346182e+01	-9.23228873e+01	-5.27489578e+00	-3.77626129e+01
1512244000	-5.22994715e-01	-5.80374100e+01	-3.66147426e+01	-9.39949239e+01	-3.64416133e+01	-9.29670810e+01	-5.26216391e+00	-3.78590289e+01
1512529571.43	-5.22229808e-01	-5.80127816e+01	-3.66691761e+01	-9.47742476e+01	-3.64656950e+01	-9.36387107e+01	-5.26549302e+00	-3.79639507e+01
1512815142.86	-5.27968692e-01	-5.80090931e+01	-3.66971802e+01	-9.52784201e+01	-3.65236826e+01	-9.42172855e+01	-5.26056927e+00	-3.80394404e+01
1513100714.29	-5.29508296e-01	-5.79890735e+01	-3.67868051e+01	-9.56603043e+01	-3.65279441e+01	-9.51037741e+01	-5.24677202e+00	-3.80675012e+01
1513386285.71	-5.28402064e-01	-5.79721189e+01	-3.67718970e+01	-9.66306057e+01	-3.65588060e+01	-9.55222336e+01	-5.23755255e+00	-3.81121328e+01
1513671857.14	-5.28995179e-01	-5.80004181e+01	-3.68460780e+01	-9.73360860e+01	-3.66070415e+01	-9.62744588e+01	-5.24065874e+00	-3.81575766e+01
1513957428.57	-5.26597174e-01	-5.80019844e+01	-3.69359688e+01	-9.80950431e+01	-3.66062030e+01	-9.70588516e+01	-5.23841711e+00	-3.82280025e+01
1514243000	-5.28696380e-01	-5.79837728e+01	-3.69311580e+01	-9.86170418e+01	-3.66459081e+01	-9.75035461e+01	-5.23941755e+00	-3.83327445e+01
1514528571.43	-5.31986606e-01	-5.80296198e+01	-3.69762982e+01	-9.91197512e+01	-3.66706078e+01	-9.82609761e+01	-5.22685018e+00	-3.84619180e+01
1514814142.86	-5.26890262e-01	-5.80277197e+01	-3.70028363e+01	-9.99892880e+01	-3.67506117e+01	-9.87671202e+01	-5.21477151e+00	-3.85682804e+01
1515099714.29	-5.26224222e-01	-5.80319251e+01	-3.70667080e+01	-1.00678910e+02	-3.67670074e+01	-9.93873857e+01	-5.21745783e+00	-3.86962001e+01
1515385285.71	-5.23843001e-01	-5.80197081e+01	-3.71260670e+01	-1.01134434e+02	-3.67708635e+01	-1.00002269e+02	-5.20116396e+00	-3.87947387e+01
1515670857.14	-5.29870745e-01	-5.80338411e+01	-3.71416300e+01	-1.01715430e+02	-3.68399475e+01	-1.00574123e+02	-5.19671379e+00	-3.88187575e+01
1515956428.57	-5.33865698e-01	-5.80496604e+01	-3.71902161e+01	-1.02417903e+02	-3.68452443e+01	-1.01247662e+02	-5.19095081e+00	-3.90266699e+01
1516242000	-5.31335721e-01	-5.80511680e+01	-3.72355627e+01	-1.02760612e+02	-3.68685565e+01	-1.01861660e+02	-5.18630319e+00	-3.90734441e+01
1516527571.43	-5.32161201e-01	-5.80628858e+01	-3.72569964e+01	-1.03386958e+02	-3.68646297e+01	-1.02509933e+02	-5.18049491e+00	-3.92068742e+01
1516813142.86	-5.31560947e-01	-5.80937017e+01	-3.73010528e+01	-1.04454986e+02	-3.69473471e+01	-1.02901570e+02	-5.18279214e+00	-3.94063962e+01
1517098714.29	-5.29483247e-01	-5.81198571e+01	-3.73786002e+01	-1.04594217e+02	-3.69739387e+01	-1.03643755e+02	-5.17541465e+00	-3.95501183e+01
1517384285.71	-5.28185650e-01	-5.81140808e+01	-3.73909766e+01	-1.04770911e+02	-3.69977436e+01	-1.03984641e+02	-5.16496889e+00	-3.96891180e+01
1517669857.14	-5.25241961e-01	-5.80976032e+01	-3.74217459e+01	-1.05703716e+02	-3.70032898e+01	-1.04671790e+02	-5.16250956e+00	-3.98175087e+01
1517955428.57	-5.23655607e-01	-5.81125735e+01	-3.74387877e+01	-1.06084481e+02	-3.70439469e+01	-1.05382719e+02	-5.16178164e+00	-3.98982273e+01
1518241000	-5.29360765e-01	-5.81234805e+01	-3.74860242e+01	-1.06501896e+02	-3.70744635e+01	-1.05785214e+02	-5.14541045e+00	-4.00416405e+01
1518526571.43	-5.34102488e-01	-5.81131529e+01	-3.74968663e+01	-1.06576648e+02	-3.70774932e+01	-1.06169735e+02	-5.14106444e+00	-4.01457027e+01
1518812142.86	-5.27882243e-01	-5.81348327e+01	-3.75233674e+01	-1.07688708e+02	-3.71294477e+01	-1.06670583e+02	-5.14316438e+00	-4.02801184e+01
1519097714.29	-5.30772667e-01	-5.81607301e+01	-3.75300953e+01	-1.08034377e+02	-3.71508735e+01	-1.07601368e+02	-5.13340564e+00	-4.04446331e+01
1519383285.71	-5.28201868e-01	-5.81437456e+01	-3.75490896e+01	-1.08315994e+02	-3.71872188e+01	-1.07867965e+02	-5.13106529e+00	-4.05704825e+01
1519668857.14	-5.28697600e-01	-5.81053349e+01	-3.76197302e+01	-1.08598921e+02	-3.72171020e+01	-1.08277708e+02	-5.12237949e+00	-4.06560071e+01
1519954428.57	-5.28578517e-01	-5.81189385e+01	-3.76526463e+01	-1.09297361e+02	-3.72694210e+01	-1.09037580e+02	-5.12291588e+00	-4.08412790e+01
1520240000	-5.28433283e-01	-5.81297725e+01	-3.76383096e+01	-1.09773979e+02	-3.72524803e+01	-1.09426382e+02	-5.11894509e+00	-4.09683735e+01
1520525571.43	-5.27962767e-01	-5.81579275e+01	-3.76763097e+01	-1.10271111e+02	-3.72961984e+01	-1.09909148e+02	-5.12634693e+00	-4.10708802e+01
1520811142.86	-5.27766509e-01	-5.81723453e+01	-3.76803112e+01	-1.10681449e+02	-3.73187967e+01	-1.10491052e+02	-5.12120826e+00	-4.12168930e+01
1521096714.29	-5.24635083e-01	-5.81872290e+01	-3.77186724e+01	-1.11391367e+02	-3.73539456e+01	-1.11154325e+02	-5.11461530e+00	-4.13477215e+01
1521382285.71	-5.27826341e-01	-5.81858190e+01	-3.77226904e+01	-1.12042990e+02	-3.73766481e+01	-1.11532435e+02	-5.11773881e+00	-4.15508297e+01
1521667857.14	-5.30588678e-01	-5.81877444e+01	-3.77357025e+01	-1.12133306e+02	-3.73959752e+01	-1.11947747e+02	-5.10881911e+00	-4.16766433e+01
1521953428.57	-5.27784486e-01	-5.81892058e+01	-3.78147290e+01	-1.13340943e+02	-3.74482222e+01	-1.12440430e+02	-5.11398523e+00	-4.18209202e+01
1522239000	-5.29044488e-01	-5.82091256e+01	-3.78112713e+01	-1.12998448e+02	-3.74396491e+01	-1.13153627e+02	-5.10906854e+00	-4.18850950e+01
1522524571.43	-5.23448246e-01	-5.82179959e+01	-3.78704031e+01	-1.13899480e+02	-3.75196417e+01	-1.13541480e+02	-5.10650543e+00	-4.20255797e+01
1522810142.86	-5.19065201e-01	-5.82240369e+01	-3.78743686e+01	-1.14025398e+02	-3.75727948e+01	-1.13807040e+02	-5.10953152e+00	-4.22038810e+01
1523095714.29	-5.18731346e-01	-5.82409442e+01	-3.78941927e+01	-1.14752302e+02	-3.75658204e+01	-1.14581135e+02	-5.10900751e+00	-4.23622944e+01
1523381285.71	-5.19081508e-01	-5.82522310e+01	-3.79868042e+01	-1.15256585e+02	-3.75898591e+01	-1.15070853e+02	-5.11156435e+00	-4.24977344e+01
1523666857.14	-5.18641649e-01	-5.82752665e+01	-3.79302699e+01	-1.15869626e+02	-3.76233223e+01	-1.15566550e+02	-5.10760991e+00	-4.25663154e+01
1523952428.57	-5.19890394e-01	-5.82567097e+01	-3.79950530e+01	-1.16029049e+02	-3.76358881e+01	-1.16306844e+02	-5.09976412e+00	-4.27336575e+01
1524238000	-5.21847947e-01	-5.82781977e+01	-3.80122994e+01	-1.16758408e+02	-3.76882892e+01	-1.16489006e+02	-5.09915395e+00	-4.28714420e+01
1524523571.43	-5.18862650e-01	-5.82748328e+01	-3.80060852e+01	-1.17050817e+02	-3.77168182e+01	-1.17478008e+02	-5.09430545e+00	-4.29636093e+01
1524809142.86	-5.17746500e-01	-5.82984956e+01	-3.80592486e+01	-1.17536673e+02	-3.77453129e+01	-1.17852792e+02	-5.09693491e+00	-4.30495430e+01
1525094714.29	-5.17487552e-01	-5.83110632e+01	-3.80509955e+01	-1.18343225e+02	-3.78088114e+01	-1.18376521e+02	-5.08880774e+00	-4.32322377e+01
1525380285.71	-5.16758591e-01	-5.83322371e+01	-3.81099689e+01	-1.18720605e+02	-3.78727125e+01	-1.18863702e+02	-5.08605854e+00	-4.34069532e+01
1525665857.14	-5.21822083e-01	-5.83425437e+01	-3.81884366e+01	-1.19004948e+02	-3.78063082e+01	-1.19375815e+02	-5.08912664e+00	-4.35339364e+01
1525951428.57	-5.25917595e-01	-5.83572296e+01	-3.81992312e+01	-1.19628302e+02	-3.78923342e+01	-1.19757593e+02	-5.07613872e+00	-4.36663063e+01
1526237000	-5.25372812e-01	-5.83594082e+01	-3.82660937e+01	-1.19881690e+02	-3.79199654e+01	-1.20426878e+02	-5.07817185e+00	-4.38300307e+01
1526522571.43	-5.24152480e-01	-5.83870899e+01	-3.82246040e+01	-1.20499778e+02	-3.79640797e+01	-1.20688361e+02	-5.07204292e+00	-4.39721054e+01
1526808142.86	-5.26884231e-01	-5.84149543e+01	-3.83299707e+01	-1.20837019e+02	-3.79572069e+01	-1.21212339e+02	-5.06193439e+00	-4.41245541e+01
1527093714.29	-5.23511002e-01	-5.84360692e+01	-3.83146039e+01	-1.21318495e+02	-3.80322879e+01	-1.21592194e+02	-5.06493808e+00	-4.42350863e+01
1527379285.71	-5.22579065e-01	-5.84645446e+01	-3.83855874e+01	-1.21482960e+02	-3.80419915e+01	-1.22110848e+02	-5.06601894e+00	-4.43943028e+01
1527664857.14	-5.20285617e-01	-5.84786871e+01	-3.84504864e+01	-1.22257907e+02	-3.80464582e+01	-1.22820415e+02	-5.05641297e+00	-4.45520822e+01
1527950428.57	-5.24697139e-01	-5.84717546e+01	-3.83959599e+01	-1.22525336e+02	-3.80771612e+01	-1.23246282e+02	-5.05283063e+00	-4.46646385e+01
1528236000	-5.24370106e-01	-5.84811412e+01	-3.84046910e+01	-1.23225743e+02	-3.81017219e+01	-1.23704991e+02	-5.05409133e+00	-4.48290040e+01
1528521571.43	-5.24991338e-01	-5.85023816e+01	-3.85733957e+01	-1.23304734e+02	-3.81029230e+01	-1.24082545e+02	-5.05059688e+00	-4.49219486e+01
1528807142.86	-5.23899664e-01	-5.85344245e+01	-3.85324722e+01	-1.23818759e+02	-3.81482955e+01	-1.24646032e+02	-5.04578629e+00	-4.50618621e+01
1529092714.29	-5.21108448e-01	-5.85347095e+01	-3.85871285e+01	-1.24260311e+02	-3.81627980e+01	-1.25010107e+02	-5.03706117e+00	-4.51465544e+01
1529378285.71	-5.25844351e-01	-5.85723524e+01	-3.85662652e+01	-1.24653817e+02	-3.81679818e+01	-1.25563953e+02	-5.02980040e+00	-4.53000657e+01
1529663857.14	-5.20869323e-01	-5.85515342e+01	-3.86910574e+01	-1.24920931e+02	-3.82233294e+01	-1.25995464e+02	-5.03257778e+00	-4.54400748e+01
1529949428.57	-5.22476644e-01	-5.85506670e+01	-3.85906316e+01	-1.25670685e+02	-3.81984758e+01	-1.26434461e+02	-5.02194679e+00	-4.55433834e+01
1530235000	-5.22954533e-01	-5.85588545e+01	-3.86077305e+01	-1.25798922e+02	-3.82615823e+01	-1.27272525e+02	-5.01972503e+00	-4.56536548e+01
1530520571.43	-5.17864912e-01	-5.85789604e+01	-3.86865856e+01	-1.26263389e+02	-3.82654413e+01	-1.27462288e+02	-5.00978855e+00	-4.58576035e+01
1530806142.86	-5.24869626e-01	-5.85968093e+01	-3.86394877e+01	-1.26868622e+02	-3.82802679e+01	-1.27708564e+02	-5.00423485e+00	-4.59419610e+01
1531091714.29	-5.18823687e-01	-5.86515864e+01	-3.87619303e+01	-1.26848156e+02	-3.83055428e+01	-1.28229019e+02	-4.99963028e+00	-4.60848325e+01
1531377285.71	-5.22865100e-01	-5.87002594e+01	-3.87302323e+01	-1.27416202e+02	-3.83317630e+01	-1.28880242e+02	-4.99852357e+00	-4.62359344e+01
1531662857.14	-5.26004242e-01	-5.87055561e+01	-3.86974437e+01	-1.27918525e+02	-3.83550383e+01	-1.29381132e+02	-4.99465132e+00	-4.63780259e+01
1531948428.57	-5.30426656e-01	-5.86952647e+01	-3.87092777e+01	-1.28071119e+02	-3.83143428e+01	-1.29498949e+02	-4.98561657e+00	-4.65530560e+01
1532234000	-5.23349452e-01	-5.87041453e+01	-3.87684194e+01	-1.29237408e+02	-3.83491744e+01	-1.30020763e+02	-4.98129898e+00	-4.66541075e+01
1532519571.43	-5.18193643e-01	-5.87282567e+01	-3.87590422e+01	-1.29216507e+02	-3.83783322e+01	-1.30760757e+02	-4.97153407e+00	-4.67893795e+01
1532805142.86	-5.22599148e-01	-5.87458748e+01	-3.87825839e+01	-1.29825468e+02	-3.83519181e+01	-1.31422928e+02	-4.96607266e+00	-4.69001600e+01
1533090714.29	-5.21801333e-01	-5.87688720e+01	-3.87520851e+01	-1.30512396e+02	-3.83823807e+01	-1.31753935e+02	-4.96413246e+00	-4.70145361e+01
1533376285.71	-5.18814710e-01	-5.87813526e+01	-3.87070416e+01	-1.30568313e+02	-3.83946861e+01	-1.32413939e+02	-4.95428965e+00	-4.71902710e+01
1533661857.14	-5.14648497e-01	-5.88001641e+01	-3.87865107e+01	-1.31077715e+02	-3.84177654e+01	-1.33031204e+02	-4.95227248e+00	-4.73047470e+01
1533947428.57	-5.15919165e-01	-5.88142059e+01	-3.87535554e+01	-1.31540797e+02	-3.84415537e+01	-1.33707532e+02	-4.94266259e+00	-4.74465836e+01
1534233000	-5.19635258e-01	-5.88295999e+01	-3.87788487e+01	-1.32510077e+02	-3.84776005e+01	-1.34097141e+02	-4.93830927e+00	-4.75610280e+01
1534518571.43	-5.21033214e-01	-5.88690805e+01	-3.87919495e+01	-1.33021377e+02	-3.84844782e+01	-1.34601251e+02	-4.93497308e+00	-4.77143376e+01
1534804142.86	-5.17052223e-01	-5.89080694e+01	-3.87531734e+01	-1.33864134e+02	-3.84770924e+01	-1.35386238e+02	-4.92878123e+00	-4.78418477e+01
1535089714.29	-5.18184105e-01	-5.89233473e+01	-3.88030746e+01	-1.34142445e+02	-3.85502166e+01	-1.36095200e+02	-4.92385692e+00	-4.79999076e+01
1535375285.71	-5.18092996e-01	-5.89248436e+01	-3.87128888e+01	-1.34867981e+02	-3.85278057e+01	-1.36548336e+02	-4.91262589e+00	-4.81687418e+01
1535660857.14	-5.13301889e-01	-5.88977651e+01	-3.88374200e+01	-1.34888528e+02	-3.85418981e+01	-1.37137233e+02	-4.90992041e+00	-4.83211043e+01
1535946428.57	-5.15798157e-01	-5.89040653e+01	-3.88205942e+01	-1.35816425e+02	-3.85686985e+01	-1.37695799e+02	-4.89871778e+00	-4.84479511e+01
1536232000	-5.14683022e-01	-5.89175699e+01	-3.88467234e+01	-1.36441623e+02	-3.86265796e+01	-1.38463500e+02	-4.89888575e+00	-4.85499314e+01
1536517571.43	-5.14812963e-01	-5.89570301e+01	-3.88529995e+01	-1.37413887e+02	-3.86647115e+01	-1.39029239e+02	-4.88689796e+00	-4.86982625e+01
1536803142.86	-5.12144695e-01	-5.89730683e+01	-3.88507684e+01	-1.37970335e+02	-3.86790076e+01	-1.39459150e+02	-4.87599238e+00	-4.88295664e+01
1537088714.29	-5.12534745e-01	-5.89797581e+01	-3.89151369e+01	-1.38591598e+02	-3.87223173e+01	-1.40283459e+02	-4.87654223e+00	-4.89459324e+01
1537374285.71	-5.14092702e-01	-5.89786036e+01	-3.90004897e+01	-1.39039047e+02	-3.86971844e+01	-1.40734566e+02	-4.86920779e+00	-4.90718288e+01
1537659857.14	-5.09914714e-01	-5.90188788e+01	-3.89851199e+01	-1.39883069e+02	-3.87596361e+01	-1.41209127e+02	-4.86742179e+00	-4.91646342e+01
1537945428.57	-5.07024000e-01	-5.90342367e+01	-3.90231232e+01	-1.40255362e+02	-3.88282066e+01	-1.41883669e+02	-4.86171208e+00	-4.92764706e+01
1538231000	-5.09168319e-01	-5.90661310e+01	-3.91069302e+01	-1.41138816e+02	-3.88844477e+01	-1.42233647e+02	-4.85591661e+00	-4.94419355e+01
1538516571.43	-5.10748319e-01	-5.90771853e+01	-3.92105321e+01	-1.41580179e+02	-3.89007458e+01	-1.42918426e+02	-4.84680855e+00	-4.95424087e+01
1538802142.86	-5.10647022e-01	-5.90911708e+01	-3.91555356e+01	-1.41705026e+02	-3.89262413e+01	-1.43655136e+02	-4.84262560e+00	-4.96010348e+01
1539087714.29	-5.07806106e-01	-5.91381364e+01	-3.92189029e+01	-1.42641006e+02	-3.89999157e+01	-1.44144467e+02	-4.84854986e+00	-4.97233695e+01
1539373285.71	-5.04609062e-01	-5.91153525e+01	-3.92046384e+01	-1.42927930e+02	-3.90595162e+01	-1.44395908e+02	-4.85029259e+00	-4.98691735e+01
1539658857.14	-4.97947780e-01	-5.91359881e+01	-3.92866748e+01	-1.43552731e+02	-3.90762035e+01	-1.44821288e+02	-4.84148242e+00	-5.00363676e+01
1539944428.57	-5.00172160e-01	-5.91722359e+01	-3.93398657e+01	-1.43869460e+02	-3.90722641e+01	-1.45590087e+02	-4.84260166e+00	-5.02094188e+01
1540230000	-5.05343274e-01	-5.91969012e+01	-3.93289926e+01	-1.44933288e+02	-3.92002081e+01	-1.45764160e+02	-4.83072604e+00	-5.02568152e+01
1540515571.43	-5.04477417e-01	-5.92054410e+01	-3.93879940e+01	-1.44802381e+02	-3.91606984e+01	-1.46427753e+02	-4.83072076e+00	-5.03885812e+01
1540801142.86	-5.03063096e-01	-5.92259884e+01	-3.94541991e+01	-1.45493973e+02	-3.92127338e+01	-1.46732553e+02	-4.82854456e+00	-5.04895115e+01
1541086714.29	-5.05526491e-01	-5.92103827e+01	-3.95054929e+01	-1.46469874e+02	-3.92508299e+01	-1.47279438e+02	-4.82193347e+00	-5.05988653e+01
1541372285.71	-4.99465088e-01	-5.92437618e+01	-3.95238040e+01	-1.46689961e+02	-3.93051062e+01	-1.47675273e+02	-4.82033647e+00	-5.08356481e+01
1541657857.14	-4.94471483e-01	-5.92610668e+01	-3.95464384e+01	-1.46723363e+02	-3.93317296e+01	-1.48334992e+02	-4.81245630e+00	-5.09301608e+01
1541943428.57	-5.01415181e-01	-5.93035719e+01	-3.95239797e+01	-1.47324527e+02	-3.94299174e+01	-1.48687047e+02	-4.81115229e+00	-5.10820846e+01
1542229000	-5.03884525e-01	-5.93211600e+01	-3.95801549e+01	-1.48138668e+02	-3.94095942e+01	-1.49034093e+02	-4.80248016e+00	-5.11814085e+01
1542514571.43	-5.03265636e-01	-5.93500858e+01	-3.97152891e+01	-1.48489465e+02	-3.94639433e+01	-1.50000834e+02	-4.80253042e+00	-5.12922513e+01
1542800142.86	-5.07121614e-01	-5.93739441e+01	-3.97029213e+01	-1.48988475e+02	-3.94803884e+01	-1.50314042e+02	-4.80111813e+00	-5.14215100e+01
1543085714.29	-4.99440024e-01	-5.93722161e+01	-3.97202289e+01	-1.49266438e+02	-3.95553683e+01	-1.50919367e+02	-4.79204516e+00	-5.15539239e+01
1543371285.71	-4.98734151e-01	-5.94071918e+01	-3.97687535e+01	-1.50347731e+02	-3.95574862e+01	-1.50958507e+02	-4.79159015e+00	-5.16003169e+01
1543656857.14	-4.97062755e-01	-5.94606166e+01	-3.97770774e+01	-1.50223944e+02	-3.96316894e+01	-1.51337604e+02	-4.77632299e+00	-5.17378690e+01
1543942428.57	-4.96346721e-01	-5.94906581e+01	-3.98775746e+01	-1.51025881e+02	-3.96446359e+01	-1.52246187e+02	-4.78247719e+00	-5.18083405e+01
1544228000	-4.94191510e-01	-5.95085455e+01	-3.98921887e+01	-1.51381256e+02	-3.97108399e+01	-1.52564146e+02	-4.77811261e+00	-5.18829655e+01
1544513571.43	-4.96092895e-01	-5.95195961e+01	-3.99422748e+01	-1.51981791e+02	-3.97688833e+01	-1.53341429e+02	-4.77382033e+00	-5.20105774e+01
1544799142.86	-4.96331309e-01	-5.95348086e+01	-3.99659354e+01	-1.52384263e+02	-3.97780856e+01	-1.53940311e+02	-4.75453754e+00	-5.20327451e+01
1545084714.29	-4.98433598e-01	-5.95363351e+01	-4.00238214e+01	-1.53136176e+02	-3.98487635e+01	-1.54010891e+02	-4.75593297e+00	-5.21474389e+01
1545370285.71	-5.03520333e-01	-5.95523672e+01	-4.00150860e+01	-1.53200608e+02	-3.99022300e+01	-1.54851212e+02	-4.75739082e+00	-5.22955680e+01
1545655857.14	-5.01578354e-01	-5.95752034e+01	-4.00693430e+01	-1.53865921e+02	-3.99487888e+01	-1.54704069e+02	-4.75526060e+00	-5.23505935e+01
1545941428.57	-4.95816213e-01	-5.95762435e+01	-4.01767206e+01	-1.54195358e+02	-4.00462722e+01	-1.55670223e+02	-4.74933178e+00	-5.24309026e+01
1546227000	-4.95648069e-01	-5.95919077e+01	-4.01904239e+01	-1.54378393e+02	-4.00569528e+01	-1.55953108e+02	-4.73899878e+00	-5.24999958e+01
1546512571.43	-4.96116470e-01	-5.96148615e+01	-4.02120229e+01	-1.55285010e+02	-4.01270154e+01	-1.56263799e+02	-4.73893570e+00	-5.26309506e+01
1546798142.86	-4.91150431e-01	-5.96581245e+01	-4.02200178e+01	-1.55788815e+02	-4.01822392e+01	-1.56609801e+02	-4.73402391e+00	-5.26714152e+01
1547083714.29	-4.91907117e-01	-5.96809108e+01	-4.02466807e+01	-1.55757918e+02	-4.02026824e+01	-1.57142834e+02	-4.73589314e+00	-5.27301839e+01
1547369285.71	-4.91409483e-01	-5.96979409e+01	-4.02829692e+01	-1.56699186e+02	-4.02369871e+01	-1.57547404e+02	-4.72844236e+00	-5.28101510e+01
1547654857.14	-4.96279109e-01	-5.97124243e+01	-4.03658432e+01	-1.56733976e+02	-4.03102608e+01	-1.57939469e+02	-4.72158668e+00	-5.28637701e+01
1547940428.57	-4.98715769e-01	-5.97442639e+01	-4.03950329e+01	-1.57105265e+02	-4.03134210e+01	-1.58078450e+02	-4.71603973e+00	-5.29653161e+01
1548226000	-5.01126567e-01	-5.97669460e+01	-4.04942944e+01	-1.57554139e+02	-4.04071170e+01	-1.59111061e+02	-4.70603434e+00	-5.31220541e+01
1548511571.43	-5.00282761e-01	-5.97611260e+01	-4.04441347e+01	-1.58067867e+02	-4.04358956e+01	-1.58882408e+02	-4.70640386e+00	-5.32103801e+01
1548797142.86	-4.97302908e-01	-5.97697277e+01	-4.04699790e+01	-1.58688961e+02	-4.05054754e+01	-1.58967394e+02	-4.70516106e+00	-5.33532981e+01
1549082714.29	-4.98280326e-01	-5.98082068e+01	-4.05406808e+01	-1.58524168e+02	-4.05221625e+01	-1.59740052e+02	-4.69912042e+00	-5.34685820e+01
1549368285.71	-4.96538660e-01	-5.98294570e+01	-4.05424980e+01	-1.58762169e+02	-4.06211120e+01	-1.60265356e+02	-4.69441917e+00	-5.36085159e+01
1549653857.14	-4.97617293e-01	-5.98401073e+01	-4.06182294e+01	-1.59638411e+02	-4.06409473e+01	-1.60568140e+02	-4.68883703e+00	-5.37191758e+01
1549939428.57	-4.98838663e-01	-5.98601226e+01	-4.05654473e+01	-1.59930307e+02	-4.06274642e+01	-1.60754563e+02	-4.67223078e+00	-5.39386660e+01
1550225000	-4.99242128e-01	-5.98861730e+01	-4.07054589e+01	-1.60435081e+02	-4.06651499e+01	-1.61629826e+02	-4.67754890e+00	-5.40187533e+01
1550510571.43	-4.89300240e-01	-5.99162154e+01	-4.07248334e+01	-1.61060630e+02	-4.06877643e+01	-1.61862254e+02	-4.67843168e+00	-5.42282475e+01
1550796142.86	-4.89982593e-01	-5.99106770e+01	-4.07005092e+01	-1.61567263e+02	-4.07537819e+01	-1.62695968e+02	-4.67177506e+00	-5.43752166e+01
1551081714.29	-4.95222048e-01	-5.99250386e+01	-4.08308704e+01	-1.61836138e+02	-4.08385016e+01	-1.62947124e+02	-4.66539817e+00	-5.45211893e+01
1551367285.71	-4.94031591e-01	-5.99598260e+01	-4.08156781e+01	-1.62432762e+02	-4.08314879e+01	-1.63337239e+02	-4.67503893e+00	-5.46644524e+01
1551652857.14	-4.97075021e-01	-5.99777265e+01	-4.08685271e+01	-1.62667878e+02	-4.08765848e+01	-1.63801037e+02	-4.66916122e+00	-5.47459931e+01
1551938428.57	-4.95372043e-01	-5.99688681e+01	-4.09627451e+01	-1.63502597e+02	-4.09694555e+01	-1.64152485e+02	-4.66600369e+00	-5.48440430e+01
1552224000	-4.94984233e-01	-5.99906395e+01	-4.09488672e+01	-1.63846702e+02	-4.09699676e+01	-1.64589691e+02	-4.66921749e+00	-5.49725641e+01
1552509571.43	-4.98570538e-01	-6.00199139e+01	-4.09467788e+01	-1.63820876e+02	-4.10577340e+01	-1.64969189e+02	-4.66237565e+00	-5.51526024e+01
1552795142.86	-4.94300285e-01	-6.00516893e+01	-4.10656423e+01	-1.65185269e+02	-4.10626640e+01	-1.65554825e+02	-4.67495720e+00	-5.51673097e+01
1553080714.29	-4.93963887e-01	-6.01049396e+01	-4.10404070e+01	-1.65092300e+02	-4.11763049e+01	-1.65397299e+02	-4.68037034e+00	-5.52100013e+01
1553366285.71	-4.96458929e-01	-6.01153370e+01	-4.11072414e+01	-1.65672875e+02	-4.12615690e+01	-1.66093463e+02	-4.68184162e+00	-5.53184336e+01
1553651857.14	-4.91240616e-01	-6.01293074e+01	-4.11234506e+01	-1.66157857e+02	-4.13020950e+01	-1.66338059e+02	-4.68268748e+00	-5.54330336e+01
1553937428.57	-4.92677974e-01	-6.01416943e+01	-4.12220694e+01	-1.65987196e+02	-4.13318286e+01	-1.66944509e+02	-4.68026547e+00	-5.56275699e+01
1554223000	-4.96086344e-01	-6.01501939e+01	-4.12313287e+01	-1.66882757e+02	-4.14380049e+01	-1.67228071e+02	-4.68131090e+00	-5.56817769e+01
1554508571.43	-4.97066318e-01	-6.01667238e+01	-4.12703383e+01	-1.67688319e+02	-4.14603505e+01	-1.67785507e+02	-4.67821200e+00	-5.58692135e+01
1554794142.86	-4.94493253e-01	-6.01707813e+01	-4.13752667e+01	-1.67484200e+02	-4.15305437e+01	-1.68052242e+02	-4.67852416e+00	-5.59516375e+01
1555079714.29	-4.89675148e-01	-6.01713656e+01	-4.13502964e+01	-1.68197174e+02	-4.15977483e+01	-1.68614720e+02	-4.68127093e+00	-5.61302736e+01
1555365285.71	-4.92921083e-01	-6.02016136e+01	-4.15431017e+01	-1.68644267e+02	-4.16409861e+01	-1.69297397e+02	-4.69055871e+00	-5.62224073e+01
1555650857.14	-4.95436862e-01	-6.02903890e+01	-4.15795474e+01	-1.68774583e+02	-4.17676177e+01	-1.69172259e+02	-4.69588387e+00	-5.63124360e+01
1555936428.57	-4.92590150e-01	-6.02800398e+01	-4.15717778e+01	-1.69550583e+02	-4.18413394e+01	-1.69439652e+02	-4.69158565e+00	-5.64597847e+01
1556222000	-4.86762864e-01	-6.02713083e+01	-4.16611471e+01	-1.69685567e+02	-4.18579594e+01	-1.69953143e+02	-4.69183284e+00	-5.65174086e+01
1556507571.43	-4.88250736e-01	-6.02893568e+01	-4.17150054e+01	-1.69666261e+02	-4.19599583e+01	-1.69906538e+02	-4.70152523e+00	-5.66589672e+01
1556793142.86	-4.87830459e-01	-6.03125594e+01	-4.18422829e+01	-1.70341358e+02	-4.20418667e+01	-1.70403559e+02	-4.70884383e+00	-5.67304434e+01
1557078714.29	-4.91190981e-01	-6.03199589e+01	-4.18579763e+01	-1.70107377e+02	-4.21269313e+01	-1.70521807e+02	-4.70695846e+00	-5.68755316e+01
1557364285.71	-4.88016544e-01	-6.03397913e+01	-4.20206625e+01	-1.70647556e+02	-4.22048982e+01	-1.70723514e+02	-4.70232818e+00	-5.69810032e+01
1557649857.14	-4.89096799e-01	-6.03578575e+01	-4.21444957e+01	-1.71097856e+02	-4.22189696e+01	-1.70632641e+02	-4.69558143e+00	-5.71254859e+01
1557935428.57	-4.89611520e-01	-6.03249366e+01	-4.21438582e+01	-1.70700214e+02	-4.23468200e+01	-1.70757337e+02	-4.69782411e+00	-5.72305520e+01
1558221000	-4.89255929e-01	-6.03303026e+01	-4.22506109e+01	-1.71195607e+02	-4.24325574e+01	-1.70829367e+02	-4.70061125e+00	-5.73089457e+01
1558506571.43	-4.90000834e-01	-6.03255901e+01	-4.22724350e+01	-1.71238509e+02	-4.25028084e+01	-1.71176243e+02	-4.70139177e+00	-5.74102888e+01
1558792142.86	-4.90353952e-01	-6.03546287e+01	-4.23768341e+01	-1.70939525e+02	-4.25806863e+01	-1.71016201e+02	-4.70647354e+00	-5.75774267e+01
1559077714.29	-4.91547763e-01	-6.03633220e+01	-4.24593479e+01	-1.71336620e+02	-4.26699116e+01	-1.70706367e+02	-4.70342224e+00	-5.76319790e+01
1559363285.71	-4.89141759e-01	-6.03722621e+01	-4.25986057e+01	-1.71420265e+02	-4.26488875e+01	-1.70515804e+02	-4.69949981e+00	-5.77868778e+01
1559648857.14	-4.83775057e-01	-6.04286477e+01	-4.26025044e+01	-1.70717632e+02	-4.27767304e+01	-1.70605674e+02	-4.70430950e+00	-5.79085824e+01
1559934428.57	-4.82638024e-01	-6.04193914e+01	-4.27155527e+01	-1.70211125e+02	-4.27858763e+01	-1.70008774e+02	-4.70431422e+00	-5.80288134e+01
1560220000	-4.82617042e-01	-6.04429181e+01	-4.28007968e+01	-1.70451414e+02	-4.29027780e+01	-1.70312973e+02	-4.69892978e+00	-5.81818009e+01
1560505571.43	-4.79295855e-01	-6.04646190e+01	-4.27340841e+01	-1.69487216e+02	-4.29436387e+01	-1.70370687e+02	-4.70317068e+00	-5.82640737e+01
1560791142.86	-4.86664671e-01	-6.04623589e+01	-4.27735909e+01	-1.70082941e+02	-4.29896416e+01	-1.70021137e+02	-4.69819853e+00	-5.83657741e+01
1561076714.29	-4.83915155e-01	-6.04691396e+01	-4.28056604e+01	-1.69934539e+02	-4.29510060e+01	-1.69394363e+02	-4.70426751e+00	-5.84271483e+01
1561362285.71	-4.80541278e-01	-6.04674783e+01	-4.28436377e+01	-1.69318177e+02	-4.29485189e+01	-1.69467611e+02	-4.69703985e+00	-5.84695824e+01
1561647857.14	-4.80624523e-01	-6.04568462e+01	-4.28320612e+01	-1.68722947e+02	-4.30382451e+01	-1.69581680e+02	-4.68700343e+00	-5.86180463e+01
1561933428.57	-4.78964809e-01	-6.04881766e+01	-4.29373341e+01	-1.68321212e+02	-4.30248291e+01	-1.69602247e+02	-4.69812617e+00	-5.86802783e+01
1562219000	-4.81161085e-01	-6.05230368e+01	-4.29107015e+01	-1.68612076e+02	-4.30152732e+01	-1.68876488e+02	-4.69817165e+00	-5.87578399e+01
1562504571.43	-4.83147490e-01	-6.05160866e+01	-4.28842161e+01	-1.68609220e+02	-4.30089987e+01	-1.68362543e+02	-4.69960621e+00	-5.89057389e+01
1562790142.86	-4.81245060e-01	-6.05508352e+01	-4.29021260e+01	-1.67710256e+02	-4.30069259e+01	-1.68722928e+02	-4.70508402e+00	-5.90526408e+01
1563075714.29	-4.79249203e-01	-6.05500631e+01	-4.28712203e+01	-1.67979291e+02	-4.30104158e+01	-1.68273201e+02	-4.70170230e+00	-5.90913363e+01
1563361285.71	-4.76887790e-01	-6.05489016e+01	-4.28952467e+01	-1.67790278e+02	-4.29987457e+01	-1.67919047e+02	-4.70226232e+00	-5.92065752e+01
1563646857.14	-4.75003109e-01	-6.05798810e+01	-4.29126185e+01	-1.67143397e+02	-4.29663345e+01	-1.68228172e+02	-4.70015671e+00	-5.92952333e+01
1563932428.57	-4.71313407e-01	-6.05706920e+01	-4.28854004e+01	-1.67617474e+02	-4.29201002e+01	-1.67591255e+02	-4.70361600e+00	-5.94328262e+01
1564218000	-4.74710220e-01	-6.05653624e+01	-4.29208995e+01	-1.67109338e+02	-4.29667556e+01	-1.67382723e+02	-4.70220946e+00	-5.95477759e+01
1564503571.43	-4.73251563e-01	-6.05852247e+01	-4.27580979e+01	-1.66961279e+02	-4.28739996e+01	-1.67581192e+02	-4.70601013e+00	-5.97374177e+01
1564789142.86	-4.75278450e-01	-6.05910296e+01	-4.27486764e+01	-1.66880998e+02	-4.28593060e+01	-1.67583617e+02	-4.70496838e+00	-5.98840137e+01
1565074714.29	-4.75683204e-01	-6.05774134e+01	-4.27091615e+01	-1.66912222e+02	-4.27755660e+01	-1.67499046e+02	-4.71099017e+00	-5.99988152e+01
1565360285.71	-4.73534745e-01	-6.05500801e+01	-4.26683595e+01	-1.67402555e+02	-4.28235653e+01	-1.67022359e+02	-4.71374085e+00	-6.01895570e+01
1565645857.14	-4.75754298e-01	-6.05798096e+01	-4.26762981e+01	-1.66435489e+02	-4.27196661e+01	-1.67421175e+02	-4.71067693e+00	-6.02873915e+01
1565931428.57	-4.72439774e-01	-6.06102772e+01	-4.26335620e+01	-1.66660782e+02	-4.26815706e+01	-1.67616578e+02	-4.70581397e+00	-6.04262322e+01
1566217000	-4.68366030e-01	-6.06138147e+01	-4.25122942e+01	-1.66761273e+02	-4.26591131e+01	-1.67666057e+02	-4.70738975e+00	-6.05322177e+01
1566502571.43	-4.70633480e-01	-6.06381840e+01	-4.25367625e+01	-1.67153861e+02	-4.25798377e+01	-1.67621837e+02	-4.71753194e+00	-6.06889977e+01
1566788142.86	-4.71276043e-01	-6.06392831e+01	-4.24745832e+01	-1.66527887e+02	-4.26013518e+01	-1.67318400e+02	-4.71755476e+00	-6.07467609e+01
1567073714.29	-4.66902110e-01	-6.06379339e+01	-4.23915041e+01	-1.66775054e+02	-4.25864339e+01	-1.68052840e+02	-4.72979354e+00	-6.08721007e+01
1567359285.71	-4.64798213e-01	-6.06420021e+01	-4.23950699e+01	-1.67774386e+02	-4.25034371e+01	-1.68080885e+02	-4.73214930e+00	-6.09965658e+01
1567644857.14	-4.63206610e-01	-6.06685748e+01	-4.23570776e+01	-1.67220617e+02	-4.24698632e+01	-1.68333740e+02	-4.73715772e+00	-6.10994899e+01
1567930428.57	-4.60176639e-01	-6.06612413e+01	-4.23537714e+01	-1.67398121e+02	-4.24586037e+01	-1.68706395e+02	-4.73748443e+00	-6.11858116e+01
1568216000	-4.63731888e-01	-6.06380074e+01	-4.23017393e+01	-1.67774472e+02	-4.23858162e+01	-1.68885580e+02	-4.74854446e+00	-6.12747582e+01
1568501571.43	-4.65284805e-01	-6.06633286e+01	-4.22738184e+01	-1.67936698e+02	-4.23407053e+01	-1.69259603e+02	-4.76007159e+00	-6.13892379e+01
1568787142.86	-4.62730725e-01	-6.06638860e+01	-4.22715457e+01	-1.68645455e+02	-4.23324268e+01	-1.69112991e+02	-4.76547443e+00	-6.14816690e+01
1569072714.29	-4.62238401e-01	-6.07010437e+01	-4.21454703e+01	-1.68586887e+02	-4.22741690e+01	-1.69572919e+02	-4.76585703e+00	-6.15178919e+01
1569358285.71	-4.59177867e-01	-6.07047050e+01	-4.21338618e+01	-1.68723818e+02	-4.21928342e+01	-1.70148777e+02	-4.77114819e+00	-6.16115577e+01
1569643857.14	-4.60386838e-01	-6.07080467e+01	-4.20709964e+01	-1.69121526e+02	-4.22793433e+01	-1.70269927e+02	-4.79118398e+00	-6.17877900e+01
1569929428.57	-4.62466832e-01	-6.06874905e+01	-4.20282832e+01	-1.69367944e+02	-4.21868093e+01	-1.70573626e+02	-4.79487344e+00	-6.18304098e+01
1570215000	-4.64033267e-01	-6.06939081e+01	-4.19957298e+01	-1.69767865e+02	-4.21339118e+01	-1.70718600e+02	-4.79322473e+00	-6.20312252e+01
1570500571.43	-4.60176776e-01	-6.07322060e+01	-4.19412994e+01	-1.69860062e+02	-4.21272710e+01	-1.71279465e+02	-4.80238080e+00	-6.21529826e+01
1570786142.86	-4.57479701e-01	-6.07021238e+01	-4.20020397e+01	-1.70596795e+02	-4.20997756e+01	-1.71421847e+02	-4.80325786e+00	-6.22818877e+01
1571071714.29	-4.53504822e-01	-6.07088458e+01	-4.19646455e+01	-1.70929421e+02	-4.20772172e+01	-1.71621052e+02	-4.81368057e+00	-6.23676747e+01
1571357285.71	-4.50846985e-01	-6.06949531e+01	-4.19209328e+01	-1.71016308e+02	-4.20427637e+01	-1.72284541e+02	-4.81946112e+00	-6.25279285e+01
1571642857.14	-4.55679299e-01	-6.06951440e+01	-4.18978952e+01	-1.71770192e+02	-4.20015323e+01	-1.72814588e+02	-4.82417557e+00	-6.26814643e+01
1571928428.57	-4.54002617e-01	-6.06849929e+01	-4.18148325e+01	-1.71708371e+02	-4.19853882e+01	-1.72867155e+02	-4.83320569e+00	-6.28056985e+01
1572214000	-4.50873539e-01	-6.07026993e+01	-4.17834446e+01	-1.71769414e+02	-4.19880721e+01	-1.73613549e+02	-4.83867975e+00	-6.28862578e+01
1572499571.43	-4.54940999e-01	-6.07077745e+01	-4.17970526e+01	-1.72296619e+02	-4.20319755e+01	-1.73797375e+02	-4.84305845e+00	-6.30528538e+01
1572785142.86	-4.52137349e-01	-6.07071952e+01	-4.17486178e+01	-1.72899864e+02	-4.19714358e+01	-1.73623159e+02	-4.84411845e+00	-6.31945002e+01
1573070714.29	-4.51783065e-01	-6.07151507e+01	-4.17947226e+01	-1.73007375e+02	-4.19045138e+01	-1.73981975e+02	-4.84675234e+00	-6.32779014e+01
1573356285.71	-4.50846637e-01	-6.07250330e+01	-4.16833367e+01	-1.73526404e+02	-4.19315919e+01	-1.74463374e+02	-4.85562697e+00	-6.34306471e+01
1573641857.14	-4.50904030e-01	-6.07394403e+01	-4.17112815e+01	-1.73408525e+02	-4.18626693e+01	-1.74909347e+02	-4.87272457e+00	-6.35661842e+01
1573927428.57	-4.51742225e-01	-6.07479364e+01	-4.16431779e+01	-1.73963649e+02	-4.18894506e+01	-1.74828960e+02	-4.86977776e+00	-6.37313747e+01
1574213000	-4.52824517e-01	-6.07339918e+01	-4.16330790e+01	-1.73927470e+02	-4.18600759e+01	-1.75189646e+02	-4.87253005e+00	-6.38745030e+01
1574498571.43	-4.52176769e-01	-6.07369786e+01	-4.15954019e+01	-1.74492715e+02	-4.18692771e+01	-1.75469586e+02	-4.88277727e+00	-6.40139435e+01
1574784142.86	-4.50225430e-01	-6.07463159e+01	-4.15669761e+01	-1.74737117e+02	-4.18123021e+01	-1.75555524e+02	-4.88073161e+00	-6.42073040e+01
1575069714.29	-4.52964205e-01	-6.07511100e+01	-4.15424172e+01	-1.75149210e+02	-4.17845779e+01	-1.76138698e+02	-4.88886122e+00	-6.43425491e+01
1575355285.71	-4.51062418e-01	-6.07618656e+01	-4.14589557e+01	-1.75428447e+02	-4.17732958e+01	-1.76146794e+02	-4.90305486e+00	-6.44704000e+01
1575640857.14	-4.46598812e-01	-6.07814079e+01	-4.14742931e+01	-1.75883300e+02	-4.16645982e+01	-1.76767460e+02	-4.91404804e+00	-6.46270673e+01
1575926428.57	-4.51974461e-01	-6.07760835e+01	-4.15070545e+01	-1.75851968e+02	-4.16922570e+01	-1.76852334e+02	-4.92277313e+00	-6.47576256e+01
1576212000	-4.52428105e-01	-6.07776497e+01	-4.13629975e+01	-1.77015905e+02	-4.16659439e+01	-1.77043521e+02	-4.92597595e+00	-6.49133485e+01
1576497571.43	-4.51891801e-01	-6.07889969e+01	-4.13448474e+01	-1.77185404e+02	-4.15652056e+01	-1.78025078e+02	-4.93332297e+00	-6.49980480e+01
1576783142.86	-4.53414334e-01	-6.08158766e+01	-4.13175373e+01	-1.77798304e+02	-4.16154612e+01	-1.77448275e+02	-4.94534921e+00	-6.51668883e+01
1577068714.29	-4.49519607e-01	-6.08217283e+01	-4.12934749e+01	-1.77823513e+02	-4.15003433e+01	-1.78079221e+02	-4.95808853e+00	-6.53334143e+01
1577354285.71	-4.51537425e-01	-6.08217258e+01	-4.12511249e+01	-1.77998149e+02	-4.14879675e+01	-1.78155118e+02	-4.96494426e+00	-6.54298649e+01
1577639857.14	-4.52251765e-01	-6.08174775e+01	-4.11269529e+01	-1.78838827e+02	-4.14549359e+01	-1.78983832e+02	-4.97882224e+00	-6.55764121e+01
1577925428.57	-4.50956838e-01	-6.08074072e+01	-4.10913248e+01	-1.79329164e+02	-4.14006336e+01	-1.79590646e+02	-4.99275482e+00	-6.57438249e+01
1578211000	-4.49549634e-01	-6.08311807e+01	-4.12174835e+01	-1.79537247e+02	-4.13905150e+01	-1.79686709e+02	-5.00003590e+00	-6.58204730e+01
1578496571.43	-4.52677993e-01	-6.08277795e+01	-4.10469750e+01	-1.79862508e+02	-4.13477362e+01	-1.79826835e+02	-5.00715863e+00	-6.59935114e+01
1578782142.86	-4.53749938e-01	-6.08140499e+01	-4.10582954e+01	1.79112154e+02	-4.13084344e+01	1.79540761e+02	-5.02335868e+00	-6.61410016e+01
1579067714.29	-4.52684373e-01	-6.08383783e+01	-4.10267931e+01	1.78599960e+02	-4.12871293e+01	1.78820201e+02	-5.02651006e+00	-6.62646891e+01
1579353285.71	-4.50325632e-01	-6.08452521e+01	-4.10390473e+01	1.78353259e+02	-4.12246384e+01	1.78455784e+02	-5.03495712e+00	-6.64239465e+01
1579638857.14	-4.50697232e-01	-6.08464079e+01	-4.09931170e+01	1.77531123e+02	-4.11980742e+01	1.78127130e+02	-5.03908203e+00	-6.65436678e+01
1579924428.57	-4.48917443e-01	-6.08976026e+01	-4.09608213e+01	1.77177186e+02	-4.11294600e+01	1.77707746e+02	-5.05696355e+00	-6.66660273e+01
1580210000	-4.47102540e-01	-6.09272627e+01	-4.09611980e+01	1.76443097e+02	-4.10895404e+01	1.76928180e+02	-5.06498039e+00	-6.68510339e+01
1580495571.43	-4.48759778e-01	-6.09006837e+01	-4.09487524e+01	1.76563678e+02	-4.10670965e+01	1.76872920e+02	-5.07405098e+00	-6.70399797e+01
1580781142.86	-4.48480091e-01	-6.08847990e+01	-4.09483704e+01	1.75986798e+02	-4.10542618e+01	1.76275386e+02	-5.09327756e+00	-6.72000167e+01
1581066714.29	-4.50905383e-01	-6.08943453e+01	-4.08661298e+01	1.75261161e+02	-4.09238287e+01	1.75566027e+02	-5.09645404e+00	-6.73468421e+01
1581352285.71	-4.52925662e-01	-6.09398599e+01	-4.08886480e+01	1.75286254e+02	-4.08900976e+01	1.75136104e+02	-5.10998647e+00	-6.74736952e+01
1581637857.14	-4.47394476e-01	-6.09250349e+01	-4.08829278e+01	1.74613276e+02	-4.09601241e+01	1.74476622e+02	-5.10933183e+00	-6.75873967e+01
1581923428.57	-4.47732552e-01	-6.09568173e+01	-4.08362902e+01	1.73487287e+02	-4.08723698e+01	1.74062396e+02	-5.12960164e+00	-6.78035501e+01
1582209000	-4.46599318e-01	-6.09591754e+01	-4.07733407e+01	1.72967579e+02	-4.08803062e+01	1.73381415e+02	-5.13860674e+00	-6.79292332e+01
1582494571.43	-4.47446904e-01	-6.09721776e+01	-4.08100423e+01	1.72772583e+02	-4.08563950e+01	1.73017613e+02	-5.14837532e+00	-6.80348376e+01
1582780142.86	-4.48591719e-01	-6.09561085e+01	-4.07379442e+01	1.72060168e+02	-4.08377268e+01	1.72533213e+02	-5.15187074e+00	-6.82101976e+01
1583065714.29	-4.46117179e-01	-6.09607066e+01	-4.07570233e+01	1.71752229e+02	-4.07645606e+01	1.71862143e+02	-5.15652514e+00	-6.83650648e+01
1583351285.71	-4.48556516e-01	-6.09889355e+01	-4.07120972e+01	1.70764410e+02	-4.07734007e+01	1.71018966e+02	-5.16614060e+00	-6.85281194e+01
1583636857.14	-4.47880867e-01	-6.10035689e+01	-4.07372609e+01	1.70608052e+02	-4.07225020e+01	1.70651153e+02	-5.19149332e+00	-6.86508028e+01
1583922428.57	-4.47779682e-01	-6.10375303e+01	-4.07166296e+01	1.69576153e+02	-4.06965068e+01	1.69851827e+02	-5.19909746e+00	-6.88294843e+01
1584208000	-4.46639669e-01	-6.10457383e+01	-4.06899521e+01	1.69184759e+02	-4.07265074e+01	1.69325939e+02	-5.20142987e+00	-6.89657228e+01
1584493571.43	-4.43127396e-01	-6.10329107e+01	-4.06656596e+01	1.68689240e+02	-4.06949533e+01	1.68693976e+02	-5.22257252e+00	-6.91175019e+01
1584779142.86	-4.47309257e-01	-6.10469671e+01	-4.06175932e+01	1.68408979e+02	-4.07169123e+01	1.68574781e+02	-5.23024391e+00	-6.93015044e+01
1585064714.29	-4.46995452e-01	-6.10926731e+01	-4.06100720e+01	1.67710437e+02	-4.06502470e+01	1.67575819e+02	-5.24362913e+00	-6.93818000e+01
1585350285.71	-4.47860584e-01	-6.10851971e+01	-4.06318325e+01	1.66921391e+02	-4.06786720e+01	1.67298777e+02	-5.24945024e+00	-6.95345315e+01
1585635857.14	-4.50586661e-01	-6.10941869e+01	-4.06200907e+01	1.66658429e+02	-4.06803486e+01	1.66581214e+02	-5.25827232e+00	-6.96461178e+01
1585921428.57	-4.51753450e-01	-6.10910785e+01	-4.05654326e+01	1.65687797e+02	-4.06344469e+01	1.65610590e+02	-5.26745454e+00	-6.97899780e+01
1586207000	-4.47275876e-01	-6.11054695e+01	-4.06345083e+01	1.65704305e+02	-4.06408120e+01	1.64821448e+02	-5.27844173e+00	-6.98990284e+01
1586492571.43	-4.44779505e-01	-6.10964757e+01	-4.05854839e+01	1.64732551e+02	-4.06537338e+01	1.63995057e+02	-5.29803556e+00	-6.99461368e+01
1586778142.86	-4.43362589e-01	-6.11238909e+01	-4.06394954e+01	1.64445275e+02	-4.06559129e+01	1.63565986e+02	-5.30959766e+00	-7.00886585e+01
1587063714.29	-4.52018716e-01	-6.11355869e+01	-4.05715009e+01	1.63896209e+02	-4.06455997e+01	1.63318585e+02	-5.31901869e+00	-7.02297598e+01
1587349285.71	-4.51558746e-01	-6.11878582e+01	-4.05728283e+01	1.63220237e+02	-4.06625934e+01	1.62369922e+02	-5.32797509e+00	-7.04251236e+01
1587634857.14	-4.52815583e-01	-6.11913049e+01	-4.05020215e+01	1.62556151e+02	-4.07019255e+01	1.62073946e+02	-5.33793704e+00	-7.04980842e+01
1587920428.57	-4.51685374e-01	-6.12101919e+01	-4.06518281e+01	1.62415402e+02	-4.06686432e+01	1.61593348e+02	-5.34131501e+00	-7.05708065e+01
1588206000	-4.51546967e-01	-6.12711288e+01	-4.06189750e+01	1.61948298e+02	-4.06466211e+01	1.61017352e+02	-5.35372966e+00	-7.07137158e+01
1588491571.43	-4.52530084e-01	-6.12776679e+01	-4.06783494e+01	1.61126073e+02	-4.06142255e+01	1.60314252e+02	-5.35969037e+00	-7.07646665e+01
1588777142.86	-4.53418719e-01	-6.12615981e+01	-4.05772268e+01	1.60939495e+02	-4.07938184e+01	1.59691500e+02	-5.37266526e+00	-7.08950931e+01
1589062714.29	-4.53367892e-01	-6.12791416e+01	-4.05875225e+01	1.60090701e+02	-4.06984044e+01	1.59414827e+02	-5.38062386e+00	-7.10241424e+01
1589348285.71	-4.53513688e-01	-6.13104459e+01	-4.05989610e+01	1.60282170e+02	-4.07170976e+01	1.58957018e+02	-5.38357698e+00	-7.11064559e+01
1589633857.14	-4.55477909e-01	-6.12996503e+01	-4.06468863e+01	1.59783893e+02	-4.07314970e+01	1.58836008e+02	-5.39247014e+00	-7.11546274e+01
1589919428.57	-4.52094130e-01	-6.13180903e+01	-4.05629701e+01	1.59019114e+02	-4.07678434e+01	1.58178324e+02	-5.40744629e+00	-7.12816012e+01
1590205000	-4.54933264e-01	-6.13464421e+01	-4.06102304e+01	1.58280938e+02	-4.07362341e+01	1.57514654e+02	-5.41027116e+00	-7.13835354e+01
1590490571.43	-4.57559888e-01	-6.13574707e+01	-4.05796955e+01	1.58329066e+02	-4.07423134e+01	1.56910201e+02	-5.41897496e+00	-7.14934212e+01
1590776142.86	-4.57791509e-01	-6.13837498e+01	-4.06823220e+01	1.57372444e+02	-4.07894390e+01	1.56652051e+02	-5.41466492e+00	-7.16128854e+01
1591061714.29	-4.52906339e-01	-6.13742680e+01	-4.06697040e+01	1.57231108e+02	-4.07853701e+01	1.56351384e+02	-5.42352845e+00	-7.16171341e+01
1591347285.71	-4.55669446e-01	-6.13976796e+01	-4.06784702e+01	1.56951147e+02	-4.07497101e+01	1.55953098e+02	-5.42405433e+00	-7.17806021e+01
1591632857.14	-4.60374007e-01	-6.14353055e+01	-4.06513627e+01	1.56549884e+02	-4.07781534e+01	1.55500586e+02	-5.42607908e+00	-7.18895198e+01
1591918428.57	-4.58425939e-01	-6.14528580e+01	-4.06228738e+01	1.56457421e+02	-4.07549882e+01	1.54783185e+02	-5.44007966e+00	-7.19985574e+01
1592204000	-4.59741804e-01	-6.14981192e+01	-4.06124137e+01	1.55795078e+02	-4.07423204e+01	1.54532004e+02	-5.44673350e+00	-7.21234323e+01
1592489571.43	-4.57062881e-01	-6.14941855e+01	-4.06567630e+01	1.55870747e+02	-4.07898597e+01	1.54223154e+02	-5.45352290e+00	-7.22658251e+01
1592775142.86	-4.60462898e-01	-6.15023171e+01	-4.06005734e+01	1.55053460e+02	-4.07631425e+01	1.53580038e+02	-5.46435516e+00	-7.23454201e+01
1593060714.29	-4.62321389e-01	-6.15130578e+01	-4.05638618e+01	1.54718708e+02	-4.07516470e+01	1.53330003e+02	-5.46975071e+00	-7.23910635e+01
1593346285.71	-4.57009963e-01	-6.15472507e+01	-4.06378637e+01	1.53955843e+02	-4.07138666e+01	1.53002096e+02	-5.47197485e+00	-7.25420897e+01
1593631857.14	-4.63502782e-01	-6.15604912e+01	-4.05786184e+01	1.54050684e+02	-4.07653849e+01	1.52129857e+02	-5.48257137e+00	-7.26712104e+01
1593917428.57	-4.60538055e-01	-6.15771451e+01	-4.05732619e+01	1.53374801e+02	-4.08155617e+01	1.52087973e+02	-5.49103787e+00	-7.27721182e+01
1594203000	-4.57549030e-01	-6.15860999e+01	-4.05659453e+01	1.52984466e+02	-4.07419156e+01	1.51290686e+02	-5.48973861e+00	-7.28203623e+01
1594488571.43	-4.58366476e-01	-6.16051754e+01	-4.06062956e+01	1.52653792e+02	-4.07716656e+01	1.51165500e+02	-5.50890125e+00	-7.29704199e+01
1594774142.86	-4.56706182e-01	-6.16352447e+01	-4.06257531e+01	1.52523549e+02	-4.07564758e+01	1.50445182e+02	-5.50842224e+00	-7.30480488e+01
1595059714.29	-4.54957328e-01	-6.16775474e+01	-4.06004301e+01	1.52097357e+02	-4.07480879e+01	1.50272500e+02	-5.51543541e+00	-7.31085190e+01
1595345285.71	-4.55580827e-01	-6.16557240e+01	-4.05200355e+01	1.51591323e+02	-4.08031107e+01	1.49537979e+02	-5.52800978e+00	-7.32326786e+01
1595630857.14	-4.58770043e-01	-6.16955084e+01	-4.05503643e+01	1.51195842e+02	-4.06997013e+01	1.49551640e+02	-5.52788928e+00	-7.33298432e+01
1595916428.57	-4.61393762e-01	-6.17153726e+01	-4.05318734e+01	1.50560829e+02	-4.07428274e+01	1.48725424e+02	-5.52704917e+00	-7.34234848e+01
1596202000	-4.56572058e-01	-6.17023994e+01	-4.04852969e+01	1.49911184e+02	-4.07419095e+01	1.48381098e+02	-5.53839828e+00	-7.35082494e+01
1596487571.43	-4.60736344e-01	-6.17016616e+01	-4.04632470e+01	1.49581159e+02	-4.07923104e+01	1.47900377e+02	-5.54139815e+00	-7.36087880e+01
1596773142.86	-4.61101425e-01	-6.17379622e+01	-4.05346158e+01	1.50056170e+02	-4.07465859e+01	1.47889786e+02	-5.55585699e+00	-7.37206806e+01
1597058714.29	-4.63037061e-01	-6.17731569e+01	-4.05541130e+01	1.49316962e+02	-4.07375755e+01	1.47323111e+02	-5.55739252e+00	-7.38015124e+01
1597344285.71	-4.66246604e-01	-6.18192114e+01	-4.04455939e+01	1.48642054e+02	-4.07185921e+01	1.46897238e+02	-5.57042722e+00	-7.39194351e+01
1597629857.14	-4.67422822e-01	-6.18468051e+01	-4.04676997e+01	1.48823892e+02	-4.07530367e+01	1.46703606e+02	-5.57335284e+00	-7.40030601e+01
1597915428.57	-4.71320994e-01	-6.18517547e+01	-4.04331280e+01	1.47675646e+02	-4.07267146e+01	1.46077019e+02	-5.57246557e+00	-7.40894926e+01
1598201000	-4.69309024e-01	-6.18841130e+01	-4.04100126e+01	1.47922183e+02	-4.07575955e+01	1.45736719e+02	-5.56947518e+00	-7.41065115e+01
1598486571.43	-4.69294673e-01	-6.19211856e+01	-4.04003320e+01	1.47210408e+02	-4.07425841e+01	1.45381956e+02	-5.58816920e+00	-7.41991561e+01
1598772142.86	-4.73199324e-01	-6.19292970e+01	-4.04466475e+01	1.46750238e+02	-4.06915922e+01	1.44697434e+02	-5.59276521e+00	-7.42776531e+01
1599057714.29	-4.72487041e-01	-6.19456370e+01	-4.04018008e+01	1.46288303e+02	-4.07409049e+01	1.44338558e+02	-5.60271096e+00	-7.44159577e+01
1599343285.71	-4.74995573e-01	-6.19618982e+01	-4.03479954e+01	1.45849904e+02	-4.07517453e+01	1.43934778e+02	-5.60437711e+00	-7.44647883e+01
1599628857.14	-4.74094952e-01	-6.19893870e+01	-4.03437203e+01	1.45383694e+02	-4.07078099e+01	1.43521627e+02	-5.60692023e+00	-7.45619527e+01
1599914428.57	-4.70652794e-01	-6.20246517e+01	-4.04054321e+01	1.44419981e+02	-4.06575966e+01	1.43120383e+02	-5.61753049e+00	-7.45735903e+01
1600200000	-4.68212122e-01	-6.20323748e+01	-4.03570634e+01	1.44145452e+02	-4.06503490e+01	1.42669527e+02	-5.62231405e+00	-7.46513111e+01
1600485571.43	-4.70865905e-01	-6.20511092e+01	-4.03514726e+01	1.43303228e+02	-4.06167677e+01	1.41975041e+02	-5.62809813e+00	-7.47452186e+01
1600771142.86	-4.67478428e-01	-6.20969733e+01	-4.02484028e+01	1.43333892e+02	-4.06269841e+01	1.41612868e+02	-5.63309741e+00	-7.47670015e+01
1601056714.29	-4.71992213e-01	-6.21001125e+01	-4.02442245e+01	1.42237290e+02	-4.06026151e+01	1.41103711e+02	-5.63871343e+00	-7.47271716e+01
1601342285.71	-4.71522010e-01	-6.21200816e+01	-4.01596273e+01	1.42250984e+02	-4.05937655e+01	1.40623166e+02	-5.64754679e+00	-7.47389450e+01
1601627857.14	-4.73778677e-01	-6.21418618e+01	-4.01536952e+01	1.41189733e+02	-4.06234470e+01	1.40472721e+02	-5.65687026e+00	-7.47301195e+01
1601913428.57	-4.74643840e-01	-6.21372707e+01	-4.02164386e+01	1.40996899e+02	-4.05766106e+01	1.39995253e+02	-5.66435225e+00	-7.47979640e+01
1602199000	-4.76315822e-01	-6.21338504e+01	-4.02014164e+01	1.40156344e+02	-4.05060936e+01	1.39384830e+02	-5.66494951e+00	-7.48343733e+01
1602484571.43	-4.81827383e-01	-6.21904595e+01	-4.01820607e+01	1.39518571e+02	-4.05484622e+01	1.39103825e+02	-5.67838582e+00	-7.48498489e+01
1602770142.86	-4.82607590e-01	-6.22115455e+01	-4.00894328e+01	1.38942907e+02	-4.05144019e+01	1.38090370e+02	-5.67990580e+00	-7.48944830e+01
1603055714.29	-4.79178500e-01	-6.23024976e+01	-4.02524716e+01	1.38020086e+02	-4.05044783e+01	1.37827768e+02	-5.67613308e+00	-7.49452400e+01
1603341285.71	-4.76039801e-01	-6.22986156e+01	-4.01574583e+01	1.37420361e+02	-4.05186454e+01	1.37028515e+02	-5.67808732e+00	-7.50200900e+01
1603626857.14	-4.80944934e-01	-6.23586218e+01	-4.01406297e+01	1.36648449e+02	-4.05130821e+01	1.36445721e+02	-5.68662339e+00	-7.51138451e+01
1603912428.57	-4.80887157e-01	-6.23913327e+01	-4.02181182e+01	1.36560933e+02	-4.05103835e+01	1.35938049e+02	-5.69692545e+00	-7.51857942e+01
1604198000	-4.81368661e-01	-6.23934923e+01	-4.02035972e+01	1.35784778e+02	-4.05113310e+01	1.35477963e+02	-5.69836465e+00	-7.53135905e+01
1604483571.43	-4.84490913e-01	-6.24192387e+01	-4.01651159e+01	1.35553888e+02	-4.04656354e+01	1.34780425e+02	-5.70931249e+00	-7.53870853e+01
1604769142.86	-4.83540372e-01	-6.24224247e+01	-4.02197693e+01	1.34537072e+02	-4.04787557e+01	1.34660745e+02	-5.71160859e+00	-7.54972133e+01
1605054714.29	-4.85330197e-01	-6.24268593e+01	-4.02082679e+01	1.34455463e+02	-4.04942255e+01	1.34448660e+02	-5.71904396e+00	-7.55635752e+01
1605340285.71	-4.88698237e-01	-6.24564562e+01	-4.00977684e+01	1.33345043e+02	-4.04709131e+01	1.34243452e+02	-5.72211937e+00	-7.56275669e+01
1605625857.14	-4.85745267e-01	-6.24630718e+01	-4.02301893e+01	1.32739436e+02	-4.05205381e+01	1.33118295e+02	-5.73564201e+00	-7.56519171e+01
1605911428.57	-4.88629224e-01	-6.25210677e+01	-4.02435480e+01	1.32603909e+02	-4.05417363e+01	1.32817012e+02	-5.73391513e+00	-7.56879506e+01
1606197000	-4.87365287e-01	-6.25316070e+01	-4.02911633e+01	1.31976381e+02	-4.04948274e+01	1.32290901e+02	-5.74198781e+00	-7.57945460e+01
1606482571.43	-4.86448266e-01	-6.25531667e+01	-4.02737765e+01	1.31189699e+02	-4.05533152e+01	1.31816615e+02	-5.73593370e+00	-7.58127825e+01
1606768142.86	-4.90620225e-01	-6.25814573e+01	-4.02972471e+01	1.30992807e+02	-4.05206391e+01	1.31724070e+02	-5.74553573e+00	-7.59250625e+01
1607053714.29	-4.90492575e-01	-6.26340298e+01	-4.03649537e+01	1.30123355e+02	-4.04811224e+01	1.31273522e+02	-5.74265094e+00	-7.59940310e+01
1607339285.71	-4.89540355e-01	-6.26717307e+01	-4.03254007e+01	1.30344147e+02	-4.05335726e+01	1.30877387e+02	-5.74107016e+00	-7.59058614e+01
1607624857.14	-4.95761460e-01	-6.27249462e+01	-4.03044180e+01	1.29338925e+02	-4.05121609e+01	1.30561939e+02	-5.75413671e+00	-7.59854305e+01
1607910428.57	-4.93639279e-01	-6.27779292e+01	-4.03526320e+01	1.29325214e+02	-4.04781426e+01	1.29850210e+02	-5.76449829e+00	-7.60513923e+01
1608196000	-4.90071613e-01	-6.28009554e+01	-4.03723371e+01	1.28459800e+02	-4.04709110e+01	1.29375781e+02	-5.76711918e+00	-7.60710033e+01
1608481571.43	-4.89639591e-01	-6.28382706e+01	-4.03718267e+01	1.28334400e+02	-4.04559503e+01	1.29425557e+02	-5.76804261e+00	-7.61647187e+01
1608767142.86	-4.93489939e-01	-6.28697315e+01	-4.03638689e+01	1.27970555e+02	-4.04492425e+01	1.28622895e+02	-5.77037841e+00	-7.61836087e+01
1609052714.29	-4.95267218e-01	-6.28987602e+01	-4.03637359e+01	1.27664887e+02	-4.04222803e+01	1.28168524e+02	-5.78806863e+00	-7.61216268e+01
1609338285.71	-4.96812442e-01	-6.29227930e+01	-4.04322724e+01	1.27016911e+02	-4.04740711e+01	1.28155972e+02	-5.78688402e+00	-7.62102232e+01
1609623857.14	-4.97935129e-01	-6.29179464e+01	-4.03958927e+01	1.26785281e+02	-4.04440619e+01	1.27444403e+02	-5.79885665e+00	-7.61943877e+01
1609909428.57	-4.98015090e-01	-6.29646600e+01	-4.04021887e+01	1.25993489e+02	-4.04147044e+01	1.27021037e+02	-5.80704629e+00	-7.62850034e+01
1610195000	-5.05332484e-01	-6.30230661e+01	-4.02654644e+01	1.26502486e+02	-4.03699480e+01	1.26679553e+02	-5.82082478e+00	-7.63292904e+01
1610480571.43	-5.02788676e-01	-6.30456948e+01	-4.02907713e+01	1.25679323e+02	-4.03378809e+01	1.26267923e+02	-5.82537670e+00	-7.63263835e+01
1610766142.86	-5.02174707e-01	-6.30492975e+01	-4.03487013e+01	1.24876843e+02	-4.03480001e+01	1.26041448e+02	-5.83282045e+00	-7.63352493e+01
1611051714.29	-5.05304943e-01	-6.30944452e+01	-4.03365036e+01	1.24981433e+02	-4.03131208e+01	1.25279790e+02	-5.83455174e+00	-7.64295339e+01
1611337285.71	-5.04995327e-01	-6.31404566e+01	-4.03281431e+01	1.24343943e+02	-4.03042584e+01	1.25109215e+02	-5.84729549e+00	-7.64045412e+01
1611622857.14	-5.03606798e-01	-6.31445685e+01	-4.02551595e+01	1.23770391e+02	-4.02548109e+01	1.24488526e+02	-5.85046210e+00	-7.64256074e+01
1611908428.57	-5.05002248e-01	-6.31965907e+01	-4.03221269e+01	1.23460816e+02	-4.02490604e+01	1.23766149e+02	-5.85074960e+00	-7.65152214e+01
1612194000	-5.08100254e-01	-6.32180454e+01	-4.02574723e+01	1.22853613e+02	-4.01621845e+01	1.23294956e+02	-5.85245899e+00	-7.64881997e+01
1612479571.43	-5.12740548e-01	-6.32507072e+01	-4.02597577e+01	1.22209090e+02	-4.01992987e+01	1.22679336e+02	-5.84859635e+00	-7.65352937e+01
1612765142.86	-5.13855285e-01	-6.33173240e+01	-4.02277280e+01	1.22187330e+02	-4.02034458e+01	1.22345510e+02	-5.85262482e+00	-7.66258500e+01
1613050714.29	-5.09761209e-01	-6.33324161e+01	-4.02840031e+01	1.21222201e+02	-4.01448289e+01	1.21935415e+02	-5.85094216e+00	-7.66796189e+01
1613336285.71	-5.13864269e-01	-6.33526926e+01	-4.02032844e+01	1.20700792e+02	-4.01196045e+01	1.21577167e+02	-5.85388942e+00	-7.66818492e+01
1613621857.14	-5.16666197e-01	-6.34126594e+01	-4.02144715e+01	1.20307301e+02	-4.00792315e+01	1.20897060e+02	-5.84618739e+00	-7.66688528e+01
1613907428.57	-5.18986352e-01	-6.34364626e+01	-4.01781437e+01	1.19586583e+02	-4.01223992e+01	1.20067713e+02	-5.85682752e+00	-7.67076844e+01
1614193000	-5.17213052e-01	-6.34834397e+01	-4.02220061e+01	1.19120478e+02	-4.00742798e+01	1.19525471e+02	-5.86119939e+00	-7.67705511e+01
1614478571.43	-5.19118090e-01	-6.35078175e+01	-4.01373793e+01	1.18835496e+02	-4.01180912e+01	1.19171111e+02	-5.86587294e+00	-7.67868167e+01
1614764142.86	-5.19544755e-01	-6.35272441e+01	-4.01831828e+01	1.18428809e+02	-4.00768166e+01	1.18641389e+02	-5.86886682e+00	-7.68381205e+01
1615049714.29	-5.20306558e-01	-6.35579890e+01	-4.00942841e+01	1.17426372e+02	-4.00658472e+01	1.18013116e+02	-5.86136638e+00	-7.67820663e+01
1615335285.71	-5.18478379e-01	-6.35664370e+01	-4.00674025e+01	1.17565835e+02	-4.00778070e+01	1.17159559e+02	-5.85193289e+00	-7.67882747e+01
1615620857.14	-5.19146869e-01	-6.35865153e+01	-4.00795216e+01	1.16890034e+02	-4.00544867e+01	1.16754563e+02	-5.86077895e+00	-7.68498307e+01
1615906428.57	-5.19942016e-01	-6.36175293e+01	-4.01034338e+01	1.16267985e+02	-4.00616205e+01	1.15957566e+02	-5.86027716e+00	-7.67982575e+01
1616192000	-5.24731171e-01	-6.36436271e+01	-4.01176675e+01	1.15740126e+02	-4.00378668e+01	1.15690027e+02	-5.85610812e+00	-7.68698843e+01
1616477571.43	-5.29191969e-01	-6.36879413e+01	-4.00930615e+01	1.15062684e+02	-4.00406074e+01	1.14976635e+02	-5.85311433e+00	-7.68772250e+01
1616763142.86	-5.32543942e-01	-6.37559207e+01	-4.00161837e+01	1.14826877e+02	-4.00488310e+01	1.14476791e+02	-5.84458275e+00	-7.69014546e+01
1617048714.29	-5.32055806e-01	-6.37878477e+01	-4.00929710e+01	1.14522257e+02	-4.00275000e+01	1.14028754e+02	-5.84900609e+00	-7.69494929e+01
1617334285.71	-5.26249039e-01	-6.37886504e+01	-4.00212238e+01	1.13783611e+02	-4.00448651e+01	1.13191267e+02	-5.85706587e+00	-7.69084586e+01
1617619857.14	-5.22750341e-01	-6.38347794e+01	-4.00356724e+01	1.13161201e+02	-4.00628697e+01	1.12604578e+02	-5.85486581e+00	-7.69508401e+01
1617905428.57	-5.29157530e-01	-6.38652358e+01	-3.99822289e+01	1.12585427e+02	-4.01013760e+01	1.12331852e+02	-5.84003863e+00	-7.69783023e+01
1618191000	-5.26468005e-01	-6.38878793e+01	-4.00069275e+01	1.12340271e+02	-4.00865965e+01	1.11660821e+02	-5.85457137e+00	-7.70319731e+01
1618476571.43	-5.28068159e-01	-6.39099246e+01	-4.00083439e+01	1.11851442e+02	-4.01115426e+01	1.11288570e+02	-5.83806928e+00	-7.70403557e+01
1618762142.86	-5.28993876e-01	-6.39120888e+01	-3.99565148e+01	1.11242230e+02	-4.00742671e+01	1.10709527e+02	-5.84433825e+00	-7.71055653e+01
1619047714.29	-5.34574994e-01	-6.39368265e+01	-4.00250712e+01	1.10646493e+02	-4.01015360e+01	1.10294072e+02	-5.84618770e+00	-7.70560010e+01
1619333285.71	-5.28350851e-01	-6.39675187e+01	-4.00097746e+01	1.10001550e+02	-4.01158361e+01	1.09799629e+02	-5.85249628e+00	-7.71454618e+01
1619618857.14	-5.29667374e-01	-6.39794738e+01	-3.99854819e+01	1.09874473e+02	-4.00941451e+01	1.09185236e+02	-5.85868286e+00	-7.71195350e+01
1619904428.57	-5.32605955e-01	-6.39573649e+01	-4.00833111e+01	1.09422694e+02	-4.01394545e+01	1.08971841e+02	-5.85116351e+00	-7.71880561e+01
1620190000	-5.32217139e-01	-6.40021413e+01	-3.99841888e+01	1.09075665e+02	-4.01027702e+01	1.08346368e+02	-5.85013119e+00	-7.72197570e+01
1620475571.43	-5.29913003e-01	-6.40292742e+01	-4.00465032e+01	1.08143815e+02	-4.00906713e+01	1.08085362e+02	-5.85290658e+00	-7.72009425e+01
1620761142.86	-5.30208461e-01	-6.40732496e+01	-3.99812890e+01	1.08235186e+02	-4.01121046e+01	1.07275554e+02	-5.84497115e+00	-7.72497220e+01
1621046714.29	-5.29043891e-01	-6.40917995e+01	-4.00172218e+01	1.07046082e+02	-4.01223597e+01	1.07230476e+02	-5.84758488e+00	-7.72906275e+01
1621332285.71	-5.28532647e-01	-6.41104225e+01	-3.99763489e+01	1.06945680e+02	-4.00876457e+01	1.06596949e+02	-5.85354329e+00	-7.73811316e+01
1621617857.14	-5.31968920e-01	-6.41256848e+01	-4.00582476e+01	1.06113506e+02	-4.01371458e+01	1.06404838e+02	-5.84992794e+00	-7.74533790e+01
1621903428.57	-5.41253109e-01	-6.41106115e+01	-3.99955282e+01	1.05574959e+02	-4.01157203e+01	1.05807069e+02	-5.85627771e+00	-7.74724830e+01
1622189000	-5.41426904e-01	-6.41345867e+01	-3.99822986e+01	1.05630299e+02	-4.01035876e+01	1.05125184e+02	-5.84958550e+00	-7.75225216e+01
1622474571.43	-5.44438845e-01	-6.42102263e+01	-3.99994280e+01	1.04713810e+02	-4.00910293e+01	1.04761827e+02	-5.84727737e+00	-7.74909398e+01
1622760142.86	-5.38950266e-01	-6.42259003e+01	-3.98871038e+01	1.04269895e+02	-4.00865403e+01	1.04353700e+02	-5.84575314e+00	-7.75779420e+01
1623045714.29	-5.41133765e-01	-6.42165519e+01	-3.99087428e+01	1.04177065e+02	-4.01002085e+01	1.03749117e+02	-5.84065684e+00	-7.75891081e+01
1623331285.71	-5.33891857e-01	-6.42629659e+01	-3.99079073e+01	1.03599014e+02	-4.00412727e+01	1.03138207e+02	-5.83849027e+00	-7.76011679e+01
1623616857.14	-5.36242396e-01	-6.42676111e+01	-3.98465740e+01	1.02851919e+02	-4.00487210e+01	1.02754314e+02	-5.83880684e+00	-7.76729516e+01
1623902428.57	-5.36120463e-01	-6.42978069e+01	-3.98730545e+01	1.02377206e+02	-4.00330256e+01	1.02631406e+02	-5.84794905e+00	-7.76416010e+01
1624188000	-5.33755710e-01	-6.43147977e+01	-3.98874801e+01	1.01699369e+02	-4.00238386e+01	1.01813937e+02	-5.84656652e+00	-7.75913909e+01
1624473571.43	-5.34287872e-01	-6.43518501e+01	-3.98316671e+01	1.01457350e+02	-4.00099103e+01	1.01706289e+02	-5.84531227e+00	-7.76213501e+01
1624759142.86	-5.36410883e-01	-6.43633486e+01	-3.98563902e+01	1.00996559e+02	-4.00433178e+01	1.01073655e+02	-5.84110327e+00	-7.76083012e+01
1625044714.29	-5.36723675e-01	-6.43730139e+01	-3.97984978e+01	1.00228753e+02	-4.00366905e+01	1.00273815e+02	-5.83328148e+00	-7.75761724e+01
1625330285.71	-5.39516171e-01	-6.43739618e+01	-3.98418552e+01	1.00033833e+02	-4.00117837e+01	9.99458671e+01	-5.83212916e+00	-7.75969476e+01
1625615857.14	-5.37498639e-01	-6.43848412e+01	-3.98514442e+01	9.93261641e+01	-3.99964562e+01	9.92307116e+01	-5.84409836e+00	-7.75697057e+01
1625901428.57	-5.36382632e-01	-6.44317922e+01	-3.98660689e+01	9.85505710e+01	-4.00215028e+01	9.89026949e+01	-5.83824848e+00	-7.75861553e+01
1626187000	-5.35964023e-01	-6.44401621e+01	-3.98910727e+01	9.83905835e+01	-3.99792878e+01	9.84518767e+01	-5.84868718e+00	-7.75902546e+01
1626472571.43	-5.32122006e-01	-6.44658858e+01	-3.98660540e+01	9.79410587e+01	-3.99556058e+01	9.81706203e+01	-5.83449363e+00	-7.75750369e+01
1626758142.86	-5.36151862e-01	-6.44648623e+01	-3.98627677e+01	9.71417212e+01	-4.00187531e+01	9.76852114e+01	-5.83911670e+00	-7.75853066e+01
1627043714.29	-5.38412854e-01	-6.44637445e+01	-3.98403930e+01	9.70092370e+01	-3.99960195e+01	9.70297283e+01	-5.83376352e+00	-7.76585214e+01
1627329285.71	-5.35763543e-01	-6.44924008e+01	-3.97808258e+01	9.63801257e+01	-3.99840653e+01	9.65196749e+01	-5.83292561e+00	-7.76483063e+01
1627614857.14	-5.36134126e-01	-6.45109639e+01	-3.98853410e+01	9.57341583e+01	-3.99784107e+01	9.59654947e+01	-5.84255085e+00	-7.77111230e+01
1627900428.57	-5.35806616e-01	-6.45487208e+01	-3.98069620e+01	9.53607754e+01	-3.99775187e+01	9.52801900e+01	-5.84238771e+00	-7.77417983e+01
1628186000	-5.39547135e-01	-6.45907303e+01	-3.98122950e+01	9.46067197e+01	-3.99584090e+01	9.49472509e+01	-5.85151141e+00	-7.77213559e+01
1628471571.43	-5.40629711e-01	-6.45956290e+01	-3.98015397e+01	9.40998706e+01	-3.99960014e+01	9.42933958e+01	-5.84912418e+00	-7.78124665e+01
1628757142.86	-5.38691529e-01	-6.45939477e+01	-3.97859460e+01	9.37771687e+01	-3.99671583e+01	9.36033254e+01	-5.84054506e+00	-7.78707728e+01
1629042714.29	-5.38072086e-01	-6.45908612e+01	-3.97779521e+01	9.27870185e+01	-3.99504612e+01	9.34395046e+01	-5.83538830e+00	-7.79215026e+01
1629328285.71	-5.39325860e-01	-6.46182524e+01	-3.97971416e+01	9.26524548e+01	-3.99504963e+01	9.28739229e+01	-5.83083527e+00	-7.79749283e+01
1629613857.14	-5.42842032e-01	-6.46317535e+01	-3.98071959e+01	9.24502595e+01	-3.99256607e+01	9.25363496e+01	-5.83375437e+00	-7.80456155e+01
1629899428.57	-5.39956154e-01	-6.46275418e+01	-3.97999957e+01	9.16512099e+01	-3.99654267e+01	9.20204248e+01	-5.83796944e+00	-7.80498503e+01
1630185000	-5.34270172e-01	-6.46591281e+01	-3.97724866e+01	9.11568300e+01	-3.99177979e+01	9.16031173e+01	-5.83766345e+00	-7.81328980e+01
1630470571.43	-5.33976273e-01	-6.46813745e+01	-3.98414701e+01	9.05270099e+01	-3.98800056e+01	9.09448479e+01	-5.83264004e+00	-7.81769402e+01
1630756142.86	-5.41654106e-01	-6.46825026e+01	-3.98002984e+01	9.01911777e+01	-3.99163880e+01	9.06716041e+01	-5.83148237e+00	-7.82658037e+01
1631041714.29	-5.44590794e-01	-6.46730174e+01	-3.97785643e+01	8.97945986e+01	-3.99001004e+01	8.99594463e+01	-5.82753086e+00	-7.83062518e+01
1631327285.71	-5.43510797e-01	-6.47090974e+01	-3.97327157e+01	8.90733484e+01	-3.99250914e+01	8.92552116e+01	-5.82715050e+00	-7.83350906e+01
1631612857.14	-5.42296072e-01	-6.47233506e+01	-3.97578374e+01	8.84901620e+01	-3.99008380e+01	8.89655589e+01	-5.81674655e+00	-7.83979483e+01
1631898428.57	-5.44864925e-01	-6.47178885e+01	-3.97184959e+01	8.79137960e+01	-3.98754019e+01	8.79676477e+01	-5.82262850e+00	-7.84175470e+01
1632184000	-5.45540634e-01	-6.47359870e+01	-3.97601852e+01	8.74292617e+01	-3.98769329e+01	8.76426314e+01	-5.80601785e+00	-7.84875312e+01
1632469571.43	-5.44539397e-01	-6.47390795e+01	-3.96938982e+01	8.67700253e+01	-3.98281477e+01	8.73080076e+01	-5.80799734e+00	-7.85169511e+01
1632755142.86	-5.41143643e-01	-6.47399469e+01	-3.97896686e+01	8.66132659e+01	-3.98563716e+01	8.63098945e+01	-5.79653119e+00	-7.85580506e+01
1633040714.29	-5.43322741e-01	-6.47415775e+01	-3.97363011e+01	8.53881287e+01	-3.98479531e+01	8.57431317e+01	-5.80656689e+00	-7.86107509e+01
1633326285.71	-5.47650589e-01	-6.47633267e+01	-3.97779131e+01	8.52322279e+01	-3.98508624e+01	8.53821546e+01	-5.79869035e+00	-7.87115114e+01
1633611857.14	-5.47932523e-01	-6.47759225e+01	-3.97880542e+01	8.43184987e+01	-3.99269160e+01	8.49793117e+01	-5.80126557e+00	-7.88329698e+01
1633897428.57	-5.47537776e-01	-6.47560252e+01	-3.97416276e+01	8.38485111e+01	-3.98767801e+01	8.41610563e+01	-5.79278136e+00	-7.88588773e+01
1634183000	-5.49190873e-01	-6.47465200e+01	-3.97248008e+01	8.36617767e+01	-3.99022347e+01	8.34671176e+01	-5.79704313e+00	-7.90023334e+01
1634468571.43	-5.49689659e-01	-6.47817694e+01	-3.97084325e+01	8.29398971e+01	-3.99543923e+01	8.31224291e+01	-5.79590904e+00	-7.90605551e+01
1634754142.86	-5.49833430e-01	-6.47935103e+01	-3.97273713e+01	8.27680477e+01	-3.99103650e+01	8.24945469e+01	-5.79771684e+00	-7.91484423e+01
1635039714.29	-5.49049816e-01	-6.47744098e+01	-3.96889344e+01	8.18347017e+01	-3.99009598e+01	8.20347867e+01	-5.78505577e+00	-7.91905271e+01
1635325285.71	-5.47834477e-01	-6.47795247e+01	-3.96836884e+01	8.13826867e+01	-3.99137863e+01	8.17406944e+01	-5.77748898e+00	-7.92764188e+01
1635610857.14	-5.47901638e-01	-6.47761463e+01	-3.97666938e+01	8.11373713e+01	-3.99525102e+01	8.12960068e+01	-5.77885685e+00	-7.93786365e+01
1635896428.57	-5.48527478e-01	-6.47943646e+01	-3.97195902e+01	8.06156279e+01	-3.99707763e+01	8.03402192e+01	-5.77878226e+00	-7.94354708e+01
1636182000	-5.52818426e-01	-6.48240324e+01	-3.97543103e+01	8.01148793e+01	-4.00053512e+01	8.00492721e+01	-5.77348156e+00	-7.95071325e+01
1636467571.43	-5.51760389e-01	-6.48282763e+01	-3.98060115e+01	7.91940994e+01	-3.99995974e+01	7.94186998e+01	-5.76556643e+00	-7.96420651e+01
1636753142.86	-5.52879120e-01	-6.48102729e+01	-3.97327938e+01	7.88166803e+01	-3.99876120e+01	7.87273554e+01	-5.77306814e+00	-7.96437381e+01
1637038714.29	-5.52398208e-01	-6.48331278e+01	-3.97293402e+01	7.85198769e+01	-4.00226792e+01	7.89168660e+01	-5.76766323e+00	-7.98109769e+01
1637324285.71	-5.51653831e-01	-6.48287392e+01	-3.98817864e+01	7.78297954e+01	-4.00689841e+01	7.82377421e+01	-5.75669591e+00	-7.98958659e+01
1637609857.14	-5.52471278e-01	-6.48472277e+01	-3.98048270e+01	7.70106940e+01	-4.00385539e+01	7.73795139e+01	-5.76762555e+00	-7.99937714e+01
1637895428.57	-5.55377172e-01	-6.48560690e+01	-3.97962057e+01	7.66635062e+01	-4.00179752e+01	7.71158999e+01	-5.77038382e+00	-8.01094315e+01
1638181000	-5.57236995e-01	-6.48798786e+01	-3.98577819e+01	7.65518924e+01	-4.00192551e+01	7.66730998e+01	-5.77031388e+00	-8.01426921e+01
1638466571.43	-5.60048708e-01	-6.48531878e+01	-3.97965012e+01	7.58559269e+01	-4.01124356e+01	7.62436588e+01	-5.76526643e+00	-8.02548552e+01
1638752142.86	-5.64075068e-01	-6.48559420e+01	-3.98437173e+01	7.55860882e+01	-4.01487874e+01	7.58736548e+01	-5.77130800e+00	-8.03237020e+01
1639037714.29	-5.62655010e-01	-6.48584093e+01	-3.97742490e+01	7.48847430e+01	-4.00240351e+01	7.54551730e+01	-5.77443178e+00	-8.04892601e+01
1639323285.71	-5.65300874e-01	-6.48578431e+01	-3.99031006e+01	7.44064453e+01	-4.01000770e+01	7.47957852e+01	-5.76448385e+00	-8.06210303e+01
1639608857.14	-5.63204908e-01	-6.48697891e+01	-3.98061667e+01	7.43675442e+01	-4.00748557e+01	7.47333588e+01	-5.77132252e+00	-8.06585529e+01
1639894428.57	-5.60809526e-01	-6.48592453e+01	-3.97950048e+01	7.34174070e+01	-4.00627100e+01	7.43312194e+01	-5.76962614e+00	-8.08175162e+01
1640180000	-5.61383360e-01	-6.48622594e+01	-3.98633198e+01	7.29510998e+01	-4.00649564e+01	7.39225729e+01	-5.77373959e+00	-8.08895548e+01
1640465571.43	-5.57230040e-01	-6.48744911e+01	-3.98114129e+01	7.24132553e+01	-4.01057877e+01	7.33719514e+01	-5.76856830e+00	-8.09480541e+01
1640751142.86	-5.60451426e-01	-6.48796175e+01	-3.98412798e+01	7.23830916e+01	-4.01042830e+01	7.28751492e+01	-5.77358735e+00	-8.10067095e+01
1641036714.29	-5.58860901e-01	-6.48607249e+01	-3.97920860e+01	7.19713143e+01	-4.00781520e+01	7.25873442e+01	-5.77412716e+00	-8.11094202e+01
1641322285.71	-5.62568543e-01	-6.48608255e+01	-3.97701134e+01	7.14769207e+01	-4.01634995e+01	7.22576589e+01	-5.78246564e+00	-8.11700733e+01
1641607857.14	-5.61839185e-01	-6.48725795e+01	-3.97261670e+01	7.11550137e+01	-4.01265520e+01	7.15736557e+01	-5.77646205e+00	-8.12733889e+01
1641893428.57	-5.62617011e-01	-6.48669139e+01	-3.97621472e+01	7.07659604e+01	-4.01196957e+01	7.07633259e+01	-5.78206895e+00	-8.13317594e+01
1642179000	-5.65118446e-01	-6.48747773e+01	-3.97430063e+01	6.98391952e+01	-4.01363896e+01	7.06082254e+01	-5.78139313e+00	-8.14570649e+01
1642464571.43	-5.66989985e-01	-6.48650072e+01	-3.97710286e+01	6.92781024e+01	-4.01398900e+01	6.98978913e+01	-5.77246708e+00	-8.15109912e+01
1642750142.86	-5.66490769e-01	-6.48430259e+01	-3.97511387e+01	6.89151409e+01	-4.00910514e+01	6.95866134e+01	-5.77249521e+00	-8.15892282e+01
1643035714.29	-5.67495650e-01	-6.48421078e+01	-3.97931957e+01	6.83117916e+01	-4.00524500e+01	6.92758830e+01	-5.77348612e+00	-8.16747356e+01
1643321285.71	-5.66390791e-01	-6.48283055e+01	-3.96869801e+01	6.77858755e+01	-4.00822082e+01	6.84767912e+01	-5.76588442e+00	-8.18019323e+01
1643606857.14	-5.65991558e-01	-6.48316295e+01	-3.97010581e+01	6.69882809e+01	-4.00698200e+01	6.82738998e+01	-5.76340336e+00	-8.18730347e+01
1643892428.57	-5.66548897e-01	-6.47994481e+01	-3.97025168e+01	6.64820530e+01	-4.00788420e+01	6.78438308e+01	-5.76963689e+00	-8.19440707e+01
1644178000	-5.68621392e-01	-6.48119812e+01	-3.96867606e+01	6.60673093e+01	-4.01021116e+01	6.70874537e+01	-5.76197076e+00	-8.20220977e+01
1644463571.43	-5.68196601e-01	-6.48091601e+01	-3.97364597e+01	6.57889025e+01	-4.00789865e+01	6.65698149e+01	-5.75480630e+00	-8.21407190e+01
1644749142.86	-5.72352689e-01	-6.48014636e+01	-3.96618085e+01	6.48762945e+01	-4.01241311e+01	6.58887345e+01	-5.74999211e+00	-8.22008180e+01
1645034714.29	-5.71623452e-01	-6.47879532e+01	-3.97646295e+01	6.42028448e+01	-4.00639879e+01	6.54783929e+01	-5.74559786e+00	-8.23101905e+01
1645320285.71	-5.75562417e-01	-6.47996709e+01	-3.97319454e+01	6.36525804e+01	-4.01873808e+01	6.49869128e+01	-5.73891640e+00	-8.24058954e+01
1645605857.14	-5.76983533e-01	-6.48375071e+01	-3.97101998e+01	6.31296969e+01	-4.01395687e+01	6.46177566e+01	-5.73683957e+00	-8.24663727e+01
1645891428.57	-5.73740293e-01	-6.48780213e+01	-3.96934392e+01	6.25984934e+01	-4.01810859e+01	6.36561915e+01	-5.72609319e+00	-8.25333632e+01
1646177000	-5.75685252e-01	-6.48565110e+01	-3.97127721e+01	6.21168800e+01	-4.01773857e+01	6.36488517e+01	-5.71709134e+00	-8.26641247e+01
1646462571.43	-5.73552095e-01	-6.47960191e+01	-3.97428435e+01	6.17824156e+01	-4.02683019e+01	6.28529010e+01	-5.71831328e+00	-8.27743485e+01
1646748142.86	-5.75838757e-01	-6.48344309e+01	-3.97490075e+01	6.15814090e+01	-4.02707673e+01	6.28963335e+01	-5.71113983e+00	-8.28427624e+01
1647033714.29	-5.69035521e-01	-6.48360250e+01	-3.96887006e+01	6.03627060e+01	-4.02527896e+01	6.26326265e+01	-5.71157684e+00	-8.29719652e+01
1647319285.71	-5.73149042e-01	-6.48397748e+01	-3.97801577e+01	6.03034068e+01	-4.02553867e+01	6.19603649e+01	-5.70551204e+00	-8.30786621e+01
1647604857.14	-5.72442664e-01	-6.48283949e+01	-3.97727559e+01	6.00495084e+01	-4.02565389e+01	6.16118734e+01	-5.70470047e+00	-8.31519864e+01
1647890428.57	-5.74771576e-01	-6.48236699e+01	-3.97477548e+01	5.96308647e+01	-4.02442904e+01	6.11911680e+01	-5.70281185e+00	-8.33630737e+01
1648176000	-5.78763958e-01	-6.48161320e+01	-3.98079787e+01	5.88960651e+01	-4.02680269e+01	6.09392629e+01	-5.69800895e+00	-8.34556633e+01
1648461571.43	-5.76624819e-01	-6.48269259e+01	-3.98042213e+01	5.87671183e+01	-4.02972101e+01	6.10100683e+01	-5.69753010e+00	-8.36075220e+01
1648747142.86	-5.80240857e-01	-6.48457144e+01	-3.98344756e+01	5.83923719e+01	-4.02656954e+01	6.05018767e+01	-5.69001661e+00	-8.36852451e+01
1649032714.29	-5.74344139e-01	-6.48226736e+01	-3.98326439e+01	5.76993738e+01	-4.03152241e+01	6.01593423e+01	-5.70214216e+00	-8.37326304e+01
1649318285.71	-5.77075614e-01	-6.48469012e+01	-3.97922014e+01	5.73057393e+01	-4.02689047e+01	5.97173809e+01	-5.69313970e+00	-8.38797365e+01
1649603857.14	-5.77014259e-01	-6.48815380e+01	-3.98283828e+01	5.69328942e+01	-4.02249948e+01	5.94942159e+01	-5.69107553e+00	-8.40424343e+01
1649889428.57	-5.77101820e-01	-6.48293258e+01	-3.98332281e+01	5.65670063e+01	-4.02322616e+01	5.89915981e+01	-5.69453261e+00	-8.41418172e+01
1650175000	-5.80649666e-01	-6.48083275e+01	-3.97883574e+01	5.61909787e+01	-4.02184002e+01	5.89998338e+01	-5.68668647e+00	-8.42795247e+01
1650460571.43	-5.81908197e-01	-6.48301723e+01	-3.97816361e+01	5.59287314e+01	-4.01989095e+01	5.84871385e+01	-5.69079372e+00	-8.43621333e+01
1650746142.86	-5.87612209e-01	-6.48123925e+01	-3.97811337e+01	5.55477699e+01	-4.02268919e+01	5.85372916e+01	-5.68671811e+00	-8.44867908e+01
1651031714.29	-5.87491330e-01	-6.48528743e+01	-3.97858404e+01	5.54218325e+01	-4.01359648e+01	5.78635989e+01	-5.68575583e+00	-8.46338355e+01
1651317285.71	-5.91092310e-01	-6.48336388e+01	-3.98165221e+01	5.46011113e+01	-4.01193995e+01	5.74440259e+01	-5.69716361e+00	-8.47897090e+01
1651602857.14	-5.90073659e-01	-6.48516500e+01	-3.98452816e+01	5.41556622e+01	-4.01495583e+01	5.71581336e+01	-5.69866615e+00	-8.49268838e+01
1651888428.57	-5.90629524e-01	-6.48794476e+01	-3.97922313e+01	5.40213372e+01	-4.01199969e+01	5.67604443e+01	-5.69117215e+00	-8.50095346e+01
1652174000	-5.90302395e-01	-6.48640774e+01	-3.97589812e+01	5.34171226e+01	-4.01218348e+01	5.62444143e+01	-5.68731538e+00	-8.51049512e+01
1652459571.43	-5.92234861e-01	-6.48608176e+01	-3.97590095e+01	5.30910212e+01	-4.00713520e+01	5.58735496e+01	-5.68418334e+00	-8.52404048e+01
1652745142.86	-5.93030396e-01	-6.48699205e+01	-3.97482674e+01	5.27531090e+01	-4.00235742e+01	5.55036191e+01	-5.68880256e+00	-8.53612607e+01
1653030714.29	-5.96613170e-01	-6.48474614e+01	-3.97535136e+01	5.24411160e+01	-4.00726230e+01	5.51845954e+01	-5.69467429e+00	-8.54555664e+01
1653316285.71	-5.92827665e-01	-6.48136885e+01	-3.97213901e+01	5.20212749e+01	-3.99725330e+01	5.46150378e+01	-5.69329182e+00	-8.55368807e+01
1653601857.14	-5.94948834e-01	-6.48507049e+01	-3.97095824e+01	5.14003375e+01	-4.00005109e+01	5.42631720e+01	-5.69958910e+00	-8.56900816e+01
1653887428.57	-5.95102912e-01	-6.48826899e+01	-3.97328448e+01	5.09834181e+01	-4.00101689e+01	5.35949002e+01	-5.69752053e+00	-8.58060693e+01
1654173000	-6.00802265e-01	-6.48721575e+01	-3.97022787e+01	5.05770447e+01	-3.99394155e+01	5.33913844e+01	-5.68168061e+00	-8.59133017e+01
1654458571.43	-5.96890586e-01	-6.48881524e+01	-3.96740914e+01	5.01136466e+01	-3.99066258e+01	5.28039781e+01	-5.68772591e+00	-8.60361210e+01
1654744142.86	-5.94695778e-01	-6.48704045e+01	-3.97340490e+01	4.99311720e+01	-3.99071694e+01	5.21856154e+01	-5.68881799e+00	-8.61909192e+01
1655029714.29	-6.01469245e-01	-6.48609468e+01	-3.96452262e+01	4.92090933e+01	-3.98388616e+01	5.21470905e+01	-5.68056638e+00	-8.62364781e+01
1655315285.71	-6.01512201e-01	-6.48807748e+01	-3.96376672e+01	4.90206914e+01	-3.98389171e+01	5.13913423e+01	-5.67906855e+00	-8.63205228e+01
1655600857.14	-6.04351774e-01	-6.48684800e+01	-3.96124648e+01	4.85850203e+01	-3.98279418e+01	5.13901649e+01	-5.68857361e+00	-8.63949300e+01
1655886428.57	-5.99710432e-01	-6.48147244e+01	-3.96405249e+01	4.74645950e+01	-3.98226885e+01	5.04183557e+01	-5.68749817e+00	-8.64883791e+01
1656172000	-6.06038586e-01	-6.48520673e+01	-3.96164406e+01	4.76716918e+01	-3.97640261e+01	5.03273260e+01	-5.68872442e+00	-8.65442704e+01
1656457571.43	-6.09717441e-01	-6.48896086e+01	-3.95660272e+01	4.71398791e+01	-3.98133683e+01	4.98269651e+01	-5.69044122e+00	-8.66717250e+01
1656743142.86	-6.10175316e-01	-6.48987297e+01	-3.95630372e+01	4.64077283e+01	-3.97533071e+01	4.91688486e+01	-5.69446486e+00	-8.66781562e+01
1657028714.29	-6.10988947e-01	-6.49292370e+01	-3.95012586e+01	4.61057114e+01	-3.97402479e+01	4.86626522e+01	-5.69448976e+00	-8.67571556e+01
1657314285.71	-6.17895760e-01	-6.49043037e+01	-3.94790956e+01	4.56335466e+01	-3.97644536e+01	4.83547196e+01	-5.68022690e+00	-8.68598841e+01
1657599857.14	-6.16894276e-01	-6.49171001e+01	-3.94892005e+01	4.49134028e+01	-3.97248132e+01	4.76460896e+01	-5.69289864e+00	-8.69625327e+01
1657885428.57	-6.16193040e-01	-6.48871839e+01	-3.95252238e+01	4.47837221e+01	-3.97571526e+01	4.72029958e+01	-5.69480187e+00	-8.69887701e+01
1658171000	-6.17336457e-01	-6.49074032e+01	-3.94600799e+01	4.36411457e+01	-3.96988342e+01	4.63302318e+01	-5.68936977e+00	-8.71044871e+01
1658456571.43	-6.19607769e-01	-6.48843785e+01	-3.95109298e+01	4.37642016e+01	-3.96739173e+01	4.63376211e+01	-5.69639148e+00	-8.70982642e+01
1658742142.86	-6.17077900e-01	-6.49092152e+01	-3.94949720e+01	4.28958591e+01	-3.96658612e+01	4.55441453e+01	-5.69819433e+00	-8.71715316e+01
1659027714.29	-6.21398813e-01	-6.49061819e+01	-3.94934649e+01	4.22940636e+01	-3.96625262e+01	4.53719087e+01	-5.70429667e+00	-8.72240705e+01
1659313285.71	-6.20511644e-01	-6.48737442e+01	-3.95556031e+01	4.20560486e+01	-3.96547725e+01	4.45996372e+01	-5.69806983e+00	-8.72548692e+01
1659598857.14	-6.19287109e-01	-6.49340302e+01	-3.94285012e+01	4.16337588e+01	-3.96817718e+01	4.40077323e+01	-5.70792735e+00	-8.73886059e+01
1659884428.57	-6.14650753e-01	-6.49543864e+01	-3.94753622e+01	4.10593611e+01	-3.96485639e+01	4.35916756e+01	-5.71090517e+00	-8.74961139e+01
1660170000	-6.21946083e-01	-6.49576159e+01	-3.95099197e+01	4.08261181e+01	-3.96316938e+01	4.33417145e+01	-5.70288229e+00	-8.75730255e+01
1660455571.43	-6.29186427e-01	-6.49943771e+01	-3.94724503e+01	4.00046028e+01	-3.96895224e+01	4.27389895e+01	-5.68913910e+00	-8.77440043e+01
1660741142.86	-6.26197210e-01	-6.49803025e+01	-3.95006105e+01	3.93934443e+01	-3.97467888e+01	4.25126770e+01	-5.69859552e+00	-8.77984563e+01
1661026714.29	-6.31021804e-01	-6.49855577e+01	-3.94964064e+01	3.90149851e+01	-3.96968873e+01	4.18111112e+01	-5.69582384e+00	-8.79043059e+01
1661312285.71	-6.32152106e-01	-6.50061951e+01	-3.95066214e+01	3.92974401e+01	-3.97072465e+01	4.19198961e+01	-5.70453490e+00	-8.80177473e+01
1661597857.14	-6.36065765e-01	-6.50352716e+01	-3.95419555e+01	3.84875156e+01	-3.97215443e+01	4.14473257e+01	-5.70437011e+00	-8.81075923e+01
1661883428.57	-6.33844253e-01	-6.50134099e+01	-3.94902431e+01	3.86322848e+01	-3.96565022e+01	4.10252666e+01	-5.69557143e+00	-8.82670469e+01
1662169000	-6.36790439e-01	-6.50029053e+01	-3.94580549e+01	3.81124262e+01	-3.96482164e+01	4.07890940e+01	-5.70740695e+00	-8.83357871e+01
1662454571.43	-6.35752024e-01	-6.49886138e+01	-3.94971215e+01	3.73979879e+01	-3.96894914e+01	4.03014983e+01	-5.70518766e+00	-8.84315453e+01
1662740142.86	-6.39795347e-01	-6.50000448e+01	-3.94892992e+01	3.69449675e+01	-3.96216754e+01	4.01458985e+01	-5.71766442e+00	-8.85851646e+01
1663025714.29	-6.44332507e-01	-6.50427439e+01	-3.94473700e+01	3.69077161e+01	-3.96378799e+01	3.99402116e+01	-5.72120187e+00	-8.86716485e+01
1663311285.71	-6.40623509e-01	-6.50110397e+01	-3.93531970e+01	3.63868643e+01	-3.95771965e+01	3.96943400e+01	-5.72118095e+00	-8.88459697e+01
1663596857.14	-6.37126365e-01	-6.50582793e+01	-3.93517373e+01	3.61284545e+01	-3.95428409e+01	3.91204411e+01	-5.71224430e+00	-8.89793274e+01
1663882428.57	-6.42850145e-01	-6.50187609e+01	-3.94014083e+01	3.57072401e+01	-3.95462722e+01	3.90424012e+01	-5.71701625e+00	-8.91585984e+01
1664168000	-6.46791527e-01	-6.50496303e+01	-3.94350806e+01	3.54453396e+01	-3.95086485e+01	3.86320375e+01	-5.71578929e+00	-8.90999191e+01
1664453571.43	-6.52186429e-01	-6.50705773e+01	-3.92858397e+01	3.52562203e+01	-3.94729976e+01	3.81845140e+01	-5.71771615e+00	-8.92141876e+01
1664739142.86	-6.54452750e-01	-6.50904914e+01	-3.92604111e+01	3.49243067e+01	-3.94304157e+01	3.77858986e+01	-5.71929839e+00	-8.92803313e+01
1665024714.29	-6.56685469e-01	-6.50846032e+01	-3.92841036e+01	3.42298062e+01	-3.94128630e+01	3.72205684e+01	-5.72791295e+00	-8.93556598e+01
1665310285.71	-6.51414991e-01	-6.51185613e+01	-3.92351942e+01	3.38489000e+01	-3.93748841e+01	3.70661595e+01	-5.72208235e+00	-8.94169974e+01
1665595857.14	-6.50222022e-01	-6.51504542e+01	-3.92209866e+01	3.34193853e+01	-3.93490802e+01	3.64964586e+01	-5.72266995e+00	-8.95256077e+01
1665881428.57	-6.57284291e-01	-6.51475858e+01	-3.91911363e+01	3.29828405e+01	-3.93417572e+01	3.60026526e+01	-5.73143492e+00	-8.95943259e+01
1666167000	-6.52501171e-01	-6.51830082e+01	-3.91237318e+01	3.23872676e+01	-3.92995194e+01	3.57058529e+01	-5.74446905e+00	-8.96521568e+01
1666452571.43	-6.58181323e-01	-6.52108766e+01	-3.91203443e+01	3.17966867e+01	-3.92248786e+01	3.49959474e+01	-5.74248370e+00	-8.97223194e+01
1666738142.86	-6.62591848e-01	-6.52176374e+01	-3.90955170e+01	3.12514314e+01	-3.92203343e+01	3.46675782e+01	-5.73842256e+00	-8.98332215e+01
1667023714.29	-6.62997975e-01	-6.52312312e+01	-3.90424831e+01	3.11087493e+01	-3.92035806e+01	3.42344524e+01	-5.74617210e+00	-8.99405115e+01
1667309285.71	-6.66330573e-01	-6.52249733e+01	-3.90315445e+01	3.06566818e+01	-3.92318568e+01	3.38748393e+01	-5.74534499e+00	-9.00348729e+01
1667594857.14	-6.70074489e-01	-6.52267704e+01	-3.90525744e+01	2.97657379e+01	-3.92014840e+01	3.33497799e+01	-5.75252142e+00	-9.01390632e+01
1667880428.57	-6.70149244e-01	-6.52214541e+01	-3.90214481e+01	2.95534184e+01	-3.91701386e+01	3.26390844e+01	-5.76395433e+00	-9.01464719e+01
1668166000	-6.65246936e-01	-6.52543226e+01	-3.89605524e+01	2.87443377e+01	-3.91257960e+01	3.24392599e+01	-5.75630883e+00	-9.02458058e+01
1668451571.43	-6.73058588e-01	-6.52474952e+01	-3.88920942e+01	2.87101423e+01	-3.91283866e+01	3.21175165e+01	-5.77280118e+00	-9.03451396e+01
1668737142.86	-6.67638753e-01	-6.52888937e+01	-3.89049278e+01	2.82177317e+01	-3.91663305e+01	3.16673957e+01	-5.78231579e+00	-9.04586687e+01
1669022714.29	-6.76357637e-01	-6.53074499e+01	-3.88395076e+01	2.79720086e+01	-3.90766713e+01	3.11075155e+01	-5.78802499e+00	-9.04652103e+01
1669308285.71	-6.76956615e-01	-6.53403643e+01	-3.88247784e+01	2.71636685e+01	-3.91095018e+01	3.06890768e+01	-5.79367349e+00	-9.06536720e+01
1669593857.14	-6.84284912e-01	-6.53556165e+01	-3.87594371e+01	2.67428491e+01	-3.90462796e+01	3.04651912e+01	-5.79422782e+00	-9.06729317e+01
1669879428.57	-6.80331626e-01	-6.54082425e+01	-3.88269410e+01	2.64577177e+01	-3.90849908e+01	3.00789965e+01	-5.79914196e+00	-9.07985907e+01
1670165000	-6.86463010e-01	-6.54103393e+01	-3.88298603e+01	2.57992989e+01	-3.90499121e+01	2.97922061e+01	-5.80576788e+00	-9.09091445e+01
1670450571.43	-6.84957516e-01	-6.54288147e+01	-3.88156381e+01	2.57773871e+01	-3.90463420e+01	2.91477545e+01	-5.81433491e+00	-9.08919438e+01
1670736142.86	-6.88254923e-01	-6.54456913e+01	-3.87718201e+01	2.50476953e+01	-3.89546368e+01	2.88924005e+01	-5.81586454e+00	-9.09360005e+01
1671021714.29	-6.87888873e-01	-6.54581077e+01	-3.87413512e+01	2.45904214e+01	-3.89851665e+01	2.85426723e+01	-5.81077544e+00	-9.10662237e+01
1671307285.71	-6.95014669e-01	-6.54723575e+01	-3.87512511e+01	2.44180537e+01	-3.89762799e+01	2.80985660e+01	-5.80586066e+00	-9.12031011e+01
1671592857.14	-6.92889270e-01	-6.54879737e+01	-3.87273512e+01	2.36756377e+01	-3.89899721e+01	2.75746576e+01	-5.81064405e+00	-9.12782627e+01
1671878428.57	-6.92345550e-01	-6.55099197e+01	-3.86463014e+01	2.29559305e+01	-3.89112926e+01	2.72177480e+01	-5.81566156e+00	-9.13660366e+01
1672164000	-6.91694661e-01	-6.55180270e+01	-3.86098329e+01	2.28437822e+01	-3.88739638e+01	2.69911964e+01	-5.81415512e+00	-9.13570903e+01
1672449571.43	-6.94792781e-01	-6.55478842e+01	-3.85856410e+01	2.23551077e+01	-3.88069561e+01	2.62888486e+01	-5.81667099e+00	-9.14142968e+01
1672735142.86	-6.97630581e-01	-6.55482991e+01	-3.85677295e+01	2.16794882e+01	-3.87928963e+01	2.61118330e+01	-5.82398622e+00	-9.14754853e+01
1673020714.29	-7.00432873e-01	-6.55989629e+01	-3.85432019e+01	2.14804133e+01	-3.87532638e+01	2.56444344e+01	-5.82803067e+00	-9.15078868e+01
1673306285.71	-7.00692059e-01	-6.56531831e+01	-3.84719413e+01	2.07862724e+01	-3.87166602e+01	2.50879444e+01	-5.82242808e+00	-9.15130376e+01
1673591857.14	-7.04457123e-01	-6.56387132e+01	-3.85341255e+01	2.03622158e+01	-3.87114278e+01	2.47481220e+01	-5.82148704e+00	-9.15450390e+01
1673877428.57	-7.05476342e-01	-6.56923617e+01	-3.84482195e+01	1.97105912e+01	-3.86553144e+01	2.42723049e+01	-5.82573131e+00	-9.15972947e+01
1674163000	-7.10533582e-01	-6.57069249e+01	-3.84929599e+01	1.91391188e+01	-3.86226882e+01	2.36858618e+01	-5.82016396e+00	-9.16172368e+01
1674448571.43	-7.10306494e-01	-6.57162562e+01	-3.84477849e+01	1.89015210e+01	-3.85345128e+01	2.33546585e+01	-5.82180869e+00	-9.16541556e+01
1674734142.86	-7.08252841e-01	-6.57815769e+01	-3.84519243e+01	1.83857523e+01	-3.85429030e+01	2.28608535e+01	-5.81686842e+00	-9.16663746e+01
1675019714.29	-7.13621595e-01	-6.58054529e+01	-3.83655805e+01	1.79336932e+01	-3.84937196e+01	2.21723269e+01	-5.82483183e+00	-9.17319038e+01
1675305285.71	-7.09672592e-01	-6.58230369e+01	-3.83525230e+01	1.73662304e+01	-3.84460528e+01	2.17534772e+01	-5.82494565e+00	-9.17579300e+01
1675590857.14	-7.14539935e-01	-6.58354740e+01	-3.83441643e+01	1.70752011e+01	-3.84170995e+01	2.14015597e+01	-5.81453807e+00	-9.18027031e+01
1675876428.57	-7.20040384e-01	-6.58618562e+01	-3.83132138e+01	1.60393083e+01	-3.83741541e+01	2.10476806e+01	-5.82113043e+00	-9.18147935e+01
1676162000	-7.19741841e-01	-6.58691442e+01	-3.83217025e+01	1.54163582e+01	-3.83445882e+01	2.03808597e+01	-5.81237211e+00	-9.19618153e+01
1676447571.43	-7.22819178e-01	-6.58587177e+01	-3.82741227e+01	1.51403995e+01	-3.82892300e+01	1.97546631e+01	-5.82376477e+00	-9.19813766e+01
1676733142.86	-7.19520539e-01	-6.58933794e+01	-3.82836477e+01	1.48121506e+01	-3.82739153e+01	1.93363522e+01	-5.82295478e+00	-9.20349872e+01
1677018714.29	-7.12308629e-01	-6.59506545e+01	-3.82461956e+01	1.40984269e+01	-3.82072167e+01	1.88649727e+01	-5.81584060e+00	-9.20662499e+01
1677304285.71	-7.13162039e-01	-6.59684033e+01	-3.82357161e+01	1.34744244e+01	-3.81618207e+01	1.79906467e+01	-5.82028072e+00	-9.21844559e+01
1677589857.14	-7.17461063e-01	-6.60455846e+01	-3.82197397e+01	1.29149362e+01	-3.81334348e+01	1.77582120e+01	-5.81109781e+00	-9.22037594e+01
1677875428.57	-7.21938986e-01	-6.60594051e+01	-3.82218129e+01	1.28783508e+01	-3.81302115e+01	1.71179354e+01	-5.81402955e+00	-9.22467854e+01
1678161000	-7.24210972e-01	-6.60934360e+01	-3.81869474e+01	1.18870485e+01	-3.80400144e+01	1.65783365e+01	-5.81101938e+00	-9.23672174e+01
1678446571.43	-7.25043605e-01	-6.61013983e+01	-3.82590625e+01	1.16729388e+01	-3.81060030e+01	1.58732323e+01	-5.80368116e+00	-9.24566001e+01
1678732142.86	-7.21800117e-01	-6.61357023e+01	-3.81806759e+01	1.10502439e+01	-3.80089752e+01	1.55646124e+01	-5.79963788e+00	-9.24869514e+01
1679017714.29	-7.24688060e-01	-6.61564534e+01	-3.82015072e+01	1.06115373e+01	-3.79963548e+01	1.50108884e+01	-5.80122952e+00	-9.25564193e+01
1679303285.71	-7.18599206e-01	-6.61702634e+01	-3.81535987e+01	9.96227676e+00	-3.79554411e+01	1.42699027e+01	-5.79838013e+00	-9.26429478e+01
1679588857.14	-7.20462242e-01	-6.62064437e+01	-3.81057368e+01	9.31856939e+00	-3.79221158e+01	1.38167116e+01	-5.80212739e+00	-9.26909703e+01
1679874428.57	-7.19577160e-01	-6.62126472e+01	-3.81090912e+01	9.02490374e+00	-3.79130878e+01	1.32233887e+01	-5.80249382e+00	-9.27427531e+01
1680160000	-7.22914590e-01	-6.62200978e+01	-3.80899669e+01	8.67983102e+00	-3.78579168e+01	1.26141871e+01	-5.79951607e+00	-9.27451135e+01
1680445571.43	-7.19001523e-01	-6.62620455e+01	-3.80545058e+01	8.06183237e+00	-3.78460958e+01	1.23183489e+01	-5.79372203e+00	-9.27244908e+01
1680731142.86	-7.17814293e-01	-6.62836550e+01	-3.80213776e+01	7.49552042e+00	-3.78173559e+01	1.16773911e+01	-5.78857494e+00	-9.27460516e+01
1681016714.29	-7.21615137e-01	-6.62838097e+01	-3.79924895e+01	6.78518221e+00	-3.77780372e+01	1.12162811e+01	-5.78681930e+00	-9.28638667e+01
1681302285.71	-7.27551227e-01	-6.63156175e+01	-3.79986426e+01	6.49328143e+00	-3.77330150e+01	1.06592813e+01	-5.78331519e+00	-9.28705149e+01
1681587857.14	-7.25245433e-01	-6.63529162e+01	-3.79439421e+01	6.01183651e+00	-3.77249222e+01	1.01666130e+01	-5.78180838e+00	-9.29262222e+01
1681873428.57	-7.25184436e-01	-6.63764924e+01	-3.79188510e+01	5.13357270e+00	-3.77005329e+01	9.62710402e+00	-5.77621610e+00	-9.29748357e+01
1682159000	-7.24438023e-01	-6.64153079e+01	-3.79141022e+01	4.84834530e+00	-3.76885820e+01	8.89191625e+00	-5.76797387e+00	-9.30219701e+01
1682444571.43	-7.23190327e-01	-6.64446345e+01	-3.78676736e+01	4.36908615e+00	-3.76304295e+01	8.31510840e+00	-5.77902481e+00	-9.30524059e+01
1682730142.86	-7.24427371e-01	-6.64942700e+01	-3.78821419e+01	3.69060349e+00	-3.76335570e+01	8.05824759e+00	-5.77199449e+00	-9.31162918e+01
1683015714.29	-7.27650327e-01	-6.64948645e+01	-3.78222952e+01	3.27260750e+00	-3.76013750e+01	7.32826256e+00	-5.77429960e+00	-9.30614475e+01
1683301285.71	-7.26670632e-01	-6.65197396e+01	-3.77580130e+01	2.56237303e+00	-3.75662211e+01	6.93604123e+00	-5.77219566e+00	-9.31935289e+01
1683586857.14	-7.22943051e-01	-6.65505059e+01	-3.77757922e+01	2.07752727e+00	-3.75896167e+01	6.21339433e+00	-5.77373733e+00	-9.32202753e+01
1683872428.57	-7.27621853e-01	-6.65717397e+01	-3.77315398e+01	1.53487682e+00	-3.75267137e+01	5.79172218e+00	-5.76476108e+00	-9.32512876e+01
1684158000	-7.25161173e-01	-6.65898046e+01	-3.76657563e+01	1.06087212e+00	-3.74978564e+01	4.92042764e+00	-5.77483231e+00	-9.33013671e+01
1684443571.43	-7.28276509e-01	-6.66276471e+01	-3.76973326e+01	5.11337229e-01	-3.74771512e+01	4.70622291e+00	-5.76744024e+00	-9.33766932e+01
1684729142.86	-7.29004304e-01	-6.66469152e+01	-3.76488846e+01	-2.03126336e-01	-3.74354386e+01	4.02571943e+00	-5.76142012e+00	-9.34895914e+01
1685014714.29	-7.29959282e-01	-6.66774679e+01	-3.75737741e+01	-6.26955235e-01	-3.74068780e+01	3.54467287e+00	-5.74985318e+00	-9.35512288e+01
1685300285.71	-7.29965968e-01	-6.66927423e+01	-3.75724597e+01	-1.21062388e+00	-3.73813874e+01	2.87437100e+00	-5.75565141e+00	-9.36328379e+01
1685585857.14	-7.26650097e-01	-6.67219503e+01	-3.75975285e+01	-1.79888971e+00	-3.73739186e+01	2.23677037e+00	-5.75551676e+00	-9.37259656e+01
1685871428.57	-7.25845954e-01	-6.67647113e+01	-3.75538611e+01	-2.69925088e+00	-3.73323455e+01	1.71339067e+00	-5.76437822e+00	-9.37666688e+01
1686157000	-7.28678418e-01	-6.68002033e+01	-3.75531392e+01	-2.94322696e+00	-3.73322155e+01	1.07104643e+00	-5.74980895e+00	-9.38981524e+01
1686442571.43	-7.26642390e-01	-6.68059455e+01	-3.75571829e+01	-3.59441457e+00	-3.72925753e+01	4.62606321e-01	-5.75154255e+00	-9.40488174e+01
1686728142.86	-7.28644841e-01	-6.68293843e+01	-3.75372806e+01	-4.18609130e+00	-3.72778121e+01	2.67247063e-02	-5.75071976e+00	-9.40943374e+01
1687013714.29	-7.29585293e-01	-6.68468898e+01	-3.75317283e+01	-5.08077788e+00	-3.72565532e+01	-5.97757865e-01	-5.74173052e+00	-9.41898039e+01
1687299285.71	-7.26682806e-01	-6.68535729e+01	-3.74911459e+01	-5.40454960e+00	-3.72126784e+01	-1.04594529e+00	-5.74960519e+00	-9.43202243e+01
1687584857.14	-7.24035679e-01	-6.68795280e+01	-3.74829273e+01	-6.20252469e+00	-3.72178242e+01	-1.67139744e+00	-5.75016281e+00	-9.43895935e+01
1687870428.57	-7.26245752e-01	-6.69047268e+01	-3.74139709e+01	-6.63261991e+00	-3.71922289e+01	-2.22240973e+00	-5.75216823e+00	-9.45088330e+01
1688156000	-7.25827614e-01	-6.69431276e+01	-3.74181273e+01	-7.41967611e+00	-3.71980580e+01	-2.96627000e+00	-5.74748233e+00	-9.46151569e+01
1688441571.43	-7.22303683e-01	-6.69305206e+01	-3.74245807e+01	-7.91290390e+00	-3.71800232e+01	-3.34058751e+00	-5.74207975e+00	-9.47617466e+01
1688727142.86	-7.27317648e-01	-6.69291092e+01	-3.73844437e+01	-8.24912548e+00	-3.71422306e+01	-3.86778416e+00	-5.74488700e+00	-9.49210831e+01
1689012714.29	-7.25028477e-01	-6.69779730e+01	-3.73789863e+01	-9.19345528e+00	-3.71307870e+01	-4.35606244e+00	-5.74824734e+00	-9.50284002e+01
1689298285.71	-7.23031068e-01	-6.70267153e+01	-3.73872437e+01	-9.37278256e+00	-3.70800603e+01	-4.75472624e+00	-5.75260109e+00	-9.50949936e+01
1689583857.14	-7.19931196e-01	-6.70767901e+01	-3.73998438e+01	-1.00712196e+01	-3.70744738e+01	-5.52383645e+00	-5.75160924e+00	-9.51815223e+01
1689869428.57	-7.21674402e-01	-6.70663680e+01	-3.73099813e+01	-1.04710882e+01	-3.70522197e+01	-6.08585307e+00	-5.74635662e+00	-9.53584458e+01
1690155000	-7.18869736e-01	-6.70845575e+01	-3.73752158e+01	-1.11150890e+01	-3.70505631e+01	-6.36326875e+00	-5.75437233e+00	-9.54603383e+01
1690440571.43	-7.22722173e-01	-6.70856887e+01	-3.73527714e+01	-1.14378165e+01	-3.70101098e+01	-6.99216306e+00	-5.75718466e+00	-9.55034624e+01
1690726142.86	-7.24072471e-01	-6.70999074e+01	-3.73411969e+01	-1.21795613e+01	-3.69657001e+01	-7.59818432e+00	-5.76582733e+00	-9.56619277e+01
1691011714.29	-7.25367152e-01	-6.71340469e+01	-3.73257245e+01	-1.26084359e+01	-3.69605899e+01	-8.27085903e+00	-5.75703159e+00	-9.58024675e+01
1691297285.71	-7.18881027e-01	-6.72012793e+01	-3.72816983e+01	-1.34721217e+01	-3.69055102e+01	-8.88954969e+00	-5.75813734e+00	-9.58668180e+01
1691582857.14	-7.22833791e-01	-6.71985183e+01	-3.73247288e+01	-1.37852310e+01	-3.69100121e+01	-9.41237391e+00	-5.76016557e+00	-9.59973044e+01
1691868428.57	-7.23701825e-01	-6.72029844e+01	-3.72519001e+01	-1.42329255e+01	-3.68519780e+01	-9.95494289e+00	-5.75905873e+00	-9.61310220e+01
1692154000	-7.24750768e-01	-6.72415135e+01	-3.72633643e+01	-1.50102346e+01	-3.68527713e+01	-1.04550085e+01	-5.76665652e+00	-9.61947373e+01
1692439571.43	-7.27012280e-01	-6.72370878e+01	-3.72550313e+01	-1.56637167e+01	-3.68104363e+01	-1.09720711e+01	-5.75981411e+00	-9.62982559e+01
1692725142.86	-7.27042262e-01	-6.72750200e+01	-3.71986976e+01	-1.57171250e+01	-3.67909197e+01	-1.16763603e+01	-5.76861060e+00	-9.64663163e+01
1693010714.29	-7.27161174e-01	-6.73015670e+01	-3.72072166e+01	-1.67700395e+01	-3.67772634e+01	-1.22380523e+01	-5.77372254e+00	-9.65195566e+01
1693296285.71	-7.24482850e-01	-6.73306198e+01	-3.72044105e+01	-1.75366435e+01	-3.67508468e+01	-1.26059269e+01	-5.77880953e+00	-9.67254656e+01
1693581857.14	-7.23890967e-01	-6.73083038e+01	-3.71944347e+01	-1.81066137e+01	-3.67163059e+01	-1.32472802e+01	-5.78801925e+00	-9.67710944e+01
1693867428.57	-7.21695252e-01	-6.73314927e+01	-3.72013473e+01	-1.83725048e+01	-3.66859238e+01	-1.40207360e+01	-5.79000238e+00	-9.68522100e+01
1694153000	-7.17926977e-01	-6.73253762e+01	-3.71670191e+01	-1.86853291e+01	-3.66593097e+01	-1.47264166e+01	-5.79319085e+00	-9.70125520e+01
1694438571.43	-7.16918263e-01	-6.73548838e+01	-3.71917460e+01	-1.96000301e+01	-3.66483080e+01	-1.52847136e+01	-5.80075863e+00	-9.70609056e+01
1694724142.86	-7.15959651e-01	-6.73667269e+01	-3.71488017e+01	-2.03771044e+01	-3.66373016e+01	-1.58211772e+01	-5.80963221e+00	-9.71508684e+01
1695009714.29	-7.16046710e-01	-6.73709849e+01	-3.71765504e+01	-2.04429343e+01	-3.66429764e+01	-1.60945326e+01	-5.80247302e+00	-9.73280514e+01
1695295285.71	-7.20913015e-01	-6.73854961e+01	-3.72042679e+01	-2.12817809e+01	-3.66355130e+01	-1.69148124e+01	-5.80811747e+00	-9.74344966e+01
1695580857.14	-7.23317750e-01	-6.74103421e+01	-3.71489185e+01	-2.15678004e+01	-3.66129241e+01	-1.73152908e+01	-5.80352517e+00	-9.74948415e+01
1695866428.57	-7.25735791e-01	-6.74345343e+01	-3.71473790e+01	-2.21278574e+01	-3.65947938e+01	-1.79957417e+01	-5.80902599e+00	-9.76359359e+01
1696152000	-7.26494140e-01	-6.74228151e+01	-3.71033156e+01	-2.25148030e+01	-3.65805394e+01	-1.82709910e+01	-5.81923449e+00	-9.77610064e+01
1696437571.43	-7.21207407e-01	-6.74587635e+01	-3.71649667e+01	-2.32279984e+01	-3.65589396e+01	-1.89590114e+01	-5.82356855e+00	-9.78782370e+01
1696723142.86	-7.21727018e-01	-6.74694395e+01	-3.71313444e+01	-2.33332394e+01	-3.65636301e+01	-1.95020272e+01	-5.82312132e+00	-9.80021330e+01
1697008714.29	-7.20857281e-01	-6.74569980e+01	-3.71592454e+01	-2.42994461e+01	-3.65094967e+01	-1.99736049e+01	-5.81752919e+00	-9.80945220e+01
1697294285.71	-7.17048344e-01	-6.74898738e+01	-3.70970871e+01	-2.43644408e+01	-3.65149152e+01	-2.05975710e+01	-5.82363680e+00	-9.81500563e+01
1697579857.14	-7.20198607e-01	-6.75221442e+01	-3.70808264e+01	-2.47920971e+01	-3.64958209e+01	-2.12900990e+01	-5.83151656e+00	-9.83691441e+01
1697865428.57	-7.20207628e-01	-6.75380523e+01	-3.70611212e+01	-2.55453493e+01	-3.64502081e+01	-2.17836545e+01	-5.83205314e+00	-9.85064480e+01
1698151000	-7.23585810e-01	-6.75490912e+01	-3.70885303e+01	-2.56008353e+01	-3.64761428e+01	-2.21769384e+01	-5.84098892e+00	-9.86307033e+01
1698436571.43	-7.24019708e-01	-6.75578093e+01	-3.70513978e+01	-2.62348118e+01	-3.64009952e+01	-2.30789646e+01	-5.84342029e+00	-9.86610372e+01
1698722142.86	-7.23241184e-01	-6.75694294e+01	-3.70508111e+01	-2.65753434e+01	-3.63944365e+01	-2.33420783e+01	-5.84348456e+00	-9.88107006e+01
1699007714.29	-7.23509777e-01	-6.75634866e+01	-3.70198360e+01	-2.74682739e+01	-3.63669339e+01	-2.39813273e+01	-5.84250782e+00	-9.89523920e+01
1699293285.71	-7.18771927e-01	-6.75799665e+01	-3.69916611e+01	-2.73798354e+01	-3.63160668e+01	-2.44934595e+01	-5.85070058e+00	-9.90764214e+01
1699578857.14	-7.18551528e-01	-6.75989242e+01	-3.69613595e+01	-2.79266700e+01	-3.63134684e+01	-2.49156162e+01	-5.84831366e+00	-9.91256639e+01
1699864428.57	-7.14959197e-01	-6.76076988e+01	-3.69678482e+01	-2.85850181e+01	-3.62569701e+01	-2.56025878e+01	-5.84221832e+00	-9.93078370e+01
1700150000	-7.15743905e-01	-6.76200354e+01	-3.68924544e+01	-2.88835357e+01	-3.62706972e+01	-2.61727906e+01	-5.85889568e+00	-9.93766314e+01
1700435571.43	-7.17821413e-01	-6.76081690e+01	-3.68780115e+01	-2.93467996e+01	-3.62398201e+01	-2.67361276e+01	-5.85240264e+00	-9.95466099e+01
1700721142.86	-7.20056991e-01	-6.76316650e+01	-3.68401621e+01	-2.96875403e+01	-3.62077598e+01	-2.72408018e+01	-5.86126720e+00	-9.95981868e+01
1701006714.29	-7.20582540e-01	-6.76576321e+01	-3.68777469e+01	-3.01372564e+01	-3.61794317e+01	-2.78840896e+01	-5.86145474e+00	-9.97852777e+01
1701292285.71	-7.22664150e-01	-6.76423000e+01	-3.67635411e+01	-3.08369821e+01	-3.61478585e+01	-2.84259881e+01	-5.87480346e+00	-9.99165555e+01
1701577857.14	-7.19740461e-01	-6.76591903e+01	-3.67701285e+01	-3.12579509e+01	-3.61220347e+01	-2.89966454e+01	-5.87393786e+00	-1.00010528e+02
1701863428.57	-7.17466014e-01	-6.76824974e+01	-3.67238733e+01	-3.21224264e+01	-3.61557680e+01	-2.96103700e+01	-5.87497679e+00	-1.00109657e+02
1702149000	-7.17545520e-01	-6.76809364e+01	-3.66847141e+01	-3.28756289e+01	-3.60859243e+01	-3.03000101e+01	-5.88314592e+00	-1.00202970e+02
1702434571.43	-7.16964796e-01	-6.77055780e+01	-3.66564292e+01	-3.34030420e+01	-3.60799195e+01	-3.09215793e+01	-5.88778815e+00	-1.00292134e+02
1702720142.86	-7.16836458e-01	-6.76840982e+01	-3.66060254e+01	-3.35736073e+01	-3.60410764e+01	-3.14085320e+01	-5.88729179e+00	-1.00454421e+02
1703005714.29	-7.15578179e-01	-6.76875327e+01	-3.66319450e+01	-3.40890985e+01	-3.60228871e+01	-3.22130958e+01	-5.89399126e+00	-1.00585540e+02
1703291285.71	-7.14593637e-01	-6.77238129e+01	-3.65715662e+01	-3.48128226e+01	-3.60017044e+01	-3.25923736e+01	-5.88751103e+00	-1.00699274e+02
1703576857.14	-7.17099046e-01	-6.77503015e+01	-3.66112132e+01	-3.52604812e+01	-3.59689707e+01	-3.33633347e+01	-5.88858891e+00	-1.00815581e+02
1703862428.57	-7.17552854e-01	-6.77360069e+01	-3.65520239e+01	-3.59890742e+01	-3.59446345e+01	-3.38887300e+01	-5.89789704e+00	-1.00860124e+02
1704148000	-7.16551333e-01	-6.77457953e+01	-3.65381520e+01	-3.64224690e+01	-3.59251002e+01	-3.44907782e+01	-5.90062249e+00	-1.00982319e+02
1704433571.43	-7.13148316e-01	-6.77302393e+01	-3.65134122e+01	-3.72548578e+01	-3.59174662e+01	-3.51728353e+01	-5.90889067e+00	-1.01124124e+02
1704719142.86	-7.10280396e-01	-6.77362065e+01	-3.64495293e+01	-3.75523290e+01	-3.59557419e+01	-3.58071135e+01	-5.90356099e+00	-1.01264910e+02
1705004714.29	-7.13157140e-01	-6.77328815e+01	-3.64252193e+01	-3.84941138e+01	-3.59086970e+01	-3.62538346e+01	-5.89768992e+00	-1.01368728e+02
1705290285.71	-7.13238284e-01	-6.77585436e+01	-3.64128329e+01	-3.91298888e+01	-3.58839895e+01	-3.69511784e+01	-5.90586130e+00	-1.01520518e+02
1705575857.14	-7.16902665e-01	-6.77709537e+01	-3.63738771e+01	-4.00832886e+01	-3.58654680e+01	-3.74048614e+01	-5.90416394e+00	-1.01655515e+02
1705861428.57	-7.10488478e-01	-6.78064608e+01	-3.63758871e+01	-4.04031544e+01	-3.58822477e+01	-3.80347215e+01	-5.90866735e+00	-1.01790096e+02
1706147000	-7.10213754e-01	-6.77930400e+01	-3.64169766e+01	-4.07733267e+01	-3.58851727e+01	-3.84242134e+01	-5.91689288e+00	-1.01895874e+02
1706432571.43	-7.11758769e-01	-6.78286529e+01	-3.63946308e+01	-4.13075435e+01	-3.58463997e+01	-3.91624495e+01	-5.91846318e+00	-1.02025912e+02
1706718142.86	-7.16692585e-01	-6.78121708e+01	-3.63698454e+01	-4.19119207e+01	-3.58417757e+01	-3.98874540e+01	-5.91587386e+00	-1.02137329e+02
1707003714.29	-7.19569997e-01	-6.78294639e+01	-3.63233093e+01	-4.25657685e+01	-3.57951089e+01	-4.01313006e+01	-5.90785286e+00	-1.02266998e+02
1707289285.71	-7.15712284e-01	-6.78312988e+01	-3.63572188e+01	-4.32827604e+01	-3.58072508e+01	-4.08558805e+01	-5.91646854e+00	-1.02489979e+02
1707574857.14	-7.16473891e-01	-6.78402628e+01	-3.63343422e+01	-4.39210665e+01	-3.57789714e+01	-4.14859998e+01	-5.90837191e+00	-1.02572393e+02
1707860428.57	-7.18614562e-01	-6.78592902e+01	-3.63060508e+01	-4.40819709e+01	-3.57701737e+01	-4.17536785e+01	-5.92094552e+00	-1.02685458e+02
1708146000	-7.21913493e-01	-6.78713988e+01	-3.62825915e+01	-4.49620436e+01	-3.57618951e+01	-4.24202103e+01	-5.92318311e+00	-1.02859688e+02
1708431571.43	-7.18364173e-01	-6.78643867e+01	-3.62918977e+01	-4.56740689e+01	-3.57368463e+01	-4.28626730e+01	-5.92012123e+00	-1.03053050e+02
1708717142.86	-7.16869394e-01	-6.78389379e+01	-3.62713642e+01	-4.59773002e+01	-3.57223277e+01	-4.34369065e+01	-5.92834248e+00	-1.03281973e+02
1709002714.29	-7.17538291e-01	-6.78445047e+01	-3.62342961e+01	-4.66124334e+01	-3.57205689e+01	-4.40070796e+01	-5.92891586e+00	-1.03371697e+02
1709288285.71	-7.12619521e-01	-6.78659377e+01	-3.62586634e+01	-4.71001432e+01	-3.57046719e+01	-4.44015253e+01	-5.92713667e+00	-1.03520512e+02
1709573857.14	-7.16170426e-01	-6.78851700e+01	-3.62569207e+01	-4.77545594e+01	-3.56207078e+01	-4.51257487e+01	-5.93279127e+00	-1.03664034e+02
1709859428.57	-7.13520464e-01	-6.78818443e+01	-3.62628725e+01	-4.82834004e+01	-3.56402151e+01	-4.58459953e+01	-5.93910710e+00	-1.03774489e+02
1710145000	-7.15090302e-01	-6.79058766e+01	-3.62373241e+01	-4.89578700e+01	-3.56298750e+01	-4.60040129e+01	-5.94280889e+00	-1.03962986e+02
1710430571.43	-7.18468811e-01	-6.79091476e+01	-3.62560707e+01	-4.95260266e+01	-3.55869755e+01	-4.68796804e+01	-5.94497472e+00	-1.04140934e+02
1710716142.86	-7.19971030e-01	-6.79048581e+01	-3.62212439e+01	-5.01881578e+01	-3.55573269e+01	-4.74405496e+01	-5.95922133e+00	-1.04289605e+02
1711001714.29	-7.20521281e-01	-6.79025667e+01	-3.62252317e+01	-5.08876086e+01	-3.55520877e+01	-4.81429399e+01	-5.94931455e+00	-1.04329015e+02
1711287285.71	-7.18164932e-01	-6.79129121e+01	-3.62365281e+01	-5.10557419e+01	-3.55590705e+01	-4.87227103e+01	-5.95017883e+00	-1.04411454e+02
1711572857.14	-7.17067099e-01	-6.79237585e+01	-3.61994253e+01	-5.18567350e+01	-3.55203223e+01	-4.92133767e+01	-5.94934100e+00	-1.04590565e+02
1711858428.57	-7.16472030e-01	-6.79077612e+01	-3.62153462e+01	-5.27408844e+01	-3.55264829e+01	-4.97993223e+01	-5.95759599e+00	-1.04757656e+02
1712144000	-7.11394072e-01	-6.79033772e+01	-3.62168946e+01	-5.29848499e+01	-3.54717155e+01	-5.02485949e+01	-5.95859881e+00	-1.04855115e+02
1712429571.43	-7.15411401e-01	-6.79036266e+01	-3.62067535e+01	-5.34081717e+01	-3.54682042e+01	-5.08074852e+01	-5.96065315e+00	-1.04932952e+02
1712715142.86	-7.17678360e-01	-6.79054708e+01	-3.61647567e+01	-5.40277200e+01	-3.54474731e+01	-5.13011459e+01	-5.96644172e+00	-1.05069967e+02
1713000714.29	-7.10107958e-01	-6.79290676e+01	-3.61698179e+01	-5.44134597e+01	-3.54575527e+01	-5.20371189e+01	-5.98431962e+00	-1.05218747e+02
1713286285.71	-7.11027617e-01	-6.79099493e+01	-3.61384796e+01	-5.52327321e+01	-3.54163650e+01	-5.26040214e+01	-5.98036069e+00	-1.05369415e+02
1713571857.14	-7.03914760e-01	-6.79257857e+01	-3.62069025e+01	-5.57719542e+01	-3.53923689e+01	-5.30603910e+01	-5.98345926e+00	-1.05420916e+02
1713857428.57	-7.10345163e-01	-6.79688846e+01	-3.61663179e+01	-5.61773944e+01	-3.53936013e+01	-5.36823676e+01	-5.98795277e+00	-1.05533593e+02
1714143000	-7.10556625e-01	-6.79379286e+01	-3.61861684e+01	-5.65919363e+01	-3.53764679e+01	-5.42254560e+01	-5.99554105e+00	-1.05604074e+02
1714428571.43	-7.13096153e-01	-6.79351740e+01	-3.61967925e+01	-5.72659461e+01	-3.53783245e+01	-5.48884903e+01	-5.99653643e+00	-1.05740067e+02
1714714142.86	-7.12250887e-01	-6.79044112e+01	-3.61800616e+01	-5.76401199e+01	-3.53538325e+01	-5.53109510e+01	-6.00674261e+00	-1.05835400e+02
1714999714.29	-7.11573532e-01	-6.79769524e+01	-3.61702115e+01	-5.81832360e+01	-3.53480528e+01	-5.59877732e+01	-6.01683996e+00	-1.06035071e+02
1715285285.71	-7.14712951e-01	-6.79852981e+01	-3.62320847e+01	-5.86228906e+01	-3.53103502e+01	-5.64884799e+01	-6.02141362e+00	-1.06101888e+02
1715570857.14	-7.13533539e-01	-6.79619026e+01	-3.61647920e+01	-5.90780606e+01	-3.53271209e+01	-5.71206138e+01	-6.03868749e+00	-1.06305118e+02
1715856428.57	-7.16294854e-01	-6.80056144e+01	-3.62200141e+01	-5.93840431e+01	-3.53002154e+01	-5.76694491e+01	-6.04175308e+00	-1.06437474e+02
1716142000	-7.15569908e-01	-6.79783269e+01	-3.62142360e+01	-5.96909826e+01	-3.52757527e+01	-5.80503259e+01	-6.05374669e+00	-1.06634536e+02
1716427571.43	-7.23106076e-01	-6.80109394e+01	-3.61677954e+01	-6.08039396e+01	-3.52480601e+01	-5.86787720e+01	-6.06381072e+00	-1.06761425e+02
1716713142.86	-7.19790845e-01	-6.80160700e+01	-3.61507770e+01	-6.09650386e+01	-3.52721589e+01	-5.93513906e+01	-6.06632984e+00	-1.06930802e+02
1716998714.29	-7.17165564e-01	-6.79919834e+01	-3.61894980e+01	-6.11248148e+01	-3.52857132e+01	-5.97102311e+01	-6.06788182e+00	-1.07139465e+02
1717284285.71	-7.19256366e-01	-6.79665933e+01	-3.61873692e+01	-6.18387853e+01	-3.52534788e+01	-6.03032493e+01	-6.08608859e+00	-1.07282178e+02
1717569857.14	-7.14113445e-01	-6.79756496e+01	-3.61303067e+01	-6.20843566e+01	-3.52234598e+01	-6.07342405e+01	-6.09074235e+00	-1.07504922e+02
1717855428.57	-7.19410046e-01	-6.79796169e+01	-3.61900692e+01	-6.24096024e+01	-3.52025961e+01	-6.13204671e+01	-6.11291930e+00	-1.07653614e+02
1718141000	-7.21167090e-01	-6.79838073e+01	-3.61565536e+01	-6.29207388e+01	-3.52016962e+01	-6.19543063e+01	-6.11635508e+00	-1.07758963e+02
1718426571.43	-7.20159550e-01	-6.79836959e+01	-3.61338590e+01	-6.33200466e+01	-3.51662221e+01	-6.24635066e+01	-6.12578820e+00	-1.07993560e+02
1718712142.86	-7.18918786e-01	-6.79618708e+01	-3.61021799e+01	-6.38010790e+01	-3.51394142e+01	-6.26517824e+01	-6.13164216e+00	-1.08083097e+02
1718997714.29	-7.14401416e-01	-6.79780838e+01	-3.60632525e+01	-6.39307081e+01	-3.51621065e+01	-6.32593767e+01	-6.14148532e+00	-1.08299991e+02
1719283285.71	-7.20775553e-01	-6.79697791e+01	-3.60911607e+01	-6.43510228e+01	-3.51195841e+01	-6.37220036e+01	-6.14843141e+00	-1.08325575e+02
1719568857.14	-7.24659059e-01	-6.79849460e+01	-3.60825515e+01	-6.46097709e+01	-3.50883795e+01	-6.43155839e+01	-6.17080046e+00	-1.08526700e+02
1719854428.57	-7.28321734e-01	-6.79878799e+01	-3.60681865e+01	-6.51150088e+01	-3.50925181e+01	-6.48455692e+01	-6.18580556e+00	-1.08635677e+02
1720140000	-7.30670144e-01	-6.79852146e+01	-3.60883448e+01	-6.54238012e+01	-3.50543794e+01	-6.52392037e+01	-6.18819459e+00	-1.08754140e+02
1720425571.43	-7.34835655e-01	-6.80100727e+01	-3.60102459e+01	-6.59087386e+01	-3.50751504e+01	-6.57236191e+01	-6.19126137e+00	-1.08905895e+02
1720711142.86	-7.27579491e-01	-6.79919608e+01	-3.60234788e+01	-6.60346103e+01	-3.50393687e+01	-6.63126238e+01	-6.20679123e+00	-1.09025073e+02
1720996714.29	-7.30722413e-01	-6.79988945e+01	-3.59526316e+01	-6.65299021e+01	-3.50320013e+01	-6.66182017e+01	-6.22462548e+00	-1.09129292e+02
1721282285.71	-7.31994254e-01	-6.80169267e+01	-3.59530820e+01	-6.73872537e+01	-3.50109120e+01	-6.70994260e+01	-6.22841261e+00	-1.09274212e+02
1721567857.14	-7.33877672e-01	-6.80108920e+01	-3.59129380e+01	-6.74655801e+01	-3.49666932e+01	-6.76685069e+01	-6.23154096e+00	-1.09413400e+02
1721853428.57	-7.36336716e-01	-6.79862049e+01	-3.58360854e+01	-6.77577189e+01	-3.49721278e+01	-6.81924955e+01	-6.25477019e+00	-1.09626039e+02
1722139000	-7.37854656e-01	-6.80204235e+01	-3.58287037e+01	-6.79526676e+01	-3.49594322e+01	-6.85798684e+01	-6.27691580e+00	-1.09652226e+02
1722424571.43	-7.39366008e-01	-6.80104401e+01	-3.58429368e+01	-6.86446420e+01	-3.49125665e+01	-6.90071282e+01	-6.29567662e+00	-1.09835933e+02
1722710142.86	-7.36689781e-01	-6.80057520e+01	-3.57371912e+01	-6.90412625e+01	-3.49155389e+01	-6.96092641e+01	-6.31048668e+00	-1.09916080e+02
1722995714.29	-7.39065255e-01	-6.79797774e+01	-3.57296936e+01	-6.90760332e+01	-3.48825996e+01	-7.02016849e+01	-6.32851063e+00	-1.10020267e+02
1723281285.71	-7.41120196e-01	-6.79645553e+01	-3.56726228e+01	-6.96199554e+01	-3.48299935e+01	-7.06034332e+01	-6.32936664e+00	-1.10134944e+02
1723566857.14	-7.43396570e-01	-6.79316835e+01	-3.56404622e+01	-7.01477130e+01	-3.48287986e+01	-7.11675900e+01	-6.35097995e+00	-1.10252995e+02
1723852428.57	-7.44182040e-01	-6.79895035e+01	-3.56385161e+01	-7.07103527e+01	-3.47817590e+01	-7.15908805e+01	-6.37380775e+00	-1.10336797e+02
1724138000	-7.46243737e-01	-6.80289878e+01	-3.55786903e+01	-7.09778368e+01	-3.47800023e+01	-7.23375148e+01	-6.37660941e+00	-1.10467925e+02
1724423571.43	-7.44940142e-01	-6.80092622e+01	-3.55441230e+01	-7.15185565e+01	-3.47476501e+01	-7.27781524e+01	-6.37731381e+00	-1.10655845e+02
1724709142.86	-7.46496522e-01	-6.79891978e+01	-3.54994476e+01	-7.21370592e+01	-3.47380400e+01	-7.35999904e+01	-6.38872871e+00	-1.10703319e+02
1724994714.29	-7.48476741e-01	-6.80016319e+01	-3.54523964e+01	-7.26379007e+01	-3.46731601e+01	-7.40993877e+01	-6.40278127e+00	-1.10841584e+02
1725280285.71	-7.52402202e-01	-6.80436578e+01	-3.54507329e+01	-7.32505269e+01	-3.46897462e+01	-7.46060269e+01	-6.41909475e+00	-1.10866119e+02
1725565857.14	-7.53826017e-01	-6.80298825e+01	-3.54342469e+01	-7.33070859e+01	-3.46484710e+01	-7.51283184e+01	-6.42967420e+00	-1.10970471e+02
1725851428.57	-7.57466148e-01	-6.80289002e+01	-3.54173261e+01	-7.41581477e+01	-3.46263214e+01	-7.55666113e+01	-6.44510690e+00	-1.11070716e+02
1726137000	-7.57829405e-01	-6.80404179e+01	-3.53533097e+01	-7.45504635e+01	-3.45717745e+01	-7.63681685e+01	-6.45616543e+00	-1.11195223e+02
1726422571.43	-7.53660477e-01	-6.80402015e+01	-3.53539628e+01	-7.50548560e+01	-3.46037373e+01	-7.69022024e+01	-6.47318609e+00	-1.11391911e+02
1726708142.86	-7.54159179e-01	-6.80232717e+01	-3.53138021e+01	-7.55235641e+01	-3.45539617e+01	-7.73228665e+01	-6.48879004e+00	-1.11429050e+02
1726993714.29	-7.56187647e-01	-6.80873895e+01	-3.52652013e+01	-7.61035703e+01	-3.45339531e+01	-7.80312520e+01	-6.50230345e+00	-1.11571155e+02
1727279285.71	-7.57320274e-01	-6.80823431e+01	-3.52538018e+01	-7.66243240e+01	-3.45267873e+01	-7.83040758e+01	-6.50991258e+00	-1.11651260e+02
1727564857.14	-7.60044677e-01	-6.81203737e+01	-3.52552292e+01	-7.71274511e+01	-3.45063921e+01	-7.90621184e+01	-6.52466731e+00	-1.11756864e+02
1727850428.57	-7.63527927e-01	-6.80901266e+01	-3.51855688e+01	-7.76851655e+01	-3.44687027e+01	-7.96439827e+01	-6.52911902e+00	-1.11749730e+02
1728136000	-7.64941900e-01	-6.81120669e+01	-3.51900243e+01	-7.81757347e+01	-3.44480728e+01	-8.01678451e+01	-6.54229307e+00	-1.11843924e+02
1728421571.43	-7.67025474e-01	-6.81427914e+01	-3.51790949e+01	-7.86899497e+01	-3.44511970e+01	-8.07778429e+01	-6.55721612e+00	-1.11917631e+02
1728707142.86	-7.65035457e-01	-6.81362507e+01	-3.51333341e+01	-7.91594467e+01	-3.44166476e+01	-8.14346016e+01	-6.56014410e+00	-1.11997915e+02
1728992714.29	-7.66853982e-01	-6.81215216e+01	-3.50854267e+01	-7.97970459e+01	-3.44260731e+01	-8.18338408e+01	-6.57898233e+00	-1.12047662e+02
1729278285.71	-7.69487433e-01	-6.81131750e+01	-3.50921349e+01	-8.03052605e+01	-3.43664557e+01	-8.22113213e+01	-6.59156603e+00	-1.12066322e+02
1729563857.14	-7.69688388e-01	-6.81230832e+01	-3.50408704e+01	-8.06430423e+01	-3.43663050e+01	-8.30011054e+01	-6.58761650e+00	-1.12179185e+02
1729849428.57	-7.70815518e-01	-6.81719694e+01	-3.49849262e+01	-8.12730563e+01	-3.43154623e+01	-8.35954833e+01	-6.61550952e+00	-1.12188521e+02
1730135000	-7.76497253e-01	-6.82174972e+01	-3.49946279e+01	-8.19486683e+01	-3.42962364e+01	-8.40001266e+01	-6.62653676e+00	-1.12211426e+02
1730420571.43	-7.76672347e-01	-6.82216771e+01	-3.49894380e+01	-8.23768854e+01	-3.42897240e+01	-8.49361650e+01	-6.63259428e+00	-1.12335337e+02
1730706142.86	-7.75760389e-01	-6.82374238e+01	-3.49247788e+01	-8.29709888e+01	-3.42963821e+01	-8.52764079e+01	-6.63814207e+00	-1.12353830e+02
1730991714.29	-7.80883062e-01	-6.82216185e+01	-3.48775329e+01	-8.35426989e+01	-3.42596985e+01	-8.59048825e+01	-6.64714793e+00	-1.12368624e+02
1731277285.71	-7.80721680e-01	-6.82382446e+01	-3.48546944e+01	-8.39743356e+01	-3.42138879e+01	-8.63748584e+01	-6.66410728e+00	-1.12380496e+02
1731562857.14	-7.84682228e-01	-6.82616822e+01	-3.48373785e+01	-8.47346882e+01	-3.42411161e+01	-8.71840918e+01	-6.67152858e+00	-1.12485984e+02
1731848428.57	-7.84114630e-01	-6.82681828e+01	-3.48554929e+01	-8.52070235e+01	-3.41969537e+01	-8.75164287e+01	-6.67255446e+00	-1.12495845e+02
1732134000	-7.86143538e-01	-6.82915635e+01	-3.48159664e+01	-8.58956402e+01	-3.41714357e+01	-8.81066773e+01	-6.68988678e+00	-1.12596723e+02
1732419571.43	-7.83575836e-01	-6.83106613e+01	-3.47669187e+01	-8.63408310e+01	-3.41947069e+01	-8.86978090e+01	-6.71106659e+00	-1.12640154e+02
1732705142.86	-7.89276014e-01	-6.83249995e+01	-3.47320005e+01	-8.68357896e+01	-3.41504722e+01	-8.93383119e+01	-6.72297564e+00	-1.12757415e+02
1732990714.29	-7.91051511e-01	-6.83205784e+01	-3.47088532e+01	-8.75455455e+01	-3.41478115e+01	-8.97391322e+01	-6.72743507e+00	-1.12700777e+02
1733276285.71	-7.95749658e-01	-6.83232623e+01	-3.46755717e+01	-8.78416015e+01	-3.41213918e+01	-9.03772467e+01	-6.73433206e+00	-1.12734816e+02
1733561857.14	-7.90470482e-01	-6.82937393e+01	-3.46879904e+01	-8.84270571e+01	-3.41101835e+01	-9.09305766e+01	-6.75550696e+00	-1.12800853e+02
1733847428.57	-7.93565766e-01	-6.83234358e+01	-3.46553467e+01	-8.89598606e+01	-3.41307243e+01	-9.15834464e+01	-6.74727218e+00	-1.12830862e+02
1734133000	-7.99524540e-01	-6.83616641e+01	-3.46475602e+01	-8.97582033e+01	-3.40865546e+01	-9.19155139e+01	-6.76637693e+00	-1.12871604e+02
1734418571.43	-8.05438472e-01	-6.84034951e+01	-3.46355839e+01	-9.03524742e+01	-3.40800211e+01	-9.25163353e+01	-6.77215657e+00	-1.13028403e+02
1734704142.86	-8.05634803e-01	-6.83999745e+01	-3.45622305e+01	-9.08111924e+01	-3.40928436e+01	-9.30353911e+01	-6.78222277e+00	-1.13034135e+02
1734989714.29	-8.05919620e-01	-6.84388049e+01	-3.45878096e+01	-9.14180529e+01	-3.40950087e+01	-9.37171948e+01	-6.78706783e+00	-1.13130676e+02
1735275285.71	-8.06527135e-01	-6.84781936e+01	-3.45649666e+01	-9.16134746e+01	-3.40706487e+01	-9.40609676e+01	-6.79303912e+00	-1.13116917e+02
1735560857.14	-8.06584550e-01	-6.84646671e+01	-3.45529938e+01	-9.22604797e+01	-3.40771138e+01	-9.47603143e+01	-6.80071105e+00	-1.13102165e+02
1735846428.57	-8.06849536e-01	-6.84739381e+01	-3.45358884e+01	-9.28136103e+01	-3.40698309e+01	-9.50561041e+01	-6.80566593e+00	-1.13132788e+02
1736132000	-8.09376375e-01	-6.85046094e+01	-3.45310654e+01	-9.32294899e+01	-3.40546536e+01	-9.56745461e+01	-6.80453935e+00	-1.13198388e+02
1736417571.43	-8.16208006e-01	-6.85324537e+01	-3.44768580e+01	-9.37495149e+01	-3.40582701e+01	-9.60368611e+01	-6.81279929e+00	-1.13263771e+02
1736703142.86	-8.17478306e-01	-6.85656554e+01	-3.44989324e+01	-9.43159334e+01	-3.40123242e+01	-9.66185981e+01	-6.81575262e+00	-1.13295495e+02
1736988714.29	-8.16619685e-01	-6.85862840e+01	-3.45057635e+01	-9.47876593e+01	-3.40257950e+01	-9.71689226e+01	-6.82820570e+00	-1.13303516e+02
1737274285.71	-8.25136055e-01	-6.85923520e+01	-3.44507601e+01	-9.50512761e+01	-3.39794318e+01	-9.74406977e+01	-6.84247558e+00	-1.13314541e+02
1737559857.14	-8.22027486e-01	-6.85931203e+01	-3.44325867e+01	-9.57097314e+01	-3.39793932e+01	-9.79876136e+01	-6.85448967e+00	-1.13292514e+02
1737845428.57	-8.20984661e-01	-6.86114876e+01	-3.44115873e+01	-9.61312338e+01	-3.39709953e+01	-9.85807561e+01	-6.86143006e+00	-1.13295013e+02
1738131000	-8.23586620e-01	-6.86424247e+01	-3.43976374e+01	-9.65657604e+01	-3.39608708e+01	-9.89446402e+01	-6.86625612e+00	-1.13252621e+02
1738416571.43	-8.23378533e-01	-6.86713185e+01	-3.43777467e+01	-9.70134439e+01	-3.39320045e+01	-9.95115895e+01	-6.87670149e+00	-1.13265387e+02
1738702142.86	-8.26403304e-01	-6.86878846e+01	-3.43793632e+01	-9.74529898e+01	-3.39402466e+01	-9.98820157e+01	-6.87063411e+00	-1.13319271e+02
1738987714.29	-8.30059995e-01	-6.86932595e+01	-3.43543612e+01	-9.78846399e+01	-3.38873660e+01	-1.00419899e+02	-6.89171959e+00	-1.13321010e+02
1739273285.71	-8.32190218e-01	-6.87107573e+01	-3.43281019e+01	-9.85236590e+01	-3.38887495e+01	-1.00894651e+02	-6.89819064e+00	-1.13334711e+02
1739558857.14	-8.29811025e-01	-6.87126536e+01	-3.43119453e+01	-9.89434989e+01	-3.38737933e+01	-1.01377012e+02	-6.90834633e+00	-1.13313482e+02
1739844428.57	-8.30762069e-01	-6.87513924e+01	-3.43116906e+01	-9.93059585e+01	-3.38677099e+01	-1.01765231e+02	-6.92656023e+00	-1.13303498e+02
1740130000	-8.27303358e-01	-6.87400738e+01	-3.42669192e+01	-9.95722142e+01	-3.38388977e+01	-1.02282273e+02	-6.92682471e+00	-1.13347752e+02
1740415571.43	-8.32022821e-01	-6.87881308e+01	-3.42559147e+01	-1.00047409e+02	-3.38447604e+01	-1.02543509e+02	-6.93822096e+00	-1.13315807e+02
1740701142.86	-8.34335815e-01	-6.87691184e+01	-3.42093032e+01	-1.00570972e+02	-3.37968046e+01	-1.03066030e+02	-6.93808723e+00	-1.13309267e+02
1740986714.29	-8.38323287e-01	-6.88058726e+01	-3.41917552e+01	-1.00957279e+02	-3.37846285e+01	-1.03620010e+02	-6.94131517e+00	-1.13349837e+02
1741272285.71	-8.34594902e-01	-6.88234358e+01	-3.41704360e+01	-1.01350846e+02	-3.37751056e+01	-1.04115145e+02	-6.96091537e+00	-1.13322167e+02
1741557857.14	-8.32530370e-01	-6.88677765e+01	-3.41354519e+01	-1.01802398e+02	-3.37542870e+01	-1.04435497e+02	-6.95336630e+00	-1.13321210e+02
1741843428.57	-8.36674111e-01	-6.88887071e+01	-3.41021641e+01	-1.02341227e+02	-3.37202940e+01	-1.04913894e+02	-6.98391003e+00	-1.13374810e+02
1742129000	-8.45999672e-01	-6.88887699e+01	-3.40825412e+01	-1.02566620e+02	-3.37142654e+01	-1.05429950e+02	-6.97907562e+00	-1.13392496e+02
1742414571.43	-8.44651486e-01	-6.88903471e+01	-3.40521413e+01	-1.02869167e+02	-3.36920032e+01	-1.05812323e+02	-6.97965982e+00	-1.13390968e+02
1742700142.86	-8.45138455e-01	-6.88973464e+01	-3.40377886e+01	-1.03498754e+02	-3.36645322e+01	-1.06091629e+02	-6.99238785e+00	-1.13434727e+02
1742985714.29	-8.42861080e-01	-6.89449640e+01	-3.39810896e+01	-1.03875156e+02	-3.36165100e+01	-1.06630968e+02	-6.99130516e+00	-1.13432398e+02
1743271285.71	-8.44719760e-01	-6.89683623e+01	-3.39500318e+01	-1.04247011e+02	-3.35819853e+01	-1.07054491e+02	-7.00331920e+00	-1.13429211e+02
1743556857.14	-8.43708847e-01	-6.89797706e+01	-3.39199374e+01	-1.04683487e+02	-3.35540816e+01	-1.07507577e+02	-7.01090291e+00	-1.13465406e+02
1743842428.57	-8.41087139e-01	-6.90148088e+01	-3.38958786e+01	-1.05114553e+02	-3.35077804e+01	-1.07846654e+02	-7.00602494e+00	-1.13483132e+02
1744128000	-8.44936328e-01	-6.90109337e+01	-3.38209871e+01	-1.05701562e+02	-3.34446096e+01	-1.08336421e+02	-7.01282051e+00	-1.13541760e+02
1744413571.43	-8.47356650e-01	-6.89815864e+01	-3.38093004e+01	-1.06124277e+02	-3.34537098e+01	-1.08922786e+02	-7.02705941e+00	-1.13461531e+02
1744699142.86	-8.54251255e-01	-6.90164928e+01	-3.37607862e+01	-1.06644371e+02	-3.34203358e+01	-1.09264759e+02	-7.03230202e+00	-1.13523810e+02
1744984714.29	-8.51778814e-01	-6.90544368e+01	-3.36995127e+01	-1.06994172e+02	-3.33786611e+01	-1.09745204e+02	-7.04069345e+00	-1.13507273e+02
1745270285.71	-8.48986043e-01	-6.90875964e+01	-3.36898487e+01	-1.07606632e+02	-3.33296029e+01	-1.10109010e+02	-7.04849647e+00	-1.13514031e+02
1745555857.14	-8.51317526e-01	-6.91299168e+01	-3.36627784e+01	-1.07986520e+02	-3.32801794e+01	-1.10622914e+02	-7.05499707e+00	-1.13532044e+02
1745841428.57	-8.52849900e-01	-6.91463675e+01	-3.35770573e+01	-1.08680769e+02	-3.32698358e+01	-1.11159130e+02	-7.06135372e+00	-1.13564382e+02
1746127000	-8.53488617e-01	-6.91601548e+01	-3.35378858e+01	-1.08980196e+02	-3.32270477e+01	-1.11673694e+02	-7.06901455e+00	-1.13572693e+02
1746412571.43	-8.57451727e-01	-6.91858071e+01	-3.35142360e+01	-1.09680951e+02	-3.31729563e+01	-1.11899026e+02	-7.06935330e+00	-1.13634679e+02
1746698142.86	-8.57931878e-01	-6.92019084e+01	-3.34850811e+01	-1.10207952e+02	-3.31325062e+01	-1.12542426e+02	-7.07460786e+00	-1.13637713e+02
1746983714.29	-8.60867776e-01	-6.92333343e+01	-3.34217932e+01	-1.10681209e+02	-3.31093698e+01	-1.13102020e+02	-7.07737006e+00	-1.13582814e+02
1747269285.71	-8.62142457e-01	-6.92574916e+01	-3.33430914e+01	-1.11334216e+02	-3.30550747e+01	-1.13711834e+02	-7.09289826e+00	-1.13605297e+02
1747554857.14	-8.60283343e-01	-6.92953751e+01	-3.33244906e+01	-1.11806388e+02	-3.30078007e+01	-1.14203209e+02	-7.08774799e+00	-1.13580457e+02
1747840428.57	-8.63847671e-01	-6.92742190e+01	-3.32614933e+01	-1.12266645e+02	-3.29855847e+01	-1.14512992e+02	-7.08810738e+00	-1.13602572e+02
1748126000	-8.65000866e-01	-6.92778174e+01	-3.32117111e+01	-1.12949006e+02	-3.29277697e+01	-1.15183630e+02	-7.07753134e+00	-1.13588279e+02
1748411571.43	-8.63621417e-01	-6.93071613e+01	-3.31703474e+01	-1.13597757e+02	-3.28848684e+01	-1.15614029e+02	-7.08893520e+00	-1.13663518e+02
1748697142.86	-8.64095119e-01	-6.93355410e+01	-3.31303304e+01	-1.14028818e+02	-3.28314789e+01	-1.16165938e+02	-7.08172550e+00	-1.13655746e+02
1748982714.29	-8.62774329e-01	-6.93435098e+01	-3.30770510e+01	-1.14807120e+02	-3.27759817e+01	-1.16865555e+02	-7.09665617e+00	-1.13671707e+02
1749268285.71	-8.63315225e-01	-6.93718885e+01	-3.30376772e+01	-1.15308116e+02	-3.27549380e+01	-1.17318612e+02	-7.08822698e+00	-1.13710247e+02
1749553857.14	-8.66027588e-01	-6.93851623e+01	-3.29762681e+01	-1.16098836e+02	-3.27170818e+01	-1.18100302e+02	-7.09695399e+00	-1.13692007e+02
1749839428.57	-8.65485119e-01	-6.93879679e+01	-3.29382879e+01	-1.16698007e+02	-3.26763001e+01	-1.18593485e+02	-7.09268774e+00	-1.13624447e+02
1750125000	-8.65891843e-01	-6.94083589e+01	-3.28969537e+01	-1.17351101e+02	-3.26283026e+01	-1.19301617e+02	-7.10038525e+00	-1.13744519e+02
1750410571.43	-8.61416736e-01	-6.94545883e+01	-3.28711632e+01	-1.17958311e+02	-3.26126238e+01	-1.19833306e+02	-7.09294764e+00	-1.13702473e+02
1750696142.86	-8.60870232e-01	-6.94799655e+01	-3.28020417e+01	-1.18668678e+02	-3.25638277e+01	-1.20599763e+02	-7.09198284e+00	-1.13774842e+02
1750981714.29	-8.61530077e-01	-6.94903469e+01	-3.27717681e+01	-1.19298355e+02	-3.25048599e+01	-1.21280416e+02	-7.08558364e+00	-1.13706753e+02
1751267285.71	-8.60067465e-01	-6.94998661e+01	-3.27276064e+01	-1.19829087e+02	-3.24790490e+01	-1.21855705e+02	-7.08774568e+00	-1.13759116e+02
1751552857.14	-8.64635122e-01	-6.95582073e+01	-3.27011769e+01	-1.20436298e+02	-3.24422693e+01	-1.22489833e+02	-7.08316145e+00	-1.13727206e+02
1751838428.57	-8.64345416e-01	-6.95774960e+01	-3.26789053e+01	-1.21207497e+02	-3.24146754e+01	-1.23155567e+02	-7.08142122e+00	-1.13700291e+02
1752124000	-8.67249332e-01	-6.95575064e+01	-3.26524630e+01	-1.21781217e+02	-3.23545593e+01	-1.23748759e+02	-7.07290332e+00	-1.13830984e+02
1752409571.43	-8.69816584e-01	-6.95658189e+01	-3.26538133e+01	-1.22544946e+02	-3.23541217e+01	-1.24406334e+02	-7.07997307e+00	-1.13817983e+02
1752695142.86	-8.67632810e-01	-6.96039859e+01	-3.26012164e+01	-1.23241184e+02	-3.23200167e+01	-1.25153005e+02	-7.08954124e+00	-1.13865485e+02
1752980714.29	-8.64836146e-01	-6.96182301e+01	-3.25697773e+01	-1.23710144e+02	-3.22615045e+01	-1.25622850e+02	-7.06763548e+00	-1.13913084e+02
1753266285.71	-8.63690013e-01	-6.96576977e+01	-3.25599681e+01	-1.24376504e+02	-3.22662861e+01	-1.26429474e+02	-7.06733600e+00	-1.13892879e+02
1753551857.14	-8.65517772e-01	-6.96941135e+01	-3.25441702e+01	-1.25083683e+02	-3.22426189e+01	-1.27040336e+02	-7.07502770e+00	-1.14003753e+02
1753837428.57	-8.62872028e-01	-6.97055886e+01	-3.25066740e+01	-1.25804540e+02	-3.22155588e+01	-1.27668480e+02	-7.06695758e+00	-1.14077034e+02
1754123000	-8.64224993e-01	-6.97387006e+01	-3.24866481e+01	-1.26364476e+02	-3.21683512e+01	-1.28377825e+02	-7.06834495e+00	-1.14065671e+02
1754408571.43	-8.64944366e-01	-6.97375018e+01	-3.24375448e+01	-1.26822997e+02	-3.21412509e+01	-1.28941249e+02	-7.07086975e+00	-1.14135401e+02
1754694142.86	-8.65408695e-01	-6.97525663e+01	-3.24181001e+01	-1.27647290e+02	-3.21377842e+01	-1.29555607e+02	-7.06257573e+00	-1.14209232e+02
1754979714.29	-8.68324616e-01	-6.98155171e+01	-3.24141385e+01	-1.28142280e+02	-3.20971635e+01	-1.30145261e+02	-7.05355192e+00	-1.14251200e+02
1755265285.71	-8.67246804e-01	-6.97870623e+01	-3.23576434e+01	-1.28719115e+02	-3.20735097e+01	-1.30781697e+02	-7.06512060e+00	-1.14316487e+02
1755550857.14	-8.71258595e-01	-6.98214971e+01	-3.23347757e+01	-1.29232684e+02	-3.20360313e+01	-1.31328567e+02	-7.07015875e+00	-1.14311599e+02
1755836428.57	-8.73746472e-01	-6.98229613e+01	-3.23230732e+01	-1.29829713e+02	-3.20147270e+01	-1.32000778e+02	-7.07161910e+00	-1.14490623e+02
1756122000	-8.75437656e-01	-6.98461740e+01	-3.22934709e+01	-1.30573171e+02	-3.19935814e+01	-1.32689706e+02	-7.07387740e+00	-1.14434138e+02
1756407571.43	-8.70951537e-01	-6.98753376e+01	-3.22738753e+01	-1.31139982e+02	-3.19598565e+01	-1.33407180e+02	-7.08057330e+00	-1.14516484e+02
1756693142.86	-8.73568826e-01	-6.99101255e+01	-3.22293705e+01	-1.32057502e+02	-3.19487690e+01	-1.33786222e+02	-7.08007218e+00	-1.14613911e+02
1756978714.29	-8.77117479e-01	-6.99228154e+01	-3.22103249e+01	-1.32708697e+02	-3.19344257e+01	-1.34552170e+02	-7.08340062e+00	-1.14626199e+02
1757264285.71	-8.78754437e-01	-6.99523108e+01	-3.21801632e+01	-1.33079857e+02	-3.19058047e+01	-1.35172905e+02	-7.07869679e+00	-1.14693618e+02
1757549857.14	-8.83420288e-01	-6.99420559e+01	-3.21683248e+01	-1.33805129e+02	-3.18792588e+01	-1.35880206e+02	-7.09098475e+00	-1.14743998e+02
1757835428.57	-8.84323365e-01	-6.99582963e+01	-3.21255740e+01	-1.34407645e+02	-3.18616716e+01	-1.36406251e+02	-7.08729573e+00	-1.14796716e+02
1758121000	-8.82437695e-01	-6.99988780e+01	-3.21237604e+01	-1.35078020e+02	-3.18271524e+01	-1.37142545e+02	-7.08903173e+00	-1.14932369e+02
1758406571.43	-8.83701256e-01	-6.99939574e+01	-3.20814764e+01	-1.35514088e+02	-3.17992688e+01	-1.37624366e+02	-7.08787301e+00	-1.14933905e+02
1758692142.86	-8.81946932e-01	-6.99878414e+01	-3.20623714e+01	-1.36402087e+02	-3.17816132e+01	-1.38416904e+02	-7.09205040e+00	-1.15005220e+02
1758977714.29	-8.86801858e-01	-7.00052901e+01	-3.20444536e+01	-1.37007091e+02	-3.17541986e+01	-1.38972276e+02	-7.08918371e+00	-1.15093948e+02
1759263285.71	-8.92691960e-01	-7.00309158e+01	-3.20109697e+01	-1.37771103e+02	-3.17067003e+01	-1.39825274e+02	-7.11127069e+00	-1.15155744e+02
1759548857.14	-8.91455550e-01	-7.00822960e+01	-3.19815250e+01	-1.38175888e+02	-3.17257606e+01	-1.40260514e+02	-7.11751391e+00	-1.15204473e+02
1759834428.57	-8.87551736e-01	-7.00841850e+01	-3.19794829e+01	-1.38771766e+02	-3.17086630e+01	-1.40988638e+02	-7.12675596e+00	-1.15246222e+02
1760120000	-8.85606972e-01	-7.00800029e+01	-3.19423096e+01	-1.39308873e+02	-3.16616478e+01	-1.41578434e+02	-7.11426171e+00	-1.15299220e+02
1760405571.43	-8.85201135e-01	-7.01039465e+01	-3.19463506e+01	-1.40167397e+02	-3.16520190e+01	-1.42216890e+02	-7.11980498e+00	-1.15401585e+02
1760691142.86	-8.90016978e-01	-7.01357397e+01	-3.19429617e+01	-1.40747392e+02	-3.16468009e+01	-1.42871557e+02	-7.13703309e+00	-1.15481685e+02
1760976714.29	-8.91047144e-01	-7.01460167e+01	-3.19195026e+01	-1.41292751e+02	-3.16048296e+01	-1.43528089e+02	-7.13847441e+00	-1.15564459e+02
1761262285.71	-8.91255768e-01	-7.01369333e+01	-3.18917290e+01	-1.41740149e+02	-3.15861699e+01	-1.44165856e+02	-7.14488889e+00	-1.15631456e+02
1761547857.14	-8.94872329e-01	-7.01266157e+01	-3.18744251e+01	-1.42590077e+02	-3.15526707e+01	-1.44749023e+02	-7.14165456e+00	-1.15647201e+02
1761833428.57	-8.87828030e-01	-7.01454739e+01	-3.18385418e+01	-1.43138252e+02	-3.15538215e+01	-1.45276728e+02	-7.15548495e+00	-1.15678259e+02
1762119000	-8.89870646e-01	-7.01656520e+01	-3.18076059e+01	-1.43668139e+02	-3.15421210e+01	-1.45880666e+02	-7.15936090e+00	-1.15756059e+02
1762404571.43	-8.93010818e-01	-7.01619601e+01	-3.18211689e+01	-1.44162984e+02	-3.15262055e+01	-1.46465430e+02	-7.15750136e+00	-1.15898580e+02
1762690142.86	-8.95129517e-01	-7.01819462e+01	-3.17732192e+01	-1.44850431e+02	-3.14874088e+01	-1.47029051e+02	-7.16083982e+00	-1.15863556e+02
1762975714.29	-8.95726297e-01	-7.01631610e+01	-3.17491724e+01	-1.45294450e+02	-3.14956537e+01	-1.47640641e+02	-7.17801210e+00	-1.15830293e+02
1763261285.71	-8.93612198e-01	-7.01826417e+01	-3.17419866e+01	-1.45914100e+02	-3.14653974e+01	-1.48295835e+02	-7.19431045e+00	-1.15931064e+02
1763546857.14	-8.92890849e-01	-7.02158726e+01	-3.17017546e+01	-1.46434769e+02	-3.14388202e+01	-1.48818703e+02	-7.18554874e+00	-1.16002566e+02
1763832428.57	-8.91670186e-01	-7.02292642e+01	-3.16729213e+01	-1.47094671e+02	-3.14124693e+01	-1.49427348e+02	-7.19710384e+00	-1.16084512e+02
1764118000	-8.89715446e-01	-7.02589211e+01	-3.16390840e+01	-1.47697732e+02	-3.13898951e+01	-1.50070186e+02	-7.20699610e+00	-1.16127608e+02
1764403571.43	-8.92168260e-01	-7.02505005e+01	-3.16415809e+01	-1.48355918e+02	-3.13672236e+01	-1.50669024e+02	-7.21608022e+00	-1.16085070e+02
1764689142.86	-8.91871085e-01	-7.02689221e+01	-3.16226177e+01	-1.48999983e+02	-3.13499292e+01	-1.51238352e+02	-7.20872443e+00	-1.16100656e+02
1764974714.29	-8.88393081e-01	-7.02698818e+01	-3.16093067e+01	-1.49568992e+02	-3.13109218e+01	-1.51752614e+02	-7.22393280e+00	-1.16161890e+02
1765260285.71	-8.90877036e-01	-7.02728693e+01	-3.15499931e+01	-1.50035903e+02	-3.12799275e+01	-1.52378090e+02	-7.22513383e+00	-1.16293517e+02
1765545857.14	-8.88077533e-01	-7.02966209e+01	-3.15120028e+01	-1.50634087e+02	-3.12511686e+01	-1.53045648e+02	-7.22871329e+00	-1.16275166e+02
1765831428.57	-8.87231449e-01	-7.03274803e+01	-3.14873982e+01	-1.51307101e+02	-3.12252028e+01	-1.53653559e+02	-7.24447147e+00	-1.16373288e+02
1766117000	-8.91842451e-01	-7.03310587e+01	-3.14665711e+01	-1.51744186e+02	-3.12067033e+01	-1.54250529e+02	-7.24548328e+00	-1.16404692e+02
1766402571.43	-8.93654122e-01	-7.03430107e+01	-3.14280714e+01	-1.52583950e+02	-3.11769965e+01	-1.54821618e+02	-7.25134946e+00	-1.16387664e+02
1766688142.86	-8.97098920e-01	-7.03609525e+01	-3.14238447e+01	-1.53162477e+02	-3.11524971e+01	-1.55539100e+02	-7.25501288e+00	-1.16463355e+02
1766973714.29	-8.94618391e-01	-7.03419331e+01	-3.13702597e+01	-1.53880648e+02	-3.11398887e+01	-1.56206491e+02	-7.26070155e+00	-1.16370462e+02
1767259285.71	-8.93093717e-01	-7.03633083e+01	-3.13568707e+01	-1.54487628e+02	-3.11002978e+01	-1.56910906e+02	-7.26375256e+00	-1.16418790e+02
1767544857.14	-8.98433668e-01	-7.03660909e+01	-3.13044457e+01	-1.55078361e+02	-3.10794504e+01	-1.57483026e+02	-7.28002246e+00	-1.16459962e+02
1767830428.57	-8.98068947e-01	-7.03720658e+01	-3.12947323e+01	-1.55867575e+02	-3.10656453e+01	-1.58255636e+02	-7.28766938e+00	-1.16437338e+02
1768116000	-8.95891185e-01	-7.03951625e+01	-3.12623059e+01	-1.56407330e+02	-3.10257848e+01	-1.58895451e+02	-7.28558495e+00	-1.16465490e+02
1768401571.43	-9.01302573e-01	-7.04243931e+01	-3.12285526e+01	-1.57220972e+02	-3.10154951e+01	-1.59504395e+02	-7.28706051e+00	-1.16482351e+02
1768687142.86	-8.99689007e-01	-7.04151299e+01	-3.12229240e+01	-1.57960404e+02	-3.09985668e+01	-1.60177922e+02	-7.29349172e+00	-1.16539157e+02
1768972714.29	-9.01320655e-01	-7.04102417e+01	-3.12014360e+01	-1.58549563e+02	-3.09689638e+01	-1.61042062e+02	-7.30743273e+00	-1.16609713e+02
1769258285.71	-9.01281791e-01	-7.04423352e+01	-3.11770104e+01	-1.59312076e+02	-3.09631249e+01	-1.61557360e+02	-7.31170222e+00	-1.16580361e+02
1769543857.14	-8.97462126e-01	-7.04559299e+01	-3.11467567e+01	-1.59986887e+02	-3.09289318e+01	-1.62330841e+02	-7.31256550e+00	-1.16560369e+02
1769829428.57	-9.01003432e-01	-7.05030725e+01	-3.11218345e+01	-1.60698293e+02	-3.09334226e+01	-1.62959510e+02	-7.32677252e+00	-1.16628120e+02
1770115000	-8.98138408e-01	-7.05396216e+01	-3.11095243e+01	-1.61266596e+02	-3.09050464e+01	-1.63704968e+02	-7.33779406e+00	-1.16523143e+02
1770400571.43	-8.98768077e-01	-7.05311656e+01	-3.10716248e+01	-1.61854965e+02	-3.08858536e+01	-1.64207003e+02	-7.34362958e+00	-1.16591580e+02
1770686142.86	-8.95546233e-01	-7.05319191e+01	-3.10587764e+01	-1.62655698e+02	-3.08725638e+01	-1.64914493e+02	-7.35195011e+00	-1.16609740e+02
1770971714.29	-9.01739061e-01	-7.05097974e+01	-3.10421876e+01	-1.63300831e+02	-3.08640793e+01	-1.65674112e+02	-7.36525486e+00	-1.16613537e+02
1771257285.71	-9.01856042e-01	-7.05182732e+01	-3.10436915e+01	-1.63854108e+02	-3.08587464e+01	-1.66374026e+02	-7.37555104e+00	-1.16620993e+02
1771542857.14	-8.98608038e-01	-7.05083636e+01	-3.10134620e+01	-1.64800691e+02	-3.08338470e+01	-1.66917296e+02	-7.36905740e+00	-1.16670373e+02
1771828428.57	-8.98860482e-01	-7.05227129e+01	-3.09905090e+01	-1.65426683e+02	-3.08421848e+01	-1.67595392e+02	-7.38154624e+00	-1.16746487e+02
1772114000	-9.00294850e-01	-7.05529658e+01	-3.09748306e+01	-1.66049699e+02	-3.08005461e+01	-1.68278364e+02	-7.38247908e+00	-1.16836959e+02
1772399571.43	-9.08050064e-01	-7.05477993e+01	-3.09469741e+01	-1.66535852e+02	-3.07923930e+01	-1.68985197e+02	-7.40493531e+00	-1.16884051e+02
1772685142.86	-9.04447938e-01	-7.05600616e+01	-3.09353782e+01	-1.67437943e+02	-3.07854525e+01	-1.69694501e+02	-7.41132646e+00	-1.16870438e+02
1772970714.29	-9.05254616e-01	-7.05467589e+01	-3.09368649e+01	-1.68031032e+02	-3.07849814e+01	-1.70306521e+02	-7.42850602e+00	-1.17038878e+02
1773256285.71	-9.07025690e-01	-7.05891917e+01	-3.09160704e+01	-1.68703833e+02	-3.07730201e+01	-1.71005778e+02	-7.44187751e+00	-1.16980438e+02
1773541857.14	-9.11061019e-01	-7.05556972e+01	-3.09259845e+01	-1.69425350e+02	-3.07620876e+01	-1.71615422e+02	-7.45050089e+00	-1.17107597e+02
1773827428.57	-9.11558497e-01	-7.05956606e+01	-3.08873163e+01	-1.69933144e+02	-3.07456746e+01	-1.72256603e+02	-7.44371632e+00	-1.17236987e+02
1774113000	-9.07735241e-01	-7.05651891e+01	-3.08584076e+01	-1.70676336e+02	-3.07197323e+01	-1.72867910e+02	-7.45623065e+00	-1.17204997e+02
1774398571.43	-9.14376321e-01	-7.05766572e+01	-3.08734786e+01	-1.71295560e+02	-3.07169450e+01	-1.73543381e+02	-7.46372407e+00	-1.17453227e+02
1774684142.86	-9.15108453e-01	-7.05930133e+01	-3.08562616e+01	-1.72110821e+02	-3.06943281e+01	-1.74205870e+02	-7.46635636e+00	-1.17449487e+02
1774969714.29	-9.19307137e-01	-7.06536846e+01	-3.08153614e+01	-1.72683220e+02	-3.06992836e+01	-1.74730918e+02	-7.49154014e+00	-1.17625915e+02
1775255285.71	-9.19680758e-01	-7.06094705e+01	-3.07891092e+01	-1.73260241e+02	-3.06737913e+01	-1.75532123e+02	-7.48527076e+00	-1.17615040e+02
1775540857.14	-9.17724969e-01	-7.06155801e+01	-3.07892443e+01	-1.74029278e+02	-3.06493934e+01	-1.76212495e+02	-7.50528985e+00	-1.17696979e+02
1775826428.57	-9.21204398e-01	-7.06154477e+01	-3.07631648e+01	-1.74746361e+02	-3.06381330e+01	-1.76885222e+02	-7.52442941e+00	-1.17783075e+02
1776112000	-9.13181326e-01	-7.06174341e+01	-3.07611016e+01	-1.75280234e+02	-3.06386357e+01	-1.77509345e+02	-7.51479507e+00	-1.17959245e+02
1776397571.43	-9.18183165e-01	-7.06079991e+01	-3.07306899e+01	-1.75894159e+02	-3.05979368e+01	-1.78112735e+02	-7.53459707e+00	-1.17906087e+02
1776683142.86	-9.13540579e-01	-7.06213011e+01	-3.07065492e+01	-1.76796086e+02	-3.05972006e+01	-1.78884187e+02	-7.53532231e+00	-1.18048682e+02
1776968714.29	-9.15151280e-01	-7.06319249e+01	-3.06703970e+01	-1.77436196e+02	-3.05720129e+01	-1.79466484e+02	-7.54796055e+00	-1.18145538e+02
1777254285.71	-9.17447876e-01	-7.06372050e+01	-3.06613593e+01	-1.78050906e+02	-3.05602066e+01	1.79819828e+02	-7.57859556e+00	-1.18206715e+02
1777539857.14	-9.17850065e-01	-7.06146094e+01	-3.06656763e+01	-1.78685400e+02	-3.05526132e+01	1.79205543e+02	-7.59387413e+00	-1.18244266e+02
1777825428.57	-9.20498464e-01	-7.06256675e+01	-3.06531597e+01	-1.79514226e+02	-3.05521758e+01	1.78454812e+02	-7.59252640e+00	-1.18252696e+02
1778111000	-9.24569415e-01	-7.06362450e+01	-3.06003581e+01	1.79664100e+02	-3.05544837e+01	1.77842216e+02	-7.59777405e+00	-1.18378559e+02
1778396571.43	-9.26923638e-01	-7.06266385e+01	-3.06238845e+01	1.79151341e+02	-3.05323812e+01	1.77117621e+02	-7.62259544e+00	-1.18386382e+02
1778682142.86	-9.31394630e-01	-7.06309874e+01	-3.05876824e+01	1.78465642e+02	-3.05464614e+01	1.76419862e+02	-7.64333609e+00	-1.18451310e+02
1778967714.29	-9.31945213e-01	-7.06031605e+01	-3.05735709e+01	1.77685175e+02	-3.05163608e+01	1.75817907e+02	-7.64931909e+00	-1.18526586e+02
1779253285.71	-9.27267593e-01	-7.06055969e+01	-3.05688160e+01	1.76860141e+02	-3.05154084e+01	1.75002563e+02	-7.66941450e+00	-1.18548346e+02
1779538857.14	-9.25927714e-01	-7.05708012e+01	-3.05747362e+01	1.76404745e+02	-3.04977014e+01	1.74501317e+02	-7.68036729e+00	-1.18581744e+02
1779824428.57	-9.27337240e-01	-7.05783753e+01	-3.05548683e+01	1.75527087e+02	-3.05151181e+01	1.73858641e+02	-7.69300722e+00	-1.18674111e+02
1780110000	-9.29136407e-01	-7.05762171e+01	-3.05635667e+01	1.74972235e+02	-3.05052491e+01	1.73186012e+02	-7.70815615e+00	-1.18755719e+02
1780395571.43	-9.27538668e-01	-7.05302989e+01	-3.05365912e+01	1.74305893e+02	-3.04933745e+01	1.72439690e+02	-7.73980848e+00	-1.18773553e+02
1780681142.86	-9.28735259e-01	-7.05346503e+01	-3.05354166e+01	1.73597731e+02	-3.05012642e+01	1.71828852e+02	-7.76532174e+00	-1.18923693e+02
1780966714.29	-9.29526659e-01	-7.05320670e+01	-3.05567100e+01	1.72938919e+02	-3.04803004e+01	1.71076457e+02	-7.77729716e+00	-1.18891887e+02
1781252285.71	-9.33924971e-01	-7.05298120e+01	-3.05351906e+01	1.72287170e+02	-3.04872322e+01	1.70506915e+02	-7.80615149e+00	-1.18945094e+02
1781537857.14	-9.32034384e-01	-7.05433467e+01	-3.05238022e+01	1.71503578e+02	-3.04651842e+01	1.69736515e+02	-7.81926939e+00	-1.18975820e+02
1781823428.57	-9.29387569e-01	-7.05376843e+01	-3.05145403e+01	1.70898174e+02	-3.04691800e+01	1.69197684e+02	-7.82856729e+00	-1.19062948e+02
1782109000	-9.28997890e-01	-7.05542786e+01	-3.05065526e+01	1.70174300e+02	-3.04561710e+01	1.68454383e+02	-7.84852107e+00	-1.19083217e+02
1782394571.43	-9.30332816e-01	-7.05660862e+01	-3.05217134e+01	1.69544814e+02	-3.04540665e+01	1.67868694e+02	-7.86552384e+00	-1.19081423e+02
1782680142.86	-9.32515310e-01	-7.05929702e+01	-3.05158409e+01	1.68933122e+02	-3.04513334e+01	1.67278664e+02	-7.88032647e+00	-1.19100637e+02
1782965714.29	-9.32943063e-01	-7.05344606e+01	-3.05080698e+01	1.68239034e+02	-3.04543195e+01	1.66522639e+02	-7.89094591e+00	-1.19166760e+02
1783251285.71	-9.32198538e-01	-7.04780445e+01	-3.05118184e+01	1.67501008e+02	-3.04529451e+01	1.65890275e+02	-7.89983327e+00	-1.19163140e+02
1783536857.14	-9.37083837e-01	-7.05087315e+01	-3.05162210e+01	1.66835171e+02	-3.04479209e+01	1.65265216e+02	-7.91591745e+00	-1.19243758e+02
1783822428.57	-9.38898411e-01	-7.05359707e+01	-3.04956674e+01	1.66243543e+02	-3.04552553e+01	1.64584906e+02	-7.91947398e+00	-1.19242692e+02
1784108000	-9.38589663e-01	-7.05353887e+01	-3.04807945e+01	1.65504530e+02	-3.04476281e+01	1.63893317e+02	-7.93530292e+00	-1.19313804e+02
1784393571.43	-9.41904704e-01	-7.04989109e+01	-3.05045236e+01	1.64937459e+02	-3.04293784e+01	1.63219255e+02	-7.95937012e+00	-1.19310447e+02
1784679142.86	-9.41923967e-01	-7.05043695e+01	-3.04989726e+01	1.64187013e+02	-3.04367078e+01	1.62467738e+02	-7.96343969e+00	-1.19386050e+02
1784964714.29	-9.43241077e-01	-7.05314883e+01	-3.05104966e+01	1.63342106e+02	-3.04656597e+01	1.61901386e+02	-7.97597811e+00	-1.19464007e+02
1785250285.71	-9.43834951e-01	-7.05714435e+01	-3.05059619e+01	1.62808771e+02	-3.04494418e+01	1.61236017e+02	-7.99317186e+00	-1.19508338e+02
1785535857.14	-9.49770985e-01	-7.05468085e+01	-3.04967751e+01	1.62035702e+02	-3.04568410e+01	1.60567841e+02	-8.00652274e+00	-1.19507991e+02
1785821428.57	-9.49792625e-01	-7.05299319e+01	-3.05352028e+01	1.61483367e+02	-3.04653959e+01	1.60061839e+02	-8.02788121e+00	-1.19465470e+02
1786107000	-9.50462460e-01	-7.05917595e+01	-3.05444400e+01	1.60743853e+02	-3.04795032e+01	1.59347582e+02	-8.03440072e+00	-1.19474008e+02
1786392571.43	-9.44755122e-01	-7.06012718e+01	-3.05305657e+01	1.60057622e+02	-3.04815171e+01	1.58704717e+02	-8.05007297e+00	-1.19504196e+02
1786678142.86	-9.44334878e-01	-7.05880908e+01	-3.05672369e+01	1.59225453e+02	-3.04988009e+01	1.58036866e+02	-8.05067777e+00	-1.19452901e+02
1786963714.29	-9.51583781e-01	-7.05594733e+01	-3.05732812e+01	1.58756533e+02	-3.05032114e+01	1.57589141e+02	-8.06549017e+00	-1.19466503e+02
1787249285.71	-9.51186041e-01	-7.05878751e+01	-3.05613679e+01	1.58204749e+02	-3.05063433e+01	1.56872529e+02	-8.07538804e+00	-1.19464365e+02
1787534857.14	-9.50887392e-01	-7.05695124e+01	-3.05799819e+01	1.57542027e+02	-3.05152514e+01	1.56378401e+02	-8.08931865e+00	-1.19482182e+02
1787820428.57	-9.49840171e-01	-7.05868400e+01	-3.05825692e+01	1.57047951e+02	-3.05238760e+01	1.55652342e+02	-8.10828221e+00	-1.19545026e+02
1788106000	-9.59653199e-01	-7.06233354e+01	-3.06143315e+01	1.56300690e+02	-3.05538826e+01	1.55078674e+02	-8.13420313e+00	-1.19515721e+02
1788391571.43	-9.63772359e-01	-7.06689953e+01	-3.06281913e+01	1.55692353e+02	-3.05501898e+01	1.54478057e+02	-8.13573919e+00	-1.19456045e+02
1788677142.86	-9.61094621e-01	-7.06586491e+01	-3.06481359e+01	1.55240760e+02	-3.05681167e+01	1.53962952e+02	-8.14146153e+00	-1.19585499e+02
1788962714.29	-9.61712762e-01	-7.06406128e+01	-3.06522509e+01	1.54630987e+02	-3.05554602e+01	1.53474778e+02	-8.15296038e+00	-1.19536358e+02
1789248285.71	-9.60967073e-01	-7.06022709e+01	-3.06270273e+01	1.54142368e+02	-3.05632551e+01	1.52926653e+02	-8.15451920e+00	-1.19612415e+02
1789533857.14	-9.63269438e-01	-7.06137193e+01	-3.06591472e+01	1.53635770e+02	-3.05896930e+01	1.52282906e+02	-8.17143286e+00	-1.19671790e+02
1789819428.57	-9.67317953e-01	-7.06179433e+01	-3.06413368e+01	1.53061559e+02	-3.05574505e+01	1.51727278e+02	-8.18237450e+00	-1.19608206e+02
1790105000	-9.63839420e-01	-7.06347232e+01	-3.06639649e+01	1.52475927e+02	-3.05732300e+01	1.51361420e+02	-8.20560915e+00	-1.19569335e+02
1790390571.43	-9.71689695e-01	-7.06419337e+01	-3.06659310e+01	1.51858933e+02	-3.05953631e+01	1.50672350e+02	-8.19963896e+00	-1.19639167e+02
1790676142.86	-9.78060431e-01	-7.06735206e+01	-3.06756711e+01	1.51443033e+02	-3.05944247e+01	1.50108996e+02	-8.21917471e+00	-1.19570533e+02
1790961714.29	-9.78719291e-01	-7.07100987e+01	-3.06776462e+01	1.50761630e+02	-3.05748352e+01	1.49698285e+02	-8.23843490e+00	-1.19676049e+02
1791247285.71	-9.83213275e-01	-7.07201913e+01	-3.06768557e+01	1.50493225e+02	-3.05744155e+01	1.49138979e+02	-8.25217346e+00	-1.19671431e+02
1791532857.14	-9.85930608e-01	-7.07484424e+01	-3.06732615e+01	1.49737947e+02	-3.05756262e+01	1.48610892e+02	-8.26173131e+00	-1.19696249e+02
1791818428.57	-9.86867248e-01	-7.07232395e+01	-3.06710446e+01	1.49254471e+02	-3.05749033e+01	1.48010221e+02	-8.26051432e+00	-1.19655639e+02
1792104000	-9.89579719e-01	-7.07102345e+01	-3.06620240e+01	1.48701378e+02	-3.05886599e+01	1.47533851e+02	-8.27319945e+00	-1.19584568e+02
1792389571.43	-9.86867369e-01	-7.07171877e+01	-3.06577817e+01	1.48307338e+02	-3.05786948e+01	1.46919520e+02	-8.26962806e+00	-1.19658657e+02
1792675142.86	-9.85766652e-01	-7.07374060e+01	-3.06736192e+01	1.47671799e+02	-3.05660376e+01	1.46297623e+02	-8.27476179e+00	-1.19674839e+02
1792960714.29	-9.93232694e-01	-7.07145640e+01	-3.06695545e+01	1.47095247e+02	-3.05828405e+01	1.45881381e+02	-8.29380847e+00	-1.19718467e+02
1793246285.71	-9.96574813e-01	-7.07332367e+01	-3.06727438e+01	1.46607532e+02	-3.05600658e+01	1.45289948e+02	-8.29188844e+00	-1.19769147e+02
1793531857.14	-9.95692492e-01	-7.07185552e+01	-3.06552562e+01	1.46030498e+02	-3.05602443e+01	1.44690864e+02	-8.31408659e+00	-1.19783599e+02
1793817428.57	-9.99331278e-01	-7.07238957e+01	-3.06773239e+01	1.45306491e+02	-3.05626028e+01	1.44177309e+02	-8.31623635e+00	-1.19842938e+02
1794103000	-9.99938287e-01	-7.07097671e+01	-3.06430042e+01	1.44884703e+02	-3.05706462e+01	1.43598636e+02	-8.32134644e+00	-1.19829550e+02
1794388571.43	-9.97424782e-01	-7.06872375e+01	-3.06529207e+01	1.44302223e+02	-3.05939495e+01	1.43046067e+02	-8.33584441e+00	-1.19875152e+02
1794674142.86	-1.00477354e+00	-7.07129228e+01	-3.06327982e+01	1.43756311e+02	-3.05697993e+01	1.42571808e+02	-8.32543223e+00	-1.19983363e+02
1794959714.29	-1.00870948e+00	-7.07262027e+01	-3.06533422e+01	1.43160988e+02	-3.05716070e+01	1.42029739e+02	-8.33433650e+00	-1.19923398e+02
1795245285.71	-1.01508121e+00	-7.07686695e+01	-3.06448636e+01	1.42460738e+02	-3.05860795e+01	1.41543039e+02	-8.33430417e+00	-1.19919732e+02
1795530857.14	-1.01624814e+00	-7.07773336e+01	-3.06599551e+01	1.41935254e+02	-3.05867991e+01	1.40866301e+02	-8.33781875e+00	-1.19872535e+02
1795816428.57	-1.01662361e+00	-7.07636443e+01	-3.06271750e+01	1.41489018e+02	-3.05974076e+01	1.40342067e+02	-8.34270750e+00	-1.19997640e+02
1796102000	-1.02056888e+00	-7.07367095e+01	-3.06315268e+01	1.40941968e+02	-3.05739722e+01	1.39909042e+02	-8.34980314e+00	-1.19950750e+02
1796387571.43	-1.02132636e+00	-7.07604376e+01	-3.06483195e+01	1.40429441e+02	-3.05720759e+01	1.39492822e+02	-8.35306079e+00	-1.19913933e+02
1796673142.86	-1.01838903e+00	-7.07983528e+01	-3.06252390e+01	1.39801273e+02	-3.05756843e+01	1.38895922e+02	-8.37056512e+00	-1.19871219e+02
1796958714.29	-1.02500990e+00	-7.07829980e+01	-3.06101283e+01	1.39359085e+02	-3.05584256e+01	1.38219598e+02	-8.37394404e+00	-1.19864159e+02
1797244285.71	-1.02346351e+00	-7.07993965e+01	-3.06280845e+01	1.38765862e+02	-3.05642322e+01	1.37903367e+02	-8.38218730e+00	-1.19795800e+02
1797529857.14	-1.02358673e+00	-7.07965527e+01	-3.06449756e+01	1.38290076e+02	-3.05600518e+01	1.37315131e+02	-8.39503436e+00	-1.19767244e+02
1797815428.57	-1.02757562e+00	-7.08114398e+01	-3.06327380e+01	1.37668661e+02	-3.05741531e+01	1.36706210e+02	-8.39538870e+00	-1.19741428e+02
1798101000	-1.02410180e+00	-7.08063137e+01	-3.05981463e+01	1.37368520e+02	-3.05515885e+01	1.36165356e+02	-8.40399461e+00	-1.19662645e+02
1798386571.43	-1.02426403e+00	-7.07733321e+01	-3.06050692e+01	1.36634405e+02	-3.05604124e+01	1.35687760e+02	-8.40698541e+00	-1.19774185e+02
1798672142.86	-1.03075602e+00	-7.07636641e+01	-3.06251458e+01	1.35930445e+02	-3.05576520e+01	1.35179989e+02	-8.42208168e+00	-1.19712464e+02
1798957714.29	-1.02735253e+00	-7.07865268e+01	-3.06175940e+01	1.35426220e+02	-3.05443687e+01	1.34495720e+02	-8.42817539e+00	-1.19728664e+02
1799243285.71	-1.02398548e+00	-7.08391870e+01	-3.06053704e+01	1.35015601e+02	-3.05529068e+01	1.34124213e+02	-8.43562143e+00	-1.19686469e+02
1799528857.14	-1.02849393e+00	-7.08264104e+01	-3.05984841e+01	1.34390610e+02	-3.05392222e+01	1.33529709e+02	-8.44960094e+00	-1.19697233e+02
1799814428.57	-1.03224612e+00	-7.08007246e+01	-3.06048457e+01	1.33735169e+02	-3.05448239e+01	1.33040756e+02	-8.44711857e+00	-1.19713983e+02
1800100000	-1.03522166e+00	-7.07974781e+01	-3.06000066e+01	1.33398542e+02	-3.05391114e+01	1.32499547e+02	-8.44648755e+00	-1.19697982e+02
1800385571.43	-1.03798100e+00	-7.08157878e+01	-3.05943416e+01	1.32887908e+02	-3.05324591e+01	1.31903414e+02	-8.44526827e+00	-1.19747673e+02
1800671142.86	-1.03296066e+00	-7.08013913e+01	-3.05876500e+01	1.32142225e+02	-3.05317645e+01	1.31503716e+02	-8.46605063e+00	-1.19728220e+02
1800956714.29	-1.02908415e+00	-7.08352942e+01	-3.05869845e+01	1.31759984e+02	-3.05353159e+01	1.30839436e+02	-8.46387018e+00	-1.19685413e+02
1801242285.71	-1.03119725e+00	-7.08956454e+01	-3.05876767e+01	1.31172285e+02	-3.05193142e+01	1.30428665e+02	-8.46528269e+00	-1.19731475e+02
1801527857.14	-1.02780667e+00	-7.08590926e+01	-3.05807892e+01	1.30679765e+02	-3.05239193e+01	1.29935780e+02	-8.47448462e+00	-1.19639895e+02
1801813428.57	-1.03358002e+00	-7.08539092e+01	-3.05795730e+01	1.30185558e+02	-3.05333867e+01	1.29386028e+02	-8.48527544e+00	-1.19645418e+02
1802099000	-1.03611724e+00	-7.08544781e+01	-3.05632396e+01	1.29536862e+02	-3.05280990e+01	1.28779669e+02	-8.50654333e+00	-1.19642657e+02
1802384571.43	-1.03233316e+00	-7.08628908e+01	-3.05561838e+01	1.29116087e+02	-3.05233457e+01	1.28278950e+02	-8.49997046e+00	-1.19641678e+02
1802670142.86	-1.03311934e+00	-7.08573081e+01	-3.05506259e+01	1.28493287e+02	-3.05209590e+01	1.27753314e+02	-8.50042742e+00	-1.19593766e+02
1802955714.29	-1.03501326e+00	-7.08856103e+01	-3.05833791e+01	1.28106601e+02	-3.05129051e+01	1.27276659e+02	-8.50633201e+00	-1.19626404e+02
1803241285.71	-1.03422434e+00	-7.09085825e+01	-3.05625308e+01	1.27389289e+02	-3.05097701e+01	1.26785150e+02	-8.49632594e+00	-1.19611237e+02
1803526857.14	-1.03896938e+00	-7.08876182e+01	-3.05625974e+01	1.26991790e+02	-3.05295282e+01	1.26255431e+02	-8.50997031e+00	-1.19633044e+02
1803812428.57	-1.04112462e+00	-7.08936306e+01	-3.05437046e+01	1.26544259e+02	-3.05168744e+01	1.25830630e+02	-8.51475981e+00	-1.19647790e+02
1804098000	-1.03832504e+00	-7.08932037e+01	-3.05549157e+01	1.25887811e+02	-3.05168643e+01	1.25282918e+02	-8.52629394e+00	-1.19610879e+02
1804383571.43	-1.03670622e+00	-7.08995105e+01	-3.05568743e+01	1.25501755e+02	-3.05079214e+01	1.24901695e+02	-8.52670166e+00	-1.19697466e+02
1804669142.86	-1.03515171e+00	-7.09197683e+01	-3.05479677e+01	1.24994832e+02	-3.05055534e+01	1.24304161e+02	-8.53208715e+00	-1.19764250e+02
1804954714.29	-1.03518296e+00	-7.09762266e+01	-3.05638009e+01	1.24474890e+02	-3.04959016e+01	1.23863503e+02	-8.53088844e+00	-1.19670873e+02
1805240285.71	-1.03420752e+00	-7.10185568e+01	-3.05409907e+01	1.24055387e+02	-3.04848071e+01	1.23303315e+02	-8.52367553e+00	-1.19708831e+02
1805525857.14	-1.03617109e+00	-7.09965329e+01	-3.05365896e+01	1.23613274e+02	-3.04652569e+01	1.22906588e+02	-8.53504052e+00	-1.19704728e+02
1805811428.57	-1.03832788e+00	-7.09979583e+01	-3.05057475e+01	1.22946343e+02	-3.04487217e+01	1.22452973e+02	-8.53961721e+00	-1.19711443e+02
1806097000	-1.04103719e+00	-7.10060767e+01	-3.05050786e+01	1.22482940e+02	-3.04469250e+01	1.21952512e+02	-8.54729822e+00	-1.19725142e+02
1806382571.43	-1.04296626e+00	-7.09789967e+01	-3.04779140e+01	1.22103911e+02	-3.04360721e+01	1.21521554e+02	-8.54358932e+00	-1.19716574e+02
1806668142.86	-1.04590064e+00	-7.09866781e+01	-3.04751778e+01	1.21616862e+02	-3.04290461e+01	1.21106382e+02	-8.55747788e+00	-1.19626385e+02
1806953714.29	-1.04299590e+00	-7.10108704e+01	-3.04528359e+01	1.21149967e+02	-3.04258920e+01	1.20614587e+02	-8.55837670e+00	-1.19724870e+02
1807239285.71	-1.04295274e+00	-7.10442653e+01	-3.04483830e+01	1.20725993e+02	-3.03844865e+01	1.20175329e+02	-8.56251352e+00	-1.19778037e+02
1807524857.14	-1.04148170e+00	-7.10755214e+01	-3.04167959e+01	1.20223813e+02	-3.03805238e+01	1.19666132e+02	-8.55614897e+00	-1.19784353e+02
1807810428.57	-1.04749301e+00	-7.11318882e+01	-3.03876626e+01	1.19710010e+02	-3.03651037e+01	1.19214372e+02	-8.56824245e+00	-1.19790406e+02
1808096000	-1.04719810e+00	-7.11260718e+01	-3.04065129e+01	1.19182917e+02	-3.03370966e+01	1.18634859e+02	-8.55691395e+00	-1.19701171e+02
1808381571.43	-1.04885909e+00	-7.11434024e+01	-3.03903268e+01	1.18734880e+02	-3.03072519e+01	1.18125304e+02	-8.55195590e+00	-1.19606655e+02
1808667142.86	-1.04736496e+00	-7.11251553e+01	-3.03228680e+01	1.18193485e+02	-3.02871194e+01	1.17704261e+02	-8.56038730e+00	-1.19745935e+02
1808952714.29	-1.04695529e+00	-7.11556217e+01	-3.03193737e+01	1.17760520e+02	-3.02628543e+01	1.17166648e+02	-8.54685544e+00	-1.19776781e+02
1809238285.71	-1.04557571e+00	-7.11841950e+01	-3.03004505e+01	1.16997452e+02	-3.02399073e+01	1.16569984e+02	-8.56027882e+00	-1.19815148e+02
1809523857.14	-1.04365244e+00	-7.12220517e+01	-3.02594651e+01	1.16465972e+02	-3.02058160e+01	1.16073364e+02	-8.57770676e+00	-1.19685664e+02
1809809428.57	-1.04548886e+00	-7.12327097e+01	-3.02420157e+01	1.15863757e+02	-3.01706777e+01	1.15500465e+02	-8.57724618e+00	-1.19640832e+02
1810095000	-1.04510512e+00	-7.12338982e+01	-3.01993420e+01	1.15420756e+02	-3.01727902e+01	1.14949144e+02	-8.57309292e+00	-1.19759729e+02
1810380571.43	-1.04781264e+00	-7.12307610e+01	-3.02058852e+01	1.14683004e+02	-3.01357052e+01	1.14484411e+02	-8.57308496e+00	-1.19813293e+02
1810666142.86	-1.04758722e+00	-7.12228519e+01	-3.01713711e+01	1.14064324e+02	-3.01060208e+01	1.13847218e+02	-8.58083885e+00	-1.19837074e+02
1810951714.29	-1.05459666e+00	-7.12300268e+01	-3.01472357e+01	1.13529814e+02	-3.00957142e+01	1.13261578e+02	-8.59459826e+00	-1.19806257e+02
1811237285.71	-1.05148821e+00	-7.12501434e+01	-3.01243328e+01	1.13055114e+02	-3.00678499e+01	1.12609529e+02	-8.58884568e+00	-1.19686099e+02
1811522857.14	-1.05433096e+00	-7.12512606e+01	-3.01029709e+01	1.12345967e+02	-3.00388891e+01	1.12004183e+02	-8.57825083e+00	-1.19755169e+02
1811808428.57	-1.05513805e+00	-7.12597011e+01	-3.00896551e+01	1.11540673e+02	-3.00235615e+01	1.11351199e+02	-8.59620859e+00	-1.19669629e+02
1812094000	-1.05435846e+00	-7.13001230e+01	-3.00575971e+01	1.10935629e+02	-2.99941517e+01	1.10751808e+02	-8.59854170e+00	-1.19745233e+02
1812379571.43	-1.05592848e+00	-7.13229279e+01	-3.00443773e+01	1.10271435e+02	-2.99739874e+01	1.10100311e+02	-8.62006778e+00	-1.19665643e+02
1812665142.86	-1.05339943e+00	-7.13396536e+01	-3.00265211e+01	1.09629236e+02	-2.99642470e+01	1.09540342e+02	-8.60118817e+00	-1.19572947e+02
1812950714.29	-1.05610616e+00	-7.13438967e+01	-2.99948578e+01	1.08968195e+02	-2.99350481e+01	1.08792040e+02	-8.60885298e+00	-1.19680766e+02
1813236285.71	-1.05279493e+00	-7.13526847e+01	-3.00024096e+01	1.08269993e+02	-2.99273163e+01	1.08155447e+02	-8.60643241e+00	-1.19523043e+02
1813521857.14	-1.05178605e+00	-7.13356266e+01	-3.00142877e+01	1.07625614e+02	-2.99076101e+01	1.07513226e+02	-8.60303494e+00	-1.19644716e+02
1813807428.57	-1.05322481e+00	-7.13420145e+01	-2.99750825e+01	1.06973988e+02	-2.98796321e+01	1.06879125e+02	-8.62800338e+00	-1.19550411e+02
1814093000	-1.05458767e+00	-7.13442461e+01	-2.99627239e+01	1.06313982e+02	-2.98660591e+01	1.06224405e+02	-8.61082977e+00	-1.19506332e+02
1814378571.43	-1.05219220e+00	-7.13722302e+01	-2.99466407e+01	1.05621820e+02	-2.98631866e+01	1.05600109e+02	-8.61384973e+00	-1.19438241e+02
1814664142.86	-1.05511409e+00	-7.13868201e+01	-2.99545557e+01	1.04929227e+02	-2.98546990e+01	1.04783262e+02	-8.60756989e+00	-1.19514375e+02
1814949714.29	-1.05833406e+00	-7.13855279e+01	-2.99412569e+01	1.04253371e+02	-2.98594615e+01	1.04225870e+02	-8.60520455e+00	-1.19395006e+02
1815235285.71	-1.05823982e+00	-7.14103571e+01	-2.99419349e+01	1.03618849e+02	-2.98500077e+01	1.03554411e+02	-8.61245672e+00	-1.19421431e+02
1815520857.14	-1.06023397e+00	-7.14170200e+01	-2.99370977e+01	1.02977345e+02	-2.98373466e+01	1.02808082e+02	-8.61996217e+00	-1.19309294e+02
1815806428.57	-1.05911733e+00	-7.14516007e+01	-2.99500648e+01	1.02326058e+02	-2.98368665e+01	1.02149203e+02	-8.61237009e+00	-1.19251356e+02
1816092000	-1.05698723e+00	-7.14864953e+01	-2.99292447e+01	1.01518499e+02	-2.98170508e+01	1.01464586e+02	-8.62407655e+00	-1.19170058e+02
1816377571.43	-1.06148117e+00	-7.14767485e+01	-2.99322386e+01	1.00869982e+02	-2.98160961e+01	1.00824222e+02	-8.61671081e+00	-1.19217117e+02
1816663142.86	-1.06335286e+00	-7.14503459e+01	-2.99345500e+01	1.00315188e+02	-2.98254531e+01	1.00233268e+02	-8.61329868e+00	-1.19142181e+02
1816948714.29	-1.06722064e+00	-7.14780569e+01	-2.99535749e+01	9.97605893e+01	-2.98027929e+01	9.96408372e+01	-8.61797225e+00	-1.19066413e+02
1817234285.71	-1.06324136e+00	-7.15000218e+01	-2.99331116e+01	9.89691848e+01	-2.98274406e+01	9.88422600e+01	-8.62168574e+00	-1.19058204e+02
1817519857.14	-1.06393448e+00	-7.15078480e+01	-2.99649654e+01	9.84330178e+01	-2.98293636e+01	9.82121570e+01	-8.62522775e+00	-1.18901474e+02
1817805428.57	-1.06571692e+00	-7.14997974e+01	-2.99825610e+01	9.77668138e+01	-2.98189796e+01	9.76487828e+01	-8.60463945e+00	-1.18876889e+02
1818091000	-1.06766616e+00	-7.14961087e+01	-2.99601183e+01	9.73167783e+01	-2.98154884e+01	9.70373902e+01	-8.60863795e+00	-1.18847473e+02
1818376571.43	-1.06517866e+00	-7.15012566e+01	-2.99231781e+01	9.66118875e+01	-2.98218245e+01	9.63442654e+01	-8.61169749e+00	-1.18822195e+02
1818662142.86	-1.06927086e+00	-7.14943620e+01	-2.99560781e+01	9.59144589e+01	-2.97995881e+01	9.57802914e+01	-8.61111783e+00	-1.18724642e+02
1818947714.29	-1.07339257e+00	-7.15223486e+01	-2.99602845e+01	9.55343531e+01	-2.98182244e+01	9.51043717e+01	-8.61784052e+00	-1.18711536e+02
1819233285.71	-1.07361960e+00	-7.15403369e+01	-2.99571785e+01	9.48095409e+01	-2.98192273e+01	9.45076754e+01	-8.60174969e+00	-1.18643049e+02
1819518857.14	-1.07765588e+00	-7.15464538e+01	-2.99568140e+01	9.43056805e+01	-2.98094304e+01	9.38782890e+01	-8.60703728e+00	-1.18504772e+02
1819804428.57	-1.07681746e+00	-7.15136476e+01	-2.99618254e+01	9.36396839e+01	-2.98096786e+01	9.33344220e+01	-8.59480314e+00	-1.18432671e+02
1820090000	-1.07634347e+00	-7.15476181e+01	-2.99612377e+01	9.29430282e+01	-2.98040288e+01	9.26998474e+01	-8.59456263e+00	-1.18446609e+02
1820375571.43	-1.07553227e+00	-7.15755704e+01	-2.99381000e+01	9.24944558e+01	-2.97974430e+01	9.19725143e+01	-8.59299467e+00	-1.18354880e+02
1820661142.86	-1.07118906e+00	-7.15814785e+01	-2.99478645e+01	9.18961694e+01	-2.97908441e+01	9.14088730e+01	-8.58992734e+00	-1.18300634e+02
1820946714.29	-1.07124215e+00	-7.15425882e+01	-2.99688689e+01	9.13072835e+01	-2.97930675e+01	9.08132604e+01	-8.58507881e+00	-1.18232003e+02
1821232285.71	-1.07142329e+00	-7.15656866e+01	-2.99595066e+01	9.07008079e+01	-2.97930337e+01	9.01340561e+01	-8.57886884e+00	-1.18086662e+02
1821517857.14	-1.07312696e+00	-7.15513944e+01	-2.99402435e+01	9.02456572e+01	-2.97863593e+01	8.95777179e+01	-8.57399450e+00	-1.18025851e+02
1821803428.57	-1.07193348e+00	-7.15652432e+01	-2.99261598e+01	8.95114565e+01	-2.98036704e+01	8.89707830e+01	-8.57338747e+00	-1.18020202e+02
1822089000	-1.07162995e+00	-7.15773664e+01	-2.99375969e+01	8.88918739e+01	-2.97876968e+01	8.83904785e+01	-8.56462483e+00	-1.17879997e+02
1822374571.43	-1.07247074e+00	-7.16035370e+01	-2.99425279e+01	8.83542644e+01	-2.97966274e+01	8.77318214e+01	-8.56247205e+00	-1.17878011e+02
1822660142.86	-1.07298778e+00	-7.15801542e+01	-2.99235107e+01	8.76979464e+01	-2.97991447e+01	8.69386266e+01	-8.55548925e+00	-1.17772687e+02
1822945714.29	-1.07075717e+00	-7.15620096e+01	-2.99164568e+01	8.68943706e+01	-2.97890108e+01	8.63683472e+01	-8.54861297e+00	-1.17652335e+02
1823231285.71	-1.06980067e+00	-7.15776217e+01	-2.99227057e+01	8.65988445e+01	-2.97992459e+01	8.57465766e+01	-8.55119808e+00	-1.17543130e+02
1823516857.14	-1.07272200e+00	-7.15873965e+01	-2.99094830e+01	8.59882783e+01	-2.97935525e+01	8.51267349e+01	-8.53072852e+00	-1.17521183e+02
1823802428.57	-1.07299999e+00	-7.15976478e+01	-2.99014583e+01	8.50157087e+01	-2.97955433e+01	8.44682203e+01	-8.56385886e+00	-1.17355877e+02
1824088000	-1.07359708e+00	-7.15977653e+01	-2.98993613e+01	8.43636807e+01	-2.97966903e+01	8.38735740e+01	-8.52582706e+00	-1.17345246e+02
1824373571.43	-1.06981132e+00	-7.15737928e+01	-2.99139207e+01	8.40075773e+01	-2.97889584e+01	8.32631767e+01	-8.52446189e+00	-1.17251786e+02
1824659142.86	-1.06817057e+00	-7.16121309e+01	-2.99214945e+01	8.32247694e+01	-2.97836020e+01	8.26361670e+01	-8.50759016e+00	-1.17053351e+02
1824944714.29	-1.07034150e+00	-7.16247285e+01	-2.99236331e+01	8.25458370e+01	-2.98116756e+01	8.19761219e+01	-8.49724374e+00	-1.16977367e+02
1825230285.71	-1.06803414e+00	-7.16311501e+01	-2.99147626e+01	8.20581173e+01	-2.98226623e+01	8.12852894e+01	-8.48590893e+00	-1.16908048e+02
1825515857.14	-1.07108328e+00	-7.16423341e+01	-2.99350672e+01	8.14523951e+01	-2.98251171e+01	8.05930157e+01	-8.48205305e+00	-1.16831432e+02
1825801428.57	-1.06983648e+00	-7.16550081e+01	-2.99493741e+01	8.09180559e+01	-2.98242410e+01	7.99920034e+01	-8.47930794e+00	-1.16782934e+02
1826087000	-1.07249398e+00	-7.16241310e+01	-2.99468688e+01	8.02349507e+01	-2.98357091e+01	7.92798777e+01	-8.47708123e+00	-1.16639223e+02
1826372571.43	-1.07188640e+00	-7.16399413e+01	-2.99700012e+01	7.96074330e+01	-2.98431925e+01	7.87543784e+01	-8.46126445e+00	-1.16519219e+02
1826658142.86	-1.07317473e+00	-7.16692758e+01	-2.99453919e+01	7.87806223e+01	-2.98551417e+01	7.81224225e+01	-8.46402978e+00	-1.16442332e+02
1826943714.29	-1.07251974e+00	-7.16886273e+01	-2.99618935e+01	7.83467938e+01	-2.98678787e+01	7.75618650e+01	-8.45196694e+00	-1.16275944e+02
1827229285.71	-1.07208468e+00	-7.16939151e+01	-2.99729139e+01	7.76638833e+01	-2.98811871e+01	7.68934494e+01	-8.43361346e+00	-1.16261061e+02
1827514857.14	-1.07199635e+00	-7.17112097e+01	-2.99650531e+01	7.70412458e+01	-2.98877663e+01	7.63087582e+01	-8.42599574e+00	-1.16172840e+02
1827800428.57	-1.06813682e+00	-7.16860829e+01	-2.99808584e+01	7.66129265e+01	-2.99166863e+01	7.56387793e+01	-8.41135056e+00	-1.16059053e+02
1828086000	-1.06937051e+00	-7.16744839e+01	-2.99949237e+01	7.59874241e+01	-2.99136930e+01	7.50961307e+01	-8.39723704e+00	-1.15937023e+02
1828371571.43	-1.07088591e+00	-7.16648329e+01	-3.00090211e+01	7.52737985e+01	-2.99258280e+01	7.44357782e+01	-8.39707524e+00	-1.15827563e+02
1828657142.86	-1.06843104e+00	-7.16762371e+01	-2.99866702e+01	7.48604670e+01	-2.99182188e+01	7.37917669e+01	-8.39431676e+00	-1.15732819e+02
1828942714.29	-1.06333265e+00	-7.17038163e+01	-2.99971114e+01	7.42009718e+01	-2.99385429e+01	7.32676496e+01	-8.39064044e+00	-1.15526124e+02
1829228285.71	-1.06516352e+00	-7.16886618e+01	-2.99823202e+01	7.36303333e+01	-2.99480805e+01	7.27976988e+01	-8.37650548e+00	-1.15457790e+02
1829513857.14	-1.06195805e+00	-7.16542702e+01	-3.00205370e+01	7.31541727e+01	-2.99516827e+01	7.22424077e+01	-8.36875594e+00	-1.15336175e+02
1829799428.57	-1.06213762e+00	-7.16546909e+01	-3.00101524e+01	7.24674931e+01	-2.99478248e+01	7.15704043e+01	-8.36244901e+00	-1.15364445e+02
1830085000	-1.06124521e+00	-7.16768269e+01	-3.00290424e+01	7.19142476e+01	-2.99637366e+01	7.09935425e+01	-8.33270905e+00	-1.15218046e+02
1830370571.43	-1.06441467e+00	-7.16718296e+01	-3.00473770e+01	7.12387743e+01	-2.99650930e+01	7.04596857e+01	-8.33073913e+00	-1.15232390e+02
1830656142.86	-1.06306369e+00	-7.16796461e+01	-3.00397558e+01	7.07585860e+01	-2.99629897e+01	6.98850602e+01	-8.30864431e+00	-1.15222916e+02
1830941714.29	-1.06094723e+00	-7.16748491e+01	-3.00516255e+01	7.00825056e+01	-2.99886429e+01	6.92100408e+01	-8.30350766e+00	-1.15137104e+02
1831227285.71	-1.05905519e+00	-7.16879988e+01	-3.00211079e+01	6.94438043e+01	-2.99833139e+01	6.86509198e+01	-8.30175584e+00	-1.15151731e+02
1831512857.14	-1.05929714e+00	-7.17062831e+01	-3.00377016e+01	6.88900876e+01	-2.99865295e+01	6.80755612e+01	-8.28973404e+00	-1.15076893e+02
1831798428.57	-1.06140416e+00	-7.17232572e+01	-3.00502436e+01	6.81381457e+01	-3.00038073e+01	6.73949852e+01	-8.27322646e+00	-1.15030687e+02
1832084000	-1.06185249e+00	-7.17505990e+01	-3.00468779e+01	6.77000571e+01	-3.00181768e+01	6.67211328e+01	-8.25916819e+00	-1.15055830e+02
1832369571.43	-1.06122497e+00	-7.17276518e+01	-3.00354158e+01	6.69877395e+01	-3.00048575e+01	6.61511117e+01	-8.26278494e+00	-1.14999026e+02
1832655142.86	-1.06022581e+00	-7.17206598e+01	-3.00516997e+01	6.64042635e+01	-3.00100431e+01	6.55310473e+01	-8.25171343e+00	-1.14852446e+02
1832940714.29	-1.06139479e+00	-7.16963027e+01	-3.00457286e+01	6.57584796e+01	-3.00343095e+01	6.49683322e+01	-8.23139112e+00	-1.14891671e+02
1833226285.71	-1.06245012e+00	-7.17114844e+01	-3.00645141e+01	6.51826979e+01	-3.00381297e+01	6.42665132e+01	-8.23128025e+00	-1.14783601e+02
1833511857.14	-1.06436393e+00	-7.16817295e+01	-3.00805518e+01	6.44662396e+01	-3.00328321e+01	6.36013504e+01	-8.22102869e+00	-1.14928504e+02
1833797428.57	-1.05519906e+00	-7.16676892e+01	-3.00584574e+01	6.41654012e+01	-3.00578608e+01	6.30085223e+01	-8.20553957e+00	-1.14840074e+02
1834083000	-1.05636855e+00	-7.16438296e+01	-3.00961586e+01	6.31259238e+01	-3.00484917e+01	6.22923963e+01	-8.19882422e+00	-1.14805593e+02
1834368571.43	-1.05628741e+00	-7.16450383e+01	-3.01020838e+01	6.25700455e+01	-3.00664420e+01	6.18349243e+01	-8.17825180e+00	-1.14862712e+02
1834654142.86	-1.05958251e+00	-7.16778103e+01	-3.01092997e+01	6.18484798e+01	-3.00752201e+01	6.10472088e+01	-8.14395174e+00	-1.14825822e+02
1834939714.29	-1.05495774e+00	-7.16510522e+01	-3.01072727e+01	6.13029888e+01	-3.01071694e+01	6.04954851e+01	-8.12793808e+00	-1.14786674e+02
1835225285.71	-1.05357629e+00	-7.16418049e+01	-3.01396673e+01	6.07109262e+01	-3.01041128e+01	5.98991284e+01	-8.12853718e+00	-1.14634035e+02
1835510857.14	-1.04917094e+00	-7.16125919e+01	-3.01456164e+01	6.00918357e+01	-3.01183746e+01	5.92842809e+01	-8.11728621e+00	-1.14677369e+02
1835796428.57	-1.05257497e+00	-7.16523941e+01	-3.01647091e+01	5.93758907e+01	-3.01276930e+01	5.86769418e+01	-8.07523813e+00	-1.14698572e+02
1836082000	-1.05302599e+00	-7.16568616e+01	-3.01677876e+01	5.87735841e+01	-3.01512059e+01	5.80451830e+01	-8.06416030e+00	-1.14603991e+02
1836367571.43	-1.04755828e+00	-7.16443182e+01	-3.01986867e+01	5.81782520e+01	-3.01534104e+01	5.74659388e+01	-8.06649752e+00	-1.14773863e+02
1836653142.86	-1.04761326e+00	-7.16303294e+01	-3.01924702e+01	5.75955430e+01	-3.01800955e+01	5.67549704e+01	-8.04380199e+00	-1.14594045e+02
1836938714.29	-1.05308748e+00	-7.16396103e+01	-3.02360039e+01	5.69695908e+01	-3.02064214e+01	5.62074233e+01	-8.01806400e+00	-1.14688520e+02
1837224285.71	-1.05696503e+00	-7.16473062e+01	-3.02485495e+01	5.63333817e+01	-3.02335469e+01	5.56076677e+01	-8.01304810e+00	-1.14655663e+02
1837509857.14	-1.05329452e+00	-7.16456938e+01	-3.02665956e+01	5.56009880e+01	-3.02568298e+01	5.48555845e+01	-8.00910070e+00	-1.14577413e+02
1837795428.57	-1.03736271e+00	-7.16553647e+01	-3.02809121e+01	5.50657476e+01	-3.02717828e+01	5.43676863e+01	-7.98964269e+00	-1.14689906e+02
1838081000	-1.03937381e+00	-7.16514170e+01	-3.02950401e+01	5.44454039e+01	-3.03094921e+01	5.37692877e+01	-7.97752346e+00	-1.14642240e+02
1838366571.43	-1.03948800e+00	-7.15826270e+01	-3.03034335e+01	5.37823800e+01	-3.03187759e+01	5.31579412e+01	-7.97129118e+00	-1.14629961e+02
1838652142.86	-1.03620504e+00	-7.15503353e+01	-3.03638299e+01	5.31470983e+01	-3.03506203e+01	5.26192628e+01	-7.95497566e+00	-1.14686408e+02
1838937714.29	-1.03572601e+00	-7.15275461e+01	-3.03873498e+01	5.27168315e+01	-3.03775000e+01	5.20219686e+01	-7.95599415e+00	-1.14614473e+02
1839223285.71	-1.03180683e+00	-7.15478937e+01	-3.04042532e+01	5.21352254e+01	-3.04123867e+01	5.14167827e+01	-7.93935085e+00	-1.14685081e+02
1839508857.14	-1.03283721e+00	-7.15791844e+01	-3.04494156e+01	5.16270446e+01	-3.04406117e+01	5.08984882e+01	-7.94402668e+00	-1.14647770e+02
1839794428.57	-1.03008713e+00	-7.15755773e+01	-3.04508372e+01	5.10121063e+01	-3.04422690e+01	5.04134099e+01	-7.93769834e+00	-1.14637255e+02
1840080000	-1.02523796e+00	-7.15643792e+01	-3.04862255e+01	5.04840878e+01	-3.04850862e+01	4.96753162e+01	-7.91908354e+00	-1.14732583e+02
1840365571.43	-1.02202283e+00	-7.15221638e+01	-3.05365537e+01	5.01389495e+01	-3.04958808e+01	4.93273733e+01	-7.89965323e+00	-1.14766208e+02
1840651142.86	-1.02516453e+00	-7.15022089e+01	-3.05406022e+01	4.94434336e+01	-3.05514340e+01	4.87583609e+01	-7.88685158e+00	-1.14799533e+02
1840936714.29	-1.02801860e+00	-7.14971671e+01	-3.05900559e+01	4.89141671e+01	-3.05582069e+01	4.83324065e+01	-7.87780333e+00	-1.14849527e+02
1841222285.71	-1.02969336e+00	-7.14945481e+01	-3.05961097e+01	4.85337562e+01	-3.05854100e+01	4.79526250e+01	-7.87057084e+00	-1.14846877e+02
1841507857.14	-1.02796037e+00	-7.14930367e+01	-3.06265337e+01	4.80181970e+01	-3.06202310e+01	4.72918862e+01	-7.85146748e+00	-1.14885875e+02
1841793428.57	-1.01959204e+00	-7.14819574e+01	-3.06675968e+01	4.76619062e+01	-3.06275139e+01	4.67966577e+01	-7.82922654e+00	-1.14924065e+02
1842079000	-1.02590150e+00	-7.14830189e+01	-3.06744681e+01	4.70478736e+01	-3.06636729e+01	4.63413347e+01	-7.81571305e+00	-1.15049695e+02
1842364571.43	-1.02467864e+00	-7.14762876e+01	-3.07110492e+01	4.66989603e+01	-3.06903856e+01	4.58410240e+01	-7.80763587e+00	-1.15123702e+02
1842650142.86	-1.02480316e+00	-7.14411663e+01	-3.07249707e+01	4.61044310e+01	-3.07015366e+01	4.54886885e+01	-7.79040821e+00	-1.15138551e+02
1842935714.29	-1.01960680e+00	-7.14930482e+01	-3.07176191e+01	4.56727897e+01	-3.07290866e+01	4.51383276e+01	-7.77790456e+00	-1.15268252e+02
1843221285.71	-1.01856558e+00	-7.14630889e+01	-3.07697527e+01	4.52103007e+01	-3.07422740e+01	4.45887939e+01	-7.76122383e+00	-1.15318748e+02
1843506857.14	-1.01680618e+00	-7.14257035e+01	-3.07764444e+01	4.48820248e+01	-3.07517583e+01	4.42014576e+01	-7.76555418e+00	-1.15390750e+02
1843792428.57	-1.00876201e+00	-7.14365839e+01	-3.08035201e+01	4.44636095e+01	-3.07761170e+01	4.35753819e+01	-7.75304401e+00	-1.15481484e+02
1844078000	-1.00618473e+00	-7.14189640e+01	-3.08034330e+01	4.40367277e+01	-3.07770630e+01	4.32911231e+01	-7.74310863e+00	-1.15603929e+02
1844363571.43	-1.01483470e+00	-7.14352752e+01	-3.08377527e+01	4.33970490e+01	-3.07889580e+01	4.27654910e+01	-7.72196427e+00	-1.15657537e+02
1844649142.86	-1.01580992e+00	-7.13860544e+01	-3.08455835e+01	4.31434359e+01	-3.08248618e+01	4.23201835e+01	-7.72235753e+00	-1.15670650e+02
1844934714.29	-1.01150395e+00	-7.13865767e+01	-3.08919063e+01	4.25758785e+01	-3.08158694e+01	4.17963124e+01	-7.70526141e+00	-1.15824525e+02
1845220285.71	-1.00815509e+00	-7.13832198e+01	-3.09008188e+01	4.22367274e+01	-3.08390477e+01	4.14834287e+01	-7.71993014e+00	-1.15996460e+02
1845505857.14	-1.00524482e+00	-7.13831561e+01	-3.08998188e+01	4.17415274e+01	-3.08667190e+01	4.09045974e+01	-7.69299443e+00	-1.16102174e+02
1845791428.57	-1.01008299e+00	-7.13785903e+01	-3.09567023e+01	4.11721020e+01	-3.08542861e+01	4.03573989e+01	-7.70076429e+00	-1.16095394e+02
1846077000	-1.00853180e+00	-7.13928833e+01	-3.09388707e+01	4.07292091e+01	-3.08662109e+01	3.99155466e+01	-7.68483328e+00	-1.16185320e+02
1846362571.43	-1.00058256e+00	-7.13526166e+01	-3.09580400e+01	4.03700210e+01	-3.08995294e+01	3.94680961e+01	-7.68208232e+00	-1.16252514e+02
1846648142.86	-1.01105859e+00	-7.14135238e+01	-3.09850586e+01	4.00161731e+01	-3.09013420e+01	3.89781580e+01	-7.66314959e+00	-1.16361385e+02
1846933714.29	-1.00478751e+00	-7.14289234e+01	-3.09764819e+01	3.94101105e+01	-3.09213502e+01	3.84289416e+01	-7.65679073e+00	-1.16454821e+02
1847219285.71	-1.00443836e+00	-7.13870414e+01	-3.10278826e+01	3.90556802e+01	-3.09274021e+01	3.80217143e+01	-7.65397482e+00	-1.16629884e+02
1847504857.14	-1.00003636e+00	-7.14073403e+01	-3.10192600e+01	3.86726587e+01	-3.09575799e+01	3.75164487e+01	-7.64577668e+00	-1.16610629e+02
1847790428.57	-1.00829417e+00	-7.14173452e+01	-3.10462314e+01	3.82081191e+01	-3.09556650e+01	3.69801583e+01	-7.63989329e+00	-1.16716512e+02
1848076000	-1.00348801e+00	-7.13853729e+01	-3.10601268e+01	3.77749160e+01	-3.09622460e+01	3.66167088e+01	-7.64944481e+00	-1.16792443e+02
1848361571.43	-1.00111678e+00	-7.13946762e+01	-3.10602606e+01	3.73367745e+01	-3.09812490e+01	3.61381538e+01	-7.63906320e+00	-1.16866075e+02
1848647142.86	-1.00467734e+00	-7.14240124e+01	-3.10466294e+01	3.69151473e+01	-3.10028293e+01	3.57078309e+01	-7.63598740e+00	-1.16910590e+02
1848932714.29	-1.00284331e+00	-7.13860308e+01	-3.10708651e+01	3.64159839e+01	-3.10331124e+01	3.53755950e+01	-7.62895925e+00	-1.16977593e+02
1849218285.71	-9.98987431e-01	-7.14186124e+01	-3.10860883e+01	3.60505175e+01	-3.10329189e+01	3.48218250e+01	-7.62074425e+00	-1.17035918e+02
1849503857.14	-1.00219770e+00	-7.13799016e+01	-3.10977253e+01	3.57507930e+01	-3.10453113e+01	3.44376527e+01	-7.61684949e+00	-1.17196770e+02
1849789428.57	-9.96673689e-01	-7.13675295e+01	-3.10758384e+01	3.53907190e+01	-3.10545191e+01	3.38888335e+01	-7.62115438e+00	-1.17202352e+02
1850075000	-9.91413093e-01	-7.13436918e+01	-3.11018251e+01	3.50064297e+01	-3.10657101e+01	3.37049763e+01	-7.61763578e+00	-1.17315808e+02
1850360571.43	-9.92463093e-01	-7.13818991e+01	-3.11081294e+01	3.44732926e+01	-3.10644588e+01	3.32225960e+01	-7.60133058e+00	-1.17358480e+02
1850646142.86	-9.87990628e-01	-7.13880941e+01	-3.11011268e+01	3.41583571e+01	-3.10651663e+01	3.26461742e+01	-7.62284207e+00	-1.17427446e+02
1850931714.29	-9.89433038e-01	-7.14102344e+01	-3.11154132e+01	3.38738625e+01	-3.10837155e+01	3.22406305e+01	-7.63278832e+00	-1.17529502e+02
1851217285.71	-9.89500288e-01	-7.14107051e+01	-3.11226280e+01	3.33042904e+01	-3.10974245e+01	3.18847267e+01	-7.61745121e+00	-1.17582174e+02
1851502857.14	-9.90536437e-01	-7.14090780e+01	-3.11152405e+01	3.31001342e+01	-3.10832510e+01	3.14448425e+01	-7.61942253e+00	-1.17620956e+02
1851788428.57	-9.87620663e-01	-7.14514728e+01	-3.11250964e+01	3.24265405e+01	-3.10958220e+01	3.09575075e+01	-7.61141715e+00	-1.17714976e+02
1852074000	-9.86215964e-01	-7.14714505e+01	-3.11079865e+01	3.21508248e+01	-3.10835059e+01	3.05835437e+01	-7.59583031e+00	-1.17843134e+02
1852359571.43	-9.85407165e-01	-7.14758742e+01	-3.10944821e+01	3.16607613e+01	-3.10820919e+01	3.00936088e+01	-7.59853323e+00	-1.17939117e+02
1852645142.86	-9.90486258e-01	-7.14318574e+01	-3.10809519e+01	3.11771886e+01	-3.10909535e+01	2.96388383e+01	-7.58271967e+00	-1.17997885e+02
1852930714.29	-9.89969226e-01	-7.14469418e+01	-3.10755287e+01	3.09555160e+01	-3.10855880e+01	2.92812763e+01	-7.58407988e+00	-1.18112106e+02
1853216285.71	-9.89212554e-01	-7.14524794e+01	-3.10590786e+01	3.03927351e+01	-3.10870793e+01	2.87201849e+01	-7.57412016e+00	-1.18159735e+02
1853501857.14	-9.85851795e-01	-7.14509920e+01	-3.10467845e+01	2.98965330e+01	-3.10944202e+01	2.82935402e+01	-7.56227626e+00	-1.18291787e+02
1853787428.57	-9.81739057e-01	-7.14440891e+01	-3.10358853e+01	2.92762151e+01	-3.10919781e+01	2.76666957e+01	-7.56287474e+00	-1.18421796e+02
1854073000	-9.76807794e-01	-7.14859108e+01	-3.10130452e+01	2.89037274e+01	-3.10974268e+01	2.71885101e+01	-7.55244041e+00	-1.18542418e+02
1854358571.43	-9.80821667e-01	-7.14522451e+01	-3.09744165e+01	2.85673083e+01	-3.10733493e+01	2.68118336e+01	-7.54898425e+00	-1.18639940e+02
1854644142.86	-9.77029012e-01	-7.14297568e+01	-3.09864249e+01	2.80019342e+01	-3.10844665e+01	2.62830673e+01	-7.54081927e+00	-1.18674645e+02
1854929714.29	-9.75970436e-01	-7.14144114e+01	-3.09905586e+01	2.74518588e+01	-3.10736986e+01	2.56489298e+01	-7.52231767e+00	-1.18813877e+02
1855215285.71	-9.76669474e-01	-7.13735710e+01	-3.09696504e+01	2.70303761e+01	-3.10812230e+01	2.51252207e+01	-7.52011126e+00	-1.18911335e+02
1855500857.14	-9.76796657e-01	-7.14281666e+01	-3.09770334e+01	2.62395655e+01	-3.10859640e+01	2.46892691e+01	-7.51400677e+00	-1.19021995e+02
1855786428.57	-9.73797951e-01	-7.14473595e+01	-3.09859604e+01	2.58010259e+01	-3.10892509e+01	2.41033508e+01	-7.51698360e+00	-1.19007129e+02
1856072000	-9.73220890e-01	-7.14699959e+01	-3.09621998e+01	2.51419883e+01	-3.10996004e+01	2.35404142e+01	-7.50783723e+00	-1.19113743e+02
1856357571.43	-9.77259560e-01	-7.14674674e+01	-3.09570556e+01	2.47090374e+01	-3.10951337e+01	2.30091948e+01	-7.50068398e+00	-1.19248474e+02
1856643142.86	-9.77393770e-01	-7.15063781e+01	-3.09693993e+01	2.41301119e+01	-3.11009742e+01	2.23691857e+01	-7.50477259e+00	-1.19371029e+02
1856928714.29	-9.69756080e-01	-7.14734399e+01	-3.09629390e+01	2.34514781e+01	-3.11228594e+01	2.19953335e+01	-7.49037907e+00	-1.19430078e+02
1857214285.71	-9.66953339e-01	-7.14917864e+01	-3.09598904e+01	2.30218627e+01	-3.11387714e+01	2.14810400e+01	-7.48481029e+00	-1.19571632e+02
1857499857.14	-9.68467134e-01	-7.15129741e+01	-3.09590374e+01	2.24119893e+01	-3.11302397e+01	2.08064923e+01	-7.49841221e+00	-1.19574507e+02
1857785428.57	-9.71615639e-01	-7.15199647e+01	-3.09585742e+01	2.17862516e+01	-3.11414000e+01	2.03276036e+01	-7.48741920e+00	-1.19724939e+02
1858071000	-9.68825480e-01	-7.15394879e+01	-3.09994519e+01	2.11708543e+01	-3.11691373e+01	1.97426971e+01	-7.48858945e+00	-1.19826616e+02
1858356571.43	-9.64652195e-01	-7.15433241e+01	-3.09735873e+01	2.07538392e+01	-3.11689002e+01	1.93129648e+01	-7.47633430e+00	-1.19872104e+02
1858642142.86	-9.69605826e-01	-7.15228018e+01	-3.09814761e+01	2.00903365e+01	-3.11652811e+01	1.87642738e+01	-7.48073286e+00	-1.19935966e+02
1858927714.29	-9.73290101e-01	-7.15522880e+01	-3.09777280e+01	1.96373385e+01	-3.12093240e+01	1.83001672e+01	-7.47921698e+00	-1.20149440e+02
1859213285.71	-9.74043950e-01	-7.15605536e+01	-3.09872904e+01	1.90778867e+01	-3.12060216e+01	1.76382931e+01	-7.47766114e+00	-1.20277651e+02
1859498857.14	-9.65557208e-01	-7.15282399e+01	-3.10031591e+01	1.87152192e+01	-3.12159637e+01	1.71837135e+01	-7.48995952e+00	-1.20244679e+02
1859784428.57	-9.57047155e-01	-7.15318018e+01	-3.10180201e+01	1.80669953e+01	-3.12380452e+01	1.67176229e+01	-7.49293503e+00	-1.20325835e+02
1860070000	-9.54846839e-01	-7.15460986e+01	-3.10237679e+01	1.74626625e+01	-3.12452384e+01	1.61584570e+01	-7.48985783e+00	-1.20482865e+02
1860355571.43	-9.52571790e-01	-7.15732650e+01	-3.10220861e+01	1.69604445e+01	-3.12591014e+01	1.57591453e+01	-7.47799394e+00	-1.20568760e+02
1860641142.86	-9.54072309e-01	-7.15951440e+01	-3.10480431e+01	1.63105520e+01	-3.12583473e+01	1.51509968e+01	-7.48436632e+00	-1.20681674e+02
1860926714.29	-9.57931038e-01	-7.15855802e+01	-3.10464129e+01	1.57316694e+01	-3.13009231e+01	1.45846093e+01	-7.48091017e+00	-1.20763546e+02
1861212285.71	-9.56616990e-01	-7.15897802e+01	-3.10506940e+01	1.52031767e+01	-3.12927042e+01	1.41627109e+01	-7.48857515e+00	-1.20831994e+02
1861497857.14	-9.53350543e-01	-7.16069084e+01	-3.10784498e+01	1.46710865e+01	-3.13239334e+01	1.38134724e+01	-7.49063253e+00	-1.21020618e+02
1861783428.57	-9.54115469e-01	-7.16380220e+01	-3.10924633e+01	1.40333942e+01	-3.13315941e+01	1.32242372e+01	-7.48361612e+00	-1.21088869e+02
1862069000	-9.55959763e-01	-7.16689330e+01	-3.11072154e+01	1.36014660e+01	-3.13627455e+01	1.27983290e+01	-7.49350989e+00	-1.21195372e+02
1862354571.43	-9.53372995e-01	-7.16528938e+01	-3.11166637e+01	1.30132742e+01	-3.13465185e+01	1.22836220e+01	-7.48923941e+00	-1.21228694e+02
1862640142.86	-9.46474388e-01	-7.16822515e+01	-3.11152649e+01	1.24228220e+01	-3.13696295e+01	1.17070581e+01	-7.48370833e+00	-1.21374913e+02
1862925714.29	-9.42702783e-01	-7.16632167e+01	-3.11450365e+01	1.18711908e+01	-3.13931888e+01	1.12934896e+01	-7.47328874e+00	-1.21551134e+02
1863211285.71	-9.42614713e-01	-7.16761570e+01	-3.11359610e+01	1.15072401e+01	-3.13957706e+01	1.08402195e+01	-7.48131766e+00	-1.21595828e+02
1863496857.14	-9.45891145e-01	-7.16791771e+01	-3.11250594e+01	1.09496126e+01	-3.14329529e+01	1.04080766e+01	-7.48589102e+00	-1.21785485e+02
1863782428.57	-9.44960379e-01	-7.16832577e+01	-3.11592699e+01	1.03202500e+01	-3.14346415e+01	9.86369836e+00	-7.48046645e+00	-1.21885882e+02
1864068000	-9.39915896e-01	-7.16920934e+01	-3.12003447e+01	9.66379089e+00	-3.14475604e+01	9.55520143e+00	-7.47795267e+00	-1.21913953e+02
1864353571.43	-9.44212438e-01	-7.16664689e+01	-3.12149845e+01	9.44293783e+00	-3.14575067e+01	8.99878945e+00	-7.48041387e+00	-1.22073157e+02
1864639142.86	-9.40459753e-01	-7.17172598e+01	-3.12162191e+01	8.95070566e+00	-3.14764692e+01	8.62999316e+00	-7.47660131e+00	-1.22078488e+02
1864924714.29	-9.34209215e-01	-7.17537791e+01	-3.12621907e+01	8.28838262e+00	-3.14772686e+01	8.09414956e+00	-7.48077662e+00	-1.22128012e+02
1865210285.71	-9.32375015e-01	-7.17516938e+01	-3.12572324e+01	7.85496779e+00	-3.15005294e+01	7.82965145e+00	-7.47268430e+00	-1.22323459e+02
1865495857.14	-9.36294438e-01	-7.17737701e+01	-3.12881766e+01	7.24046135e+00	-3.15231582e+01	7.25991689e+00	-7.47768341e+00	-1.22417472e+02
1865781428.57	-9.33220797e-01	-7.17906799e+01	-3.12789827e+01	6.73731576e+00	-3.15282113e+01	6.92597879e+00	-7.47513509e+00	-1.22482662e+02
1866067000	-9.27304162e-01	-7.18119868e+01	-3.12932899e+01	6.28624088e+00	-3.15585375e+01	6.51059332e+00	-7.46295621e+00	-1.22629615e+02
1866352571.43	-9.30663986e-01	-7.18116972e+01	-3.13290274e+01	5.81824561e+00	-3.15734630e+01	5.99033527e+00	-7.45130139e+00	-1.22657377e+02
1866638142.86	-9.25581108e-01	-7.18181455e+01	-3.13451358e+01	5.38445888e+00	-3.15803498e+01	5.44152655e+00	-7.45727855e+00	-1.22765568e+02
1866923714.29	-9.24852995e-01	-7.18231640e+01	-3.13480398e+01	4.76969549e+00	-3.15756842e+01	5.10478669e+00	-7.44696800e+00	-1.22846007e+02
1867209285.71	-9.26331488e-01	-7.18468707e+01	-3.13710135e+01	4.40809766e+00	-3.16088625e+01	4.82290042e+00	-7.44370056e+00	-1.22898317e+02
1867494857.14	-9.23463965e-01	-7.18413094e+01	-3.13858895e+01	3.87343379e+00	-3.16093617e+01	4.35211041e+00	-7.44953369e+00	-1.23063665e+02
1867780428.57	-9.26819805e-01	-7.18710716e+01	-3.14070165e+01	3.54431098e+00	-3.16135841e+01	3.76301225e+00	-7.43571913e+00	-1.23096309e+02
1868066000	-9.29240531e-01	-7.18823462e+01	-3.14198828e+01	3.00008572e+00	-3.16180550e+01	3.54422193e+00	-7.44721330e+00	-1.23239996e+02
1868351571.43	-9.27006951e-01	-7.19198824e+01	-3.14300475e+01	2.42873379e+00	-3.16454882e+01	3.08415237e+00	-7.43004905e+00	-1.23400199e+02
1868637142.86	-9.19067127e-01	-7.19094447e+01	-3.14592356e+01	1.96356755e+00	-3.16498175e+01	2.65780015e+00	-7.44334608e+00	-1.23390944e+02
1868922714.29	-9.16465562e-01	-7.19286769e+01	-3.14747636e+01	1.54188471e+00	-3.16438943e+01	2.16370991e+00	-7.45312875e+00	-1.23508317e+02
1869208285.71	-9.17933717e-01	-7.19609113e+01	-3.14775537e+01	1.03844240e+00	-3.16732258e+01	1.78501014e+00	-7.45052256e+00	-1.23567087e+02
1869493857.14	-9.19724159e-01	-7.19703832e+01	-3.14616596e+01	7.21856520e-01	-3.16690031e+01	1.31446148e+00	-7.44981372e+00	-1.23750904e+02
1869779428.57	-9.14326429e-01	-7.19963000e+01	-3.15306949e+01	3.28302340e-01	-3.16912703e+01	1.04913383e+00	-7.44180883e+00	-1.23793973e+02
1870065000	-9.12559829e-01	-7.20273448e+01	-3.15111750e+01	-2.00746809e-01	-3.16834877e+01	5.86750638e-01	-7.43888551e+00	-1.23883740e+02
1870350571.43	-9.13968389e-01	-7.20553611e+01	-3.15621051e+01	-6.02318672e-01	-3.16917012e+01	1.81960918e-01	-7.43244727e+00	-1.23968211e+02
1870636142.86	-9.11630580e-01	-7.20845877e+01	-3.15802053e+01	-1.00182618e+00	-3.16836623e+01	-1.34295691e-01	-7.42598530e+00	-1.23999447e+02
1870921714.29	-9.07314083e-01	-7.20872229e+01	-3.15431511e+01	-1.72073017e+00	-3.16925680e+01	-6.57754766e-01	-7.42596910e+00	-1.24124226e+02
1871207285.71	-9.07829712e-01	-7.21005841e+01	-3.15697690e+01	-1.88073579e+00	-3.17042824e+01	-1.07666397e+00	-7.42187533e+00	-1.24124554e+02
1871492857.14	-9.05553430e-01	-7.21098967e+01	-3.15965151e+01	-2.25244632e+00	-3.17055633e+01	-1.39722068e+00	-7.42090787e+00	-1.24268851e+02
1871778428.57	-9.06805341e-01	-7.21353396e+01	-3.15772787e+01	-2.72558203e+00	-3.17099098e+01	-1.69029426e+00	-7.42316498e+00	-1.24283816e+02
1872064000	-9.05831892e-01	-7.21379405e+01	-3.15967850e+01	-3.06275763e+00	-3.17002642e+01	-2.24554328e+00	-7.42497622e+00	-1.24358335e+02
1872349571.43	-9.05171938e-01	-7.21649923e+01	-3.15997845e+01	-3.70711525e+00	-3.17053286e+01	-2.64768425e+00	-7.42992368e+00	-1.24473503e+02
1872635142.86	-9.00353176e-01	-7.21672737e+01	-3.16115843e+01	-3.95113542e+00	-3.17113775e+01	-3.00417099e+00	-7.43016759e+00	-1.24469255e+02
1872920714.29	-9.04461322e-01	-7.21885735e+01	-3.16217340e+01	-4.41327691e+00	-3.16889624e+01	-3.44024578e+00	-7.41997586e+00	-1.24587769e+02
1873206285.71	-9.02748541e-01	-7.22214865e+01	-3.16176930e+01	-4.71884385e+00	-3.16898237e+01	-3.96871795e+00	-7.40500915e+00	-1.24703208e+02
1873491857.14	-9.02117169e-01	-7.22477755e+01	-3.16378932e+01	-5.38052967e+00	-3.17120445e+01	-4.41432596e+00	-7.41430785e+00	-1.24677338e+02
1873777428.57	-9.03678024e-01	-7.22784058e+01	-3.16167801e+01	-5.52082408e+00	-3.16890720e+01	-4.85237201e+00	-7.42618188e+00	-1.24744415e+02
1874063000	-8.99055039e-01	-7.22797569e+01	-3.16469223e+01	-6.08860662e+00	-3.16764439e+01	-5.11588090e+00	-7.41780379e+00	-1.24783320e+02
1874348571.43	-8.94774582e-01	-7.23004061e+01	-3.16582882e+01	-6.52025452e+00	-3.16725205e+01	-5.69344268e+00	-7.41912413e+00	-1.24880929e+02
1874634142.86	-8.95124891e-01	-7.23272380e+01	-3.16407852e+01	-6.92603516e+00	-3.16728700e+01	-5.97207538e+00	-7.41816576e+00	-1.24888998e+02
1874919714.29	-8.92953155e-01	-7.23323026e+01	-3.16548583e+01	-7.49933094e+00	-3.16734441e+01	-6.35758162e+00	-7.41104347e+00	-1.24830745e+02
1875205285.71	-8.87093966e-01	-7.23580216e+01	-3.16445893e+01	-7.90363493e+00	-3.16665053e+01	-6.89505330e+00	-7.39659070e+00	-1.25068931e+02
1875490857.14	-8.85375885e-01	-7.23899345e+01	-3.16497581e+01	-8.33383158e+00	-3.16700193e+01	-7.42322861e+00	-7.41362354e+00	-1.24995412e+02
1875776428.57	-8.86821560e-01	-7.24007411e+01	-3.16480096e+01	-8.94248989e+00	-3.16556265e+01	-7.73028732e+00	-7.40376087e+00	-1.24956291e+02
1876062000	-8.83834011e-01	-7.24099754e+01	-3.16595220e+01	-9.33108918e+00	-3.16524087e+01	-8.12208318e+00	-7.41319599e+00	-1.25084647e+02
1876347571.43	-8.81048037e-01	-7.24178021e+01	-3.16299826e+01	-9.56462792e+00	-3.16496422e+01	-8.64424687e+00	-7.40357974e+00	-1.25163343e+02
1876633142.86	-8.81227560e-01	-7.24465386e+01	-3.16289230e+01	-1.00529472e+01	-3.16491121e+01	-9.11587888e+00	-7.40580910e+00	-1.25198477e+02
1876918714.29	-8.83123327e-01	-7.24548455e+01	-3.16360537e+01	-1.06122533e+01	-3.16330277e+01	-9.51171687e+00	-7.40493725e+00	-1.25241559e+02
1877204285.71	-8.81989574e-01	-7.25037318e+01	-3.16159167e+01	-1.11498729e+01	-3.16321933e+01	-1.00635236e+01	-7.40685679e+00	-1.25160866e+02
1877489857.14	-8.80381282e-01	-7.25100484e+01	-3.16140863e+01	-1.14504539e+01	-3.16122248e+01	-1.04383261e+01	-7.39470778e+00	-1.25145765e+02
1877775428.57	-8.79816970e-01	-7.25418567e+01	-3.16280204e+01	-1.17402209e+01	-3.16009897e+01	-1.10103345e+01	-7.39816038e+00	-1.25141462e+02
1878061000	-8.76902768e-01	-7.25704949e+01	-3.16277240e+01	-1.24750951e+01	-3.16082517e+01	-1.14376399e+01	-7.39819346e+00	-1.25276184e+02
1878346571.43	-8.75784877e-01	-7.25887162e+01	-3.16136187e+01	-1.27961357e+01	-3.15809070e+01	-1.19874381e+01	-7.39875203e+00	-1.25215998e+02
1878632142.86	-8.77223612e-01	-7.26420427e+01	-3.16286700e+01	-1.34877345e+01	-3.15815228e+01	-1.23465878e+01	-7.39496527e+00	-1.25204234e+02
1878917714.29	-8.74107348e-01	-7.26469272e+01	-3.16232473e+01	-1.39743355e+01	-3.15711660e+01	-1.29339693e+01	-7.37966498e+00	-1.25191380e+02
1879203285.71	-8.72765088e-01	-7.26717704e+01	-3.16230923e+01	-1.44639747e+01	-3.15505382e+01	-1.34747366e+01	-7.38040799e+00	-1.25212506e+02
1879488857.14	-8.72151870e-01	-7.26918862e+01	-3.16112491e+01	-1.49744129e+01	-3.15365450e+01	-1.40453699e+01	-7.38640429e+00	-1.25215647e+02
1879774428.57	-8.71340754e-01	-7.27210026e+01	-3.16134313e+01	-1.56175154e+01	-3.15411755e+01	-1.44649292e+01	-7.37221045e+00	-1.25230164e+02
1880060000	-8.74686793e-01	-7.27243358e+01	-3.15812915e+01	-1.60331070e+01	-3.15499215e+01	-1.50528746e+01	-7.37260714e+00	-1.25085065e+02
1880345571.43	-8.77038992e-01	-7.27285166e+01	-3.16103592e+01	-1.64726910e+01	-3.15318908e+01	-1.55567987e+01	-7.38450335e+00	-1.25191549e+02
1880631142.86	-8.73527293e-01	-7.27651064e+01	-3.15889749e+01	-1.70814595e+01	-3.15145534e+01	-1.60057988e+01	-7.37466662e+00	-1.25111448e+02
1880916714.29	-8.69794597e-01	-7.27512692e+01	-3.15687202e+01	-1.75242713e+01	-3.14969956e+01	-1.66039121e+01	-7.37629461e+00	-1.25057419e+02
1881202285.71	-8.72564907e-01	-7.27776139e+01	-3.16084415e+01	-1.79607703e+01	-3.15037920e+01	-1.72415409e+01	-7.35782514e+00	-1.25042914e+02
1881487857.14	-8.68889692e-01	-7.28020761e+01	-3.15897737e+01	-1.85941764e+01	-3.14772298e+01	-1.78903827e+01	-7.34994767e+00	-1.24965390e+02
1881773428.57	-8.68293636e-01	-7.28187621e+01	-3.16178672e+01	-1.92634101e+01	-3.14960886e+01	-1.83360586e+01	-7.33852184e+00	-1.24891656e+02
1882059000	-8.67561482e-01	-7.28385762e+01	-3.15668042e+01	-1.96405340e+01	-3.14965335e+01	-1.90526002e+01	-7.33414573e+00	-1.24864005e+02
1882344571.43	-8.67402160e-01	-7.28639468e+01	-3.16030986e+01	-2.02689033e+01	-3.14773550e+01	-1.96934034e+01	-7.32964689e+00	-1.24843613e+02
1882630142.86	-8.66332538e-01	-7.28901196e+01	-3.16070211e+01	-2.08783964e+01	-3.14916809e+01	-2.02108738e+01	-7.31847023e+00	-1.24792644e+02
1882915714.29	-8.62189178e-01	-7.29120981e+01	-3.16288970e+01	-2.14997756e+01	-3.15086121e+01	-2.06626957e+01	-7.31866172e+00	-1.24686376e+02
1883201285.71	-8.66044873e-01	-7.29461890e+01	-3.16369109e+01	-2.20500027e+01	-3.15274454e+01	-2.12096367e+01	-7.30882708e+00	-1.24714441e+02
1883486857.14	-8.63324982e-01	-7.29961692e+01	-3.16287420e+01	-2.24386822e+01	-3.15164243e+01	-2.18987073e+01	-7.30200333e+00	-1.24600474e+02
1883772428.57	-8.57828456e-01	-7.29791356e+01	-3.16309227e+01	-2.30231480e+01	-3.15099807e+01	-2.23959251e+01	-7.28495898e+00	-1.24548589e+02
1884058000	-8.58057804e-01	-7.30021602e+01	-3.16501919e+01	-2.36907592e+01	-3.15088552e+01	-2.30939856e+01	-7.29373430e+00	-1.24576324e+02
1884343571.43	-8.50726742e-01	-7.30325841e+01	-3.16480259e+01	-2.42339407e+01	-3.15346465e+01	-2.36198834e+01	-7.28579242e+00	-1.24444029e+02
1884629142.86	-8.50559944e-01	-7.30543531e+01	-3.16700328e+01	-2.47350153e+01	-3.15440118e+01	-2.42083270e+01	-7.26836072e+00	-1.24396592e+02
1884914714.29	-8.52603857e-01	-7.30975133e+01	-3.16620311e+01	-2.54127925e+01	-3.15456952e+01	-2.46722376e+01	-7.25988812e+00	-1.24367979e+02
1885200285.71	-8.53883376e-01	-7.31051818e+01	-3.16822092e+01	-2.58958020e+01	-3.15630436e+01	-2.52115913e+01	-7.26421754e+00	-1.24289908e+02
1885485857.14	-8.54423020e-01	-7.31130595e+01	-3.17050758e+01	-2.62858197e+01	-3.15786401e+01	-2.59406060e+01	-7.26774339e+00	-1.24125745e+02
1885771428.57	-8.53252712e-01	-7.31812643e+01	-3.17118577e+01	-2.70141779e+01	-3.15922486e+01	-2.64373922e+01	-7.24379528e+00	-1.24129847e+02
1886057000	-8.52579302e-01	-7.31989270e+01	-3.17470940e+01	-2.72893878e+01	-3.15899855e+01	-2.68954746e+01	-7.23602169e+00	-1.24025313e+02
1886342571.43	-8.50746041e-01	-7.32235680e+01	-3.17596395e+01	-2.78553133e+01	-3.16111133e+01	-2.74187833e+01	-7.22215176e+00	-1.23912049e+02
1886628142.86	-8.48632275e-01	-7.32262877e+01	-3.17545807e+01	-2.83913685e+01	-3.16241500e+01	-2.79370885e+01	-7.21978500e+00	-1.23886023e+02
1886913714.29	-8.45695565e-01	-7.32352928e+01	-3.17435540e+01	-2.89390591e+01	-3.16438721e+01	-2.83373606e+01	-7.21072826e+00	-1.23832174e+02
1887199285.71	-8.43357163e-01	-7.32736494e+01	-3.17629067e+01	-2.93629201e+01	-3.16646146e+01	-2.89539558e+01	-7.19979813e+00	-1.23633280e+02
1887484857.14	-8.45067338e-01	-7.32906716e+01	-3.17993241e+01	-2.97981750e+01	-3.16604520e+01	-2.93621602e+01	-7.19713442e+00	-1.23532045e+02
1887770428.57	-8.44782755e-01	-7.33190897e+01	-3.18002056e+01	-3.02897823e+01	-3.16890465e+01	-2.99791646e+01	-7.18579754e+00	-1.23559587e+02
1888056000	-8.40120004e-01	-7.33565982e+01	-3.18174314e+01	-3.07509188e+01	-3.16915577e+01	-3.04172318e+01	-7.17444431e+00	-1.23541954e+02
1888341571.43	-8.37667537e-01	-7.33599994e+01	-3.18194045e+01	-3.12698249e+01	-3.17030364e+01	-3.09070865e+01	-7.15903062e+00	-1.23388180e+02
1888627142.86	-8.38877680e-01	-7.33602886e+01	-3.18205032e+01	-3.15455776e+01	-3.17328112e+01	-3.12827477e+01	-7.16050783e+00	-1.23501420e+02
1888912714.29	-8.39476332e-01	-7.34056179e+01	-3.18690704e+01	-3.21082338e+01	-3.17559854e+01	-3.17994845e+01	-7.16327546e+00	-1.23320197e+02
1889198285.71	-8.38080977e-01	-7.34318379e+01	-3.18331344e+01	-3.25793726e+01	-3.17361764e+01	-3.23014174e+01	-7.13403752e+00	-1.23320968e+02
1889483857.14	-8.38477131e-01	-7.34709409e+01	-3.18347010e+01	-3.30542068e+01	-3.17682776e+01	-3.27649148e+01	-7.12949630e+00	-1.23270265e+02
1889769428.57	-8.39361771e-01	-7.34902529e+01	-3.18583721e+01	-3.36294218e+01	-3.17649022e+01	-3.32194075e+01	-7.11364159e+00	-1.23254105e+02
1890055000	-8.37978509e-01	-7.35177415e+01	-3.18768266e+01	-3.39738568e+01	-3.17789773e+01	-3.36832619e+01	-7.10692262e+00	-1.23275527e+02
1890340571.43	-8.33720909e-01	-7.35328073e+01	-3.19050710e+01	-3.44079873e+01	-3.17695858e+01	-3.41957212e+01	-7.09306495e+00	-1.23266786e+02
1890626142.86	-8.32016368e-01	-7.35578765e+01	-3.18775303e+01	-3.47392927e+01	-3.17810989e+01	-3.46490156e+01	-7.08396079e+00	-1.23231179e+02
1890911714.29	-8.33621411e-01	-7.35881936e+01	-3.18849190e+01	-3.55010338e+01	-3.17832139e+01	-3.52479200e+01	-7.07795980e+00	-1.23132958e+02
1891197285.71	-8.30310857e-01	-7.36264611e+01	-3.18784411e+01	-3.56785112e+01	-3.18043974e+01	-3.56408180e+01	-7.05726046e+00	-1.23218769e+02
1891482857.14	-8.29810481e-01	-7.36642899e+01	-3.19153815e+01	-3.62443732e+01	-3.18117349e+01	-3.62388179e+01	-7.04197564e+00	-1.23168876e+02
1891768428.57	-8.28592187e-01	-7.36783042e+01	-3.18784664e+01	-3.67721760e+01	-3.18105538e+01	-3.67185321e+01	-7.04480542e+00	-1.23089515e+02
1892054000	-8.30189177e-01	-7.37245712e+01	-3.19246586e+01	-3.71823665e+01	-3.18230594e+01	-3.72464681e+01	-7.02592141e+00	-1.23059719e+02
1892339571.43	-8.30847757e-01	-7.37615986e+01	-3.18964101e+01	-3.77068275e+01	-3.18031265e+01	-3.75728714e+01	-7.01442141e+00	-1.22997540e+02
1892625142.86	-8.23048748e-01	-7.37587072e+01	-3.18926003e+01	-3.81021925e+01	-3.18284970e+01	-3.81571430e+01	-7.00243696e+00	-1.23043092e+02
1892910714.29	-8.26852209e-01	-7.37628249e+01	-3.19146718e+01	-3.87034064e+01	-3.18187606e+01	-3.86178521e+01	-6.98055411e+00	-1.22911264e+02
1893196285.71	-8.28993469e-01	-7.37813731e+01	-3.18996876e+01	-3.92670722e+01	-3.18226656e+01	-3.90709208e+01	-6.95792624e+00	-1.22863026e+02
1893481857.14	-8.26621465e-01	-7.38263939e+01	-3.19283469e+01	-3.95597104e+01	-3.18302175e+01	-3.95565081e+01	-6.95526940e+00	-1.22834567e+02
1893767428.57	-8.19133948e-01	-7.38590139e+01	-3.19230776e+01	-4.00570485e+01	-3.18270996e+01	-4.00438438e+01	-6.93761829e+00	-1.22828926e+02
1894053000	-8.18033415e-01	-7.39094312e+01	-3.19103491e+01	-4.05305580e+01	-3.18223706e+01	-4.05380319e+01	-6.92544420e+00	-1.22720736e+02
1894338571.43	-8.21240023e-01	-7.38618393e+01	-3.18818603e+01	-4.10487958e+01	-3.18202669e+01	-4.09439113e+01	-6.90284463e+00	-1.22721971e+02
1894624142.86	-8.22559988e-01	-7.38765909e+01	-3.19083031e+01	-4.14701700e+01	-3.18398709e+01	-4.14407005e+01	-6.88555678e+00	-1.22605236e+02
1894909714.29	-8.20840610e-01	-7.38959401e+01	-3.18985597e+01	-4.18406308e+01	-3.18269633e+01	-4.19435431e+01	-6.88920640e+00	-1.22607311e+02
1895195285.71	-8.15693919e-01	-7.38942608e+01	-3.19018841e+01	-4.24383737e+01	-3.18314775e+01	-4.24148950e+01	-6.87691114e+00	-1.22507999e+02
1895480857.14	-8.21315315e-01	-7.39275995e+01	-3.19132828e+01	-4.27616111e+01	-3.18361774e+01	-4.28847375e+01	-6.87028301e+00	-1.22459193e+02
1895766428.57	-8.25450687e-01	-7.39651155e+01	-3.18974160e+01	-4.34843917e+01	-3.18242275e+01	-4.35020000e+01	-6.85828246e+00	-1.22392463e+02
1896052000	-8.27189915e-01	-7.40037220e+01	-3.19047261e+01	-4.39302064e+01	-3.17975307e+01	-4.40425603e+01	-6.85050116e+00	-1.22414644e+02
1896337571.43	-8.25406068e-01	-7.40358431e+01	-3.19154066e+01	-4.45276661e+01	-3.18142205e+01	-4.44892979e+01	-6.83527133e+00	-1.22334807e+02
1896623142.86	-8.26223396e-01	-7.40404038e+01	-3.18786355e+01	-4.50688541e+01	-3.18190997e+01	-4.50222748e+01	-6.83695137e+00	-1.22285712e+02
1896908714.29	-8.28262339e-01	-7.40544608e+01	-3.18857961e+01	-4.54307549e+01	-3.18204332e+01	-4.54915706e+01	-6.82814394e+00	-1.22304670e+02
1897194285.71	-8.23791870e-01	-7.40686518e+01	-3.18885652e+01	-4.61511695e+01	-3.18198250e+01	-4.61117151e+01	-6.81595341e+00	-1.22354836e+02
1897479857.14	-8.22946551e-01	-7.40349006e+01	-3.18691732e+01	-4.66478344e+01	-3.18180141e+01	-4.66088513e+01	-6.79760329e+00	-1.22345294e+02
1897765428.57	-8.20881565e-01	-7.40783693e+01	-3.18759250e+01	-4.71316556e+01	-3.18167852e+01	-4.70893280e+01	-6.79261813e+00	-1.22399087e+02
1898051000	-8.18011536e-01	-7.40755504e+01	-3.19089795e+01	-4.76083006e+01	-3.18099898e+01	-4.77697594e+01	-6.76344439e+00	-1.22274790e+02
1898336571.43	-8.22475575e-01	-7.40939535e+01	-3.18754251e+01	-4.82942170e+01	-3.18268850e+01	-4.82884998e+01	-6.75673791e+00	-1.22234547e+02
1898622142.86	-8.15891383e-01	-7.41164106e+01	-3.18591059e+01	-4.87269317e+01	-3.18050472e+01	-4.88754334e+01	-6.74950878e+00	-1.22210480e+02
1898907714.29	-8.17003652e-01	-7.40974767e+01	-3.18418525e+01	-4.93424105e+01	-3.18166551e+01	-4.95076899e+01	-6.72217836e+00	-1.22225138e+02
1899193285.71	-8.07952548e-01	-7.41275222e+01	-3.18598945e+01	-5.00839986e+01	-3.18023147e+01	-4.99889235e+01	-6.72193168e+00	-1.22208825e+02
1899478857.14	-8.11480923e-01	-7.41346849e+01	-3.18661348e+01	-5.05754239e+01	-3.18004655e+01	-5.05248788e+01	-6.69346831e+00	-1.22135507e+02
1899764428.57	-8.08910890e-01	-7.41542310e+01	-3.18683349e+01	-5.10897835e+01	-3.18168062e+01	-5.12386928e+01	-6.69465878e+00	-1.22139899e+02
1900050000	-8.05273261e-01	-7.41598316e+01	-3.18575357e+01	-5.17525307e+01	-3.18154700e+01	-5.17590659e+01	-6.67842700e+00	-1.22126489e+02
1900335571.43	-8.06150302e-01	-7.42071538e+01	-3.18727780e+01	-5.21741946e+01	-3.18338810e+01	-5.22998570e+01	-6.65320940e+00	-1.22171375e+02
1900621142.86	-8.07327102e-01	-7.42160049e+01	-3.18685605e+01	-5.28375099e+01	-3.18173247e+01	-5.30228936e+01	-6.64026036e+00	-1.22104419e+02
1900906714.29	-8.10694408e-01	-7.42116595e+01	-3.18847864e+01	-5.35699166e+01	-3.18344418e+01	-5.34801296e+01	-6.61955368e+00	-1.22096943e+02
1901192285.71	-8.09297174e-01	-7.42270988e+01	-3.18717181e+01	-5.41142403e+01	-3.18288079e+01	-5.42171281e+01	-6.61601763e+00	-1.22118661e+02
1901477857.14	-8.06156354e-01	-7.42359254e+01	-3.18539311e+01	-5.46787859e+01	-3.18495508e+01	-5.47256892e+01	-6.60470920e+00	-1.22073205e+02
1901763428.57	-8.06892037e-01	-7.42204736e+01	-3.18926107e+01	-5.53508369e+01	-3.18378701e+01	-5.52798205e+01	-6.60410511e+00	-1.22081285e+02
1902049000	-8.09839177e-01	-7.42835553e+01	-3.18832421e+01	-5.58436150e+01	-3.18415058e+01	-5.59125752e+01	-6.58559537e+00	-1.22090880e+02
1902334571.43	-8.09962556e-01	-7.42925719e+01	-3.18838893e+01	-5.66278254e+01	-3.18640895e+01	-5.64929105e+01	-6.57796189e+00	-1.22059575e+02
1902620142.86	-8.08234701e-01	-7.42785509e+01	-3.18959843e+01	-5.72084977e+01	-3.18732534e+01	-5.70279380e+01	-6.55769289e+00	-1.22035235e+02
1902905714.29	-8.06543097e-01	-7.42647063e+01	-3.19103952e+01	-5.76436029e+01	-3.18699855e+01	-5.75080067e+01	-6.54724305e+00	-1.22024865e+02
1903191285.71	-8.14512897e-01	-7.43233954e+01	-3.19262631e+01	-5.83985373e+01	-3.18945294e+01	-5.81474615e+01	-6.54241606e+00	-1.22020005e+02
1903476857.14	-8.09674059e-01	-7.43050029e+01	-3.19379700e+01	-5.91547669e+01	-3.18938442e+01	-5.86921122e+01	-6.53278655e+00	-1.22003503e+02
1903762428.57	-8.05778799e-01	-7.43239147e+01	-3.19378088e+01	-5.95162077e+01	-3.19276210e+01	-5.93334760e+01	-6.51903974e+00	-1.21980819e+02
1904048000	-8.02495993e-01	-7.43100883e+01	-3.19627646e+01	-6.01042692e+01	-3.19189541e+01	-5.98781031e+01	-6.49160470e+00	-1.21979706e+02
1904333571.43	-8.04807517e-01	-7.43378692e+01	-3.19873646e+01	-6.07202077e+01	-3.19238983e+01	-6.03987334e+01	-6.48069249e+00	-1.22022927e+02
1904619142.86	-8.08353106e-01	-7.43614339e+01	-3.19774073e+01	-6.13778535e+01	-3.19359429e+01	-6.09129400e+01	-6.47325665e+00	-1.22031278e+02
1904904714.29	-8.08913794e-01	-7.43907318e+01	-3.20038423e+01	-6.20051904e+01	-3.19680337e+01	-6.15934820e+01	-6.46036764e+00	-1.22074125e+02
1905190285.71	-8.07686265e-01	-7.43984655e+01	-3.20252231e+01	-6.25282416e+01	-3.19502003e+01	-6.21377127e+01	-6.44418621e+00	-1.22105034e+02
1905475857.14	-8.06417109e-01	-7.43900099e+01	-3.20559871e+01	-6.31008990e+01	-3.19637642e+01	-6.26759678e+01	-6.42183097e+00	-1.22080408e+02
1905761428.57	-8.00287394e-01	-7.44237064e+01	-3.20512822e+01	-6.36548056e+01	-3.19630083e+01	-6.32640951e+01	-6.40558708e+00	-1.22098103e+02
1906047000	-8.04851373e-01	-7.44243366e+01	-3.20584364e+01	-6.40821327e+01	-3.19725809e+01	-6.39554880e+01	-6.39421582e+00	-1.22047209e+02
1906332571.43	-8.05242406e-01	-7.44458643e+01	-3.20539242e+01	-6.49030859e+01	-3.19583392e+01	-6.43914555e+01	-6.37751363e+00	-1.22066514e+02
1906618142.86	-8.05367727e-01	-7.44528631e+01	-3.20937015e+01	-6.56133830e+01	-3.19846729e+01	-6.51252804e+01	-6.35431904e+00	-1.22013833e+02
1906903714.29	-8.04196609e-01	-7.44447354e+01	-3.21191697e+01	-6.59399795e+01	-3.20042910e+01	-6.55688439e+01	-6.34506704e+00	-1.22039259e+02
1907189285.71	-8.05180032e-01	-7.44402023e+01	-3.20988604e+01	-6.65182159e+01	-3.20224412e+01	-6.63792076e+01	-6.34130953e+00	-1.21993717e+02
1907474857.14	-7.98416608e-01	-7.44337735e+01	-3.21751472e+01	-6.70787922e+01	-3.20033352e+01	-6.67980180e+01	-6.32521955e+00	-1.22009398e+02
1907760428.57	-8.05260450e-01	-7.45149151e+01	-3.21660373e+01	-6.78685192e+01	-3.20215124e+01	-6.74621685e+01	-6.30700292e+00	-1.22005160e+02
1908046000	-8.06330205e-01	-7.45259181e+01	-3.21972364e+01	-6.82179349e+01	-3.20416366e+01	-6.80209804e+01	-6.28906545e+00	-1.22027321e+02
1908331571.43	-8.01972879e-01	-7.45468063e+01	-3.22045642e+01	-6.86717937e+01	-3.20502738e+01	-6.86484801e+01	-6.27187269e+00	-1.22000703e+02
1908617142.86	-8.01986149e-01	-7.45006071e+01	-3.22454986e+01	-6.95043032e+01	-3.20686276e+01	-6.91912734e+01	-6.27488959e+00	-1.22035269e+02
1908902714.29	-8.08641266e-01	-7.45230888e+01	-3.22252055e+01	-7.01744576e+01	-3.20639564e+01	-6.99024049e+01	-6.24295089e+00	-1.22087653e+02
1909188285.71	-8.08347557e-01	-7.45630507e+01	-3.22355780e+01	-7.05958666e+01	-3.20581805e+01	-7.05017661e+01	-6.22950296e+00	-1.22037323e+02
1909473857.14	-8.05673054e-01	-7.45759669e+01	-3.22965034e+01	-7.10336562e+01	-3.21228964e+01	-7.09665225e+01	-6.22738262e+00	-1.22105258e+02
1909759428.57	-8.05071414e-01	-7.45986377e+01	-3.22881346e+01	-7.16178896e+01	-3.21150838e+01	-7.16333646e+01	-6.20054263e+00	-1.22187431e+02
1910045000	-8.08583596e-01	-7.46201404e+01	-3.23206274e+01	-7.23826448e+01	-3.21181976e+01	-7.21804953e+01	-6.19493987e+00	-1.22193149e+02
1910330571.43	-8.07515159e-01	-7.46173850e+01	-3.23089071e+01	-7.30275243e+01	-3.21429666e+01	-7.29941478e+01	-6.17480202e+00	-1.22226206e+02
1910616142.86	-8.15545742e-01	-7.46277630e+01	-3.23830669e+01	-7.34489267e+01	-3.21494533e+01	-7.35230466e+01	-6.16157750e+00	-1.22252117e+02
1910901714.29	-8.10305703e-01	-7.46432985e+01	-3.23700048e+01	-7.39821797e+01	-3.21580199e+01	-7.42741889e+01	-6.14177831e+00	-1.22381253e+02
1911187285.71	-8.02560011e-01	-7.46649576e+01	-3.23776151e+01	-7.45863275e+01	-3.21929121e+01	-7.47575292e+01	-6.12173674e+00	-1.22440181e+02
1911472857.14	-8.06251971e-01	-7.47021072e+01	-3.23932264e+01	-7.52231896e+01	-3.22157775e+01	-7.53312369e+01	-6.10546738e+00	-1.22544458e+02
1911758428.57	-8.09268789e-01	-7.47586929e+01	-3.24021279e+01	-7.57691902e+01	-3.22232778e+01	-7.59986835e+01	-6.08571331e+00	-1.22537963e+02
1912044000	-8.08423106e-01	-7.47517652e+01	-3.24366796e+01	-7.61754996e+01	-3.22520276e+01	-7.65867720e+01	-6.06704256e+00	-1.22635567e+02
1912329571.43	-8.17578746e-01	-7.47456391e+01	-3.24389853e+01	-7.70317217e+01	-3.22559778e+01	-7.70929497e+01	-6.04545385e+00	-1.22675190e+02
1912615142.86	-8.11426160e-01	-7.47439661e+01	-3.25063211e+01	-7.72939457e+01	-3.22790786e+01	-7.78603836e+01	-6.02968362e+00	-1.22710426e+02
1912900714.29	-8.11938627e-01	-7.47558832e+01	-3.24850311e+01	-7.80077335e+01	-3.22835202e+01	-7.84303561e+01	-6.01474339e+00	-1.22813334e+02
1913186285.71	-8.15379141e-01	-7.48039978e+01	-3.25165417e+01	-7.85879335e+01	-3.23142701e+01	-7.90410020e+01	-5.99907366e+00	-1.22906003e+02
1913471857.14	-8.15326765e-01	-7.48150221e+01	-3.25073266e+01	-7.90346990e+01	-3.23281259e+01	-7.96856029e+01	-5.98944312e+00	-1.22929370e+02
1913757428.57	-8.12856401e-01	-7.48456180e+01	-3.25632835e+01	-7.98352076e+01	-3.23610401e+01	-8.01533994e+01	-5.97391520e+00	-1.22993694e+02
1914043000	-8.10641870e-01	-7.48292674e+01	-3.25694373e+01	-8.02419360e+01	-3.23944544e+01	-8.10682573e+01	-5.95214709e+00	-1.23019472e+02
1914328571.43	-8.02482646e-01	-7.48430025e+01	-3.25929047e+01	-8.09209709e+01	-3.23916429e+01	-8.16144817e+01	-5.94159202e+00	-1.23033145e+02
1914614142.86	-8.07263972e-01	-7.48499518e+01	-3.26320534e+01	-8.13252829e+01	-3.24273483e+01	-8.20080761e+01	-5.92261531e+00	-1.23061320e+02
1914899714.29	-8.11996836e-01	-7.48976157e+01	-3.26459979e+01	-8.20459152e+01	-3.24473115e+01	-8.26553689e+01	-5.90982747e+00	-1.23129159e+02
1915185285.71	-8.08976949e-01	-7.49120416e+01	-3.26505801e+01	-8.28070788e+01	-3.24620426e+01	-8.32293490e+01	-5.90213533e+00	-1.23248545e+02
1915470857.14	-8.08563104e-01	-7.48774822e+01	-3.26942154e+01	-8.33018289e+01	-3.25116384e+01	-8.39489667e+01	-5.88062975e+00	-1.23237960e+02
1915756428.57	-8.09671654e-01	-7.49112683e+01	-3.27081775e+01	-8.36119776e+01	-3.25248457e+01	-8.45733709e+01	-5.86809812e+00	-1.23315174e+02
1916042000	-8.19853790e-01	-7.49065445e+01	-3.27460795e+01	-8.43930142e+01	-3.25647110e+01	-8.51408340e+01	-5.85856646e+00	-1.23376663e+02
1916327571.43	-8.16641850e-01	-7.49247044e+01	-3.27748898e+01	-8.48866568e+01	-3.25860161e+01	-8.56662390e+01	-5.84957480e+00	-1.23443166e+02
1916613142.86	-8.13009269e-01	-7.49187707e+01	-3.27735861e+01	-8.54954591e+01	-3.26037301e+01	-8.63903177e+01	-5.83130133e+00	-1.23510360e+02
1916898714.29	-8.09045109e-01	-7.49756476e+01	-3.28170796e+01	-8.60821687e+01	-3.26479145e+01	-8.69755133e+01	-5.82027365e+00	-1.23601438e+02
1917184285.71	-8.15170446e-01	-7.49681238e+01	-3.28093974e+01	-8.67582857e+01	-3.26807058e+01	-8.75589955e+01	-5.80569519e+00	-1.23620915e+02
1917469857.14	-8.13742545e-01	-7.49905209e+01	-3.28619231e+01	-8.73078745e+01	-3.27034258e+01	-8.80231808e+01	-5.79511011e+00	-1.23727011e+02
1917755428.57	-8.16646974e-01	-7.50053920e+01	-3.28941737e+01	-8.77511520e+01	-3.27562128e+01	-8.86156782e+01	-5.78201081e+00	-1.23786101e+02
1918041000	-8.11541299e-01	-7.50078970e+01	-3.28850914e+01	-8.83540370e+01	-3.27493097e+01	-8.90957886e+01	-5.76212010e+00	-1.23843792e+02
1918326571.43	-8.14788699e-01	-7.50024701e+01	-3.29298766e+01	-8.89090368e+01	-3.28001493e+01	-8.95911619e+01	-5.74172168e+00	-1.23994667e+02
1918612142.86	-8.13373157e-01	-7.50319519e+01	-3.29419358e+01	-8.93408106e+01	-3.28483228e+01	-9.00892817e+01	-5.73132060e+00	-1.24027050e+02
1918897714.29	-8.13228812e-01	-7.50473058e+01	-3.29777469e+01	-8.99868139e+01	-3.28588430e+01	-9.08265800e+01	-5.70909920e+00	-1.24141157e+02
1919183285.71	-8.08973273e-01	-7.50891419e+01	-3.29643822e+01	-9.05151013e+01	-3.28993576e+01	-9.14423210e+01	-5.69504273e+00	-1.24242591e+02
1919468857.14	-8.07334681e-01	-7.50927965e+01	-3.29979657e+01	-9.13711071e+01	-3.29215705e+01	-9.18019975e+01	-5.68564884e+00	-1.24356342e+02
1919754428.57	-8.10242147e-01	-7.51146275e+01	-3.30133409e+01	-9.17001015e+01	-3.29731646e+01	-9.23763800e+01	-5.65265595e+00	-1.24457501e+02
1920040000	-8.11876748e-01	-7.51197918e+01	-3.30796248e+01	-9.20918556e+01	-3.29683817e+01	-9.28937723e+01	-5.65212923e+00	-1.24563103e+02
1920325571.43	-8.07578827e-01	-7.50949424e+01	-3.30952116e+01	-9.25983053e+01	-3.29852276e+01	-9.33218685e+01	-5.63753532e+00	-1.24683181e+02
1920611142.86	-8.08264439e-01	-7.50949291e+01	-3.30750591e+01	-9.31257912e+01	-3.30139715e+01	-9.38152447e+01	-5.61538161e+00	-1.24809461e+02
1920896714.29	-8.06864757e-01	-7.51162011e+01	-3.30989742e+01	-9.36279138e+01	-3.30430142e+01	-9.45377793e+01	-5.60281613e+00	-1.24946076e+02
1921182285.71	-8.06569903e-01	-7.50955168e+01	-3.31248055e+01	-9.44358021e+01	-3.30501063e+01	-9.50414610e+01	-5.57894249e+00	-1.25015019e+02
1921467857.14	-8.03566650e-01	-7.51356418e+01	-3.31671425e+01	-9.50901406e+01	-3.30928985e+01	-9.55914998e+01	-5.55506316e+00	-1.25213936e+02
1921753428.57	-7.98915457e-01	-7.51404848e+01	-3.31558264e+01	-9.55679954e+01	-3.31120598e+01	-9.61125810e+01	-5.54787778e+00	-1.25310221e+02
1922039000	-8.01910871e-01	-7.51887500e+01	-3.32078185e+01	-9.62268867e+01	-3.31350585e+01	-9.65751947e+01	-5.52408767e+00	-1.25380525e+02
1922324571.43	-7.95815309e-01	-7.52163933e+01	-3.32115252e+01	-9.67606755e+01	-3.31664280e+01	-9.72491057e+01	-5.50608249e+00	-1.25507324e+02
1922610142.86	-7.98052070e-01	-7.52286013e+01	-3.32032637e+01	-9.72113868e+01	-3.31894557e+01	-9.77011403e+01	-5.48903259e+00	-1.25609058e+02
1922895714.29	-7.98075806e-01	-7.52535427e+01	-3.32602007e+01	-9.77939752e+01	-3.32148995e+01	-9.83355632e+01	-5.47208240e+00	-1.25825015e+02
1923181285.71	-8.01618837e-01	-7.52606904e+01	-3.32617874e+01	-9.84260387e+01	-3.32017017e+01	-9.90715309e+01	-5.45423631e+00	-1.25921389e+02
1923466857.14	-8.07888449e-01	-7.52919763e+01	-3.32884227e+01	-9.90381509e+01	-3.32625019e+01	-9.94808188e+01	-5.43237245e+00	-1.26062567e+02
1923752428.57	-8.06669194e-01	-7.52865962e+01	-3.33308332e+01	-9.95156494e+01	-3.32927902e+01	-1.00178346e+02	-5.41214367e+00	-1.26101830e+02
1924038000	-8.04896024e-01	-7.52946547e+01	-3.33516210e+01	-1.00170379e+02	-3.32944185e+01	-1.00562371e+02	-5.39485736e+00	-1.26249782e+02
1924323571.43	-8.07352051e-01	-7.53184736e+01	-3.33714572e+01	-1.00772600e+02	-3.32981198e+01	-1.01157243e+02	-5.36863993e+00	-1.26462447e+02
1924609142.86	-8.04820302e-01	-7.53204207e+01	-3.34000634e+01	-1.01334486e+02	-3.33688301e+01	-1.01620909e+02	-5.35404819e+00	-1.26546874e+02
1924894714.29	-8.01153261e-01	-7.53543890e+01	-3.33970581e+01	-1.02054860e+02	-3.33780136e+01	-1.02430379e+02	-5.33574413e+00	-1.26660865e+02
1925180285.71	-8.01577728e-01	-7.53545388e+01	-3.34460376e+01	-1.02657749e+02	-3.34069604e+01	-1.02961540e+02	-5.31599096e+00	-1.26846676e+02
1925465857.14	-8.01018106e-01	-7.53858217e+01	-3.34700592e+01	-1.03242172e+02	-3.34345679e+01	-1.03711758e+02	-5.30069182e+00	-1.26963536e+02
1925751428.57	-8.04467576e-01	-7.54460697e+01	-3.34719277e+01	-1.03674931e+02	-3.34606339e+01	-1.04197334e+02	-5.28422568e+00	-1.27067211e+02
1926037000	-8.02595045e-01	-7.54387428e+01	-3.35122074e+01	-1.04485311e+02	-3.34776993e+01	-1.04749794e+02	-5.26935872e+00	-1.27259372e+02
1926322571.43	-7.95414721e-01	-7.54374609e+01	-3.35138200e+01	-1.05123086e+02	-3.34985452e+01	-1.05246044e+02	-5.23936163e+00	-1.27442114e+02
1926608142.86	-7.96053081e-01	-7.54390484e+01	-3.35695658e+01	-1.05501548e+02	-3.35207414e+01	-1.05921429e+02	-5.22710827e+00	-1.27540391e+02
1926893714.29	-7.97813717e-01	-7.55041416e+01	-3.35678776e+01	-1.06561831e+02	-3.35565244e+01	-1.06674624e+02	-5.20352650e+00	-1.27707453e+02
1927179285.71	-7.97203950e-01	-7.55348526e+01	-3.35941776e+01	-1.06801927e+02	-3.35866870e+01	-1.07327220e+02	-5.18797879e+00	-1.27813475e+02
1927464857.14	-7.98232330e-01	-7.55303660e+01	-3.36092826e+01	-1.07635124e+02	-3.36045586e+01	-1.07828272e+02	-5.16774418e+00	-1.27956741e+02
1927750428.57	-7.99615891e-01	-7.55358915e+01	-3.36356280e+01	-1.08253456e+02	-3.36448944e+01	-1.08568158e+02	-5.14164991e+00	-1.28112004e+02
1928036000	-7.97486447e-01	-7.55104800e+01	-3.36676652e+01	-1.08857409e+02	-3.36504848e+01	-1.09121470e+02	-5.13245956e+00	-1.28317830e+02
1928321571.43	-7.97457384e-01	-7.55340398e+01	-3.37370100e+01	-1.09403858e+02	-3.37086327e+01	-1.09724351e+02	-5.10975647e+00	-1.28476771e+02
1928607142.86	-7.98369978e-01	-7.55930760e+01	-3.37286801e+01	-1.10206935e+02	-3.37261964e+01	-1.10299520e+02	-5.07851499e+00	-1.28632591e+02
1928892714.29	-7.94425222e-01	-7.56118566e+01	-3.37693606e+01	-1.10656472e+02	-3.37575320e+01	-1.11166161e+02	-5.06499021e+00	-1.28817812e+02
1929178285.71	-7.92156528e-01	-7.56791228e+01	-3.38299908e+01	-1.11644095e+02	-3.37860529e+01	-1.11521432e+02	-5.04165386e+00	-1.28933892e+02
1929463857.14	-7.94803498e-01	-7.57024441e+01	-3.38588399e+01	-1.12104140e+02	-3.38454587e+01	-1.12080536e+02	-5.01741863e+00	-1.29112851e+02
1929749428.57	-7.96495400e-01	-7.56795409e+01	-3.39051822e+01	-1.12545360e+02	-3.38953465e+01	-1.12755114e+02	-4.99950125e+00	-1.29290700e+02
1930035000	-7.93366129e-01	-7.57167675e+01	-3.39357283e+01	-1.13255957e+02	-3.38906536e+01	-1.13359733e+02	-4.96765653e+00	-1.29417339e+02
1930320571.43	-7.89142912e-01	-7.57314027e+01	-3.39525256e+01	-1.14239004e+02	-3.39630582e+01	-1.14203468e+02	-4.95636953e+00	-1.29639377e+02
1930606142.86	-7.86481355e-01	-7.57341524e+01	-3.39957062e+01	-1.14685515e+02	-3.39639608e+01	-1.14849944e+02	-4.94489449e+00	-1.29812811e+02
1930891714.29	-7.86090762e-01	-7.57684321e+01	-3.40615612e+01	-1.15154532e+02	-3.40176064e+01	-1.15470369e+02	-4.92510255e+00	-1.29973968e+02
1931177285.71	-7.80041230e-01	-7.57848317e+01	-3.41038648e+01	-1.15699928e+02	-3.40867105e+01	-1.15980192e+02	-4.90127259e+00	-1.30174528e+02
1931462857.14	-7.82665790e-01	-7.58329202e+01	-3.41284058e+01	-1.16611300e+02	-3.40894935e+01	-1.16540680e+02	-4.89052307e+00	-1.30296780e+02
1931748428.57	-7.87377720e-01	-7.58437196e+01	-3.41995487e+01	-1.17125586e+02	-3.41764683e+01	-1.17122234e+02	-4.87335489e+00	-1.30393784e+02
1932034000	-7.92161462e-01	-7.58684764e+01	-3.42527451e+01	-1.17784317e+02	-3.42003087e+01	-1.17734919e+02	-4.84673750e+00	-1.30645460e+02
1932319571.43	-7.89266409e-01	-7.59007634e+01	-3.43079430e+01	-1.17994273e+02	-3.42679993e+01	-1.18294595e+02	-4.82587522e+00	-1.30843268e+02
1932605142.86	-7.85803172e-01	-7.58911595e+01	-3.43501395e+01	-1.19036980e+02	-3.42801379e+01	-1.18912831e+02	-4.81221875e+00	-1.30991781e+02
1932890714.29	-7.87668391e-01	-7.59425159e+01	-3.43830104e+01	-1.19514684e+02	-3.43692766e+01	-1.19691279e+02	-4.79045227e+00	-1.31176097e+02
1933176285.71	-7.87547852e-01	-7.59515316e+01	-3.44719956e+01	-1.20143925e+02	-3.43905825e+01	-1.20168008e+02	-4.77767251e+00	-1.31313032e+02
1933461857.14	-7.85284160e-01	-7.59873407e+01	-3.45042365e+01	-1.20588373e+02	-3.44570094e+01	-1.20850851e+02	-4.76451665e+00	-1.31554423e+02
1933747428.57	-7.86097415e-01	-7.60300760e+01	-3.45585290e+01	-1.21161441e+02	-3.45148282e+01	-1.21376990e+02	-4.74223862e+00	-1.31692795e+02
1934033000	-7.85939312e-01	-7.60427996e+01	-3.46342536e+01	-1.21716548e+02	-3.45883563e+01	-1.21924772e+02	-4.72896299e+00	-1.31853446e+02
1934318571.43	-7.86078068e-01	-7.60826696e+01	-3.46714638e+01	-1.22475816e+02	-3.46168503e+01	-1.22485609e+02	-4.70496878e+00	-1.32068877e+02
1934604142.86	-7.81014243e-01	-7.60733708e+01	-3.47074441e+01	-1.23017135e+02	-3.46664777e+01	-1.23082229e+02	-4.67717399e+00	-1.32240596e+02
1934889714.29	-7.72133636e-01	-7.61105688e+01	-3.47579134e+01	-1.23455800e+02	-3.47036312e+01	-1.23640305e+02	-4.65856637e+00	-1.32434866e+02
1935175285.71	-7.71655814e-01	-7.61488339e+01	-3.48657561e+01	-1.24173637e+02	-3.47581253e+01	-1.24106891e+02	-4.64516942e+00	-1.32545914e+02
1935460857.14	-7.75038027e-01	-7.61889884e+01	-3.48748047e+01	-1.24643828e+02	-3.48270333e+01	-1.24688745e+02	-4.62429389e+00	-1.32776563e+02
1935746428.57	-7.78291588e-01	-7.62413565e+01	-3.49468069e+01	-1.25023348e+02	-3.48834011e+01	-1.25135199e+02	-4.62337524e+00	-1.32904850e+02
1936032000	-7.74364551e-01	-7.62652019e+01	-3.49862807e+01	-1.25863590e+02	-3.49095705e+01	-1.25850807e+02	-4.59660839e+00	-1.33146449e+02
1936317571.43	-7.70863269e-01	-7.62465255e+01	-3.50505338e+01	-1.26230379e+02	-3.49516285e+01	-1.26382673e+02	-4.57024494e+00	-1.33313565e+02
1936603142.86	-7.71661198e-01	-7.62648525e+01	-3.50329655e+01	-1.26985118e+02	-3.50137535e+01	-1.26957016e+02	-4.54644669e+00	-1.33542828e+02
1936888714.29	-7.73496725e-01	-7.63206139e+01	-3.51519174e+01	-1.27697775e+02	-3.50494644e+01	-1.27457573e+02	-4.53535372e+00	-1.33625145e+02
1937174285.71	-7.69626329e-01	-7.63672948e+01	-3.51795727e+01	-1.27681766e+02	-3.50971438e+01	-1.27975211e+02	-4.51830007e+00	-1.33849031e+02
1937459857.14	-7.68414922e-01	-7.63806898e+01	-3.52521568e+01	-1.28481305e+02	-3.51406577e+01	-1.28629354e+02	-4.50054741e+00	-1.33959746e+02
1937745428.57	-7.66388193e-01	-7.64064290e+01	-3.53000169e+01	-1.29011457e+02	-3.51956803e+01	-1.28913386e+02	-4.48241880e+00	-1.34164144e+02
1938031000	-7.71062715e-01	-7.64409376e+01	-3.53233870e+01	-1.29587470e+02	-3.52641705e+01	-1.29561106e+02	-4.45997823e+00	-1.34385956e+02
1938316571.43	-7.70271650e-01	-7.64687296e+01	-3.53786249e+01	-1.30235243e+02	-3.52899959e+01	-1.30167564e+02	-4.45085870e+00	-1.34564762e+02
1938602142.86	-7.69828951e-01	-7.64829742e+01	-3.54182090e+01	-1.30588460e+02	-3.53517431e+01	-1.30650201e+02	-4.42511332e+00	-1.34730266e+02
1938887714.29	-7.65717715e-01	-7.65082666e+01	-3.55066770e+01	-1.31227979e+02	-3.54187365e+01	-1.31322268e+02	-4.41083557e+00	-1.35019166e+02
1939173285.71	-7.70932311e-01	-7.65614682e+01	-3.55339305e+01	-1.31840868e+02	-3.54723778e+01	-1.31983638e+02	-4.39741597e+00	-1.35086756e+02
1939458857.14	-7.71030052e-01	-7.65835134e+01	-3.55909705e+01	-1.32338289e+02	-3.55161032e+01	-1.32153879e+02	-4.38593758e+00	-1.35193572e+02
1939744428.57	-7.73126973e-01	-7.65972226e+01	-3.56475312e+01	-1.32471391e+02	-3.55562296e+01	-1.32757751e+02	-4.35992253e+00	-1.35367322e+02
1940030000	-7.67166671e-01	-7.66192239e+01	-3.57277136e+01	-1.33217943e+02	-3.56485109e+01	-1.33331776e+02	-4.34191717e+00	-1.35569289e+02
1940315571.43	-7.68297573e-01	-7.66348248e+01	-3.57617995e+01	-1.33575010e+02	-3.57072242e+01	-1.33819821e+02	-4.32437790e+00	-1.35754755e+02
1940601142.86	-7.74365677e-01	-7.66749737e+01	-3.57906002e+01	-1.34095952e+02	-3.57421905e+01	-1.34197162e+02	-4.30659355e+00	-1.35935461e+02
1940886714.29	-7.74011480e-01	-7.67046419e+01	-3.58189130e+01	-1.34867615e+02	-3.58474958e+01	-1.34845548e+02	-4.30306082e+00	-1.36071743e+02
1941172285.71	-7.71309893e-01	-7.67462998e+01	-3.59156572e+01	-1.35296327e+02	-3.59057250e+01	-1.35427585e+02	-4.27358617e+00	-1.36249400e+02
1941457857.14	-7.67934447e-01	-7.67919530e+01	-3.59827882e+01	-1.35854219e+02	-3.59757605e+01	-1.36029050e+02	-4.24900808e+00	-1.36359986e+02
1941743428.57	-7.67359704e-01	-7.68115346e+01	-3.60540990e+01	-1.36183870e+02	-3.60326286e+01	-1.36357713e+02	-4.23828885e+00	-1.36574869e+02
1942029000	-7.65957763e-01	-7.68507415e+01	-3.61306147e+01	-1.36700167e+02	-3.60976571e+01	-1.36916314e+02	-4.21164251e+00	-1.36679282e+02
1942314571.43	-7.65116319e-01	-7.68748048e+01	-3.61914893e+01	-1.37243100e+02	-3.61323277e+01	-1.37451594e+02	-4.19423455e+00	-1.36816455e+02
1942600142.86	-7.65894076e-01	-7.69260729e+01	-3.62561119e+01	-1.37792481e+02	-3.62080023e+01	-1.37905485e+02	-4.18769652e+00	-1.37010064e+02
1942885714.29	-7.67047219e-01	-7.69656416e+01	-3.62937650e+01	-1.38316550e+02	-3.62482040e+01	-1.38414484e+02	-4.16567022e+00	-1.37221709e+02
1943171285.71	-7.64885788e-01	-7.70135425e+01	-3.63724150e+01	-1.38722967e+02	-3.63340355e+01	-1.38881098e+02	-4.15256941e+00	-1.37328563e+02
1943456857.14	-7.68442198e-01	-7.70388750e+01	-3.64595862e+01	-1.39221787e+02	-3.64277665e+01	-1.39285475e+02	-4.12897754e+00	-1.37451313e+02
1943742428.57	-7.72260311e-01	-7.70949345e+01	-3.64911419e+01	-1.39904897e+02	-3.64470103e+01	-1.39843728e+02	-4.10853288e+00	-1.37581782e+02
1944028000	-7.74283920e-01	-7.71485113e+01	-3.66139091e+01	-1.40120760e+02	-3.65185237e+01	-1.40078343e+02	-4.09447670e+00	-1.37729942e+02
1944313571.43	-7.72172219e-01	-7.71672839e+01	-3.66837769e+01	-1.40894110e+02	-3.65783417e+01	-1.40802283e+02	-4.07899476e+00	-1.37876239e+02
1944599142.86	-7.66966170e-01	-7.71908468e+01	-3.67711561e+01	-1.41208764e+02	-3.66376773e+01	-1.41287202e+02	-4.05812990e+00	-1.38016502e+02
1944884714.29	-7.72364434e-01	-7.71947079e+01	-3.68429342e+01	-1.41572746e+02	-3.66848727e+01	-1.41732887e+02	-4.04370041e+00	-1.38192408e+02
1945170285.71	-7.76363282e-01	-7.72265582e+01	-3.68713483e+01	-1.41979494e+02	-3.67472024e+01	-1.41961060e+02	-4.02401792e+00	-1.38307192e+02
1945455857.14	-7.73362266e-01	-7.72606726e+01	-3.69353188e+01	-1.42460400e+02	-3.68067010e+01	-1.42517937e+02	-4.01545864e+00	-1.38505660e+02
1945741428.57	-7.73859924e-01	-7.72783965e+01	-3.70104313e+01	-1.43077432e+02	-3.69129374e+01	-1.43157919e+02	-3.99753472e+00	-1.38661176e+02
1946027000	-7.71081247e-01	-7.72876982e+01	-3.70798437e+01	-1.43536030e+02	-3.69350536e+01	-1.43630757e+02	-3.97341058e+00	-1.38870375e+02
1946312571.43	-7.71035483e-01	-7.73530873e+01	-3.71726453e+01	-1.43838045e+02	-3.70314001e+01	-1.43908533e+02	-3.96738091e+00	-1.39031904e+02
1946598142.86	-7.76060280e-01	-7.74352454e+01	-3.72257686e+01	-1.44010378e+02	-3.71008611e+01	-1.44193671e+02	-3.96119243e+00	-1.39213664e+02
1946883714.29	-7.73945687e-01	-7.74515388e+01	-3.73277252e+01	-1.44915978e+02	-3.71327983e+01	-1.44986292e+02	-3.93514729e+00	-1.39408272e+02
1947169285.71	-7.68259988e-01	-7.74755995e+01	-3.73395007e+01	-1.45070235e+02	-3.72189407e+01	-1.44913612e+02	-3.92074681e+00	-1.39536342e+02
1947454857.14	-7.70761444e-01	-7.75182389e+01	-3.74577120e+01	-1.45400176e+02	-3.72983163e+01	-1.45142671e+02	-3.91482915e+00	-1.39767098e+02
1947740428.57	-7.70998164e-01	-7.75583301e+01	-3.74953673e+01	-1.45965212e+02	-3.73958018e+01	-1.45528994e+02	-3.89782139e+00	-1.39985668e+02
1948026000	-7.72400209e-01	-7.75876126e+01	-3.76132452e+01	-1.46292723e+02	-3.74407131e+01	-1.46139936e+02	-3.88345529e+00	-1.40159967e+02
1948311571.43	-7.73212073e-01	-7.76116905e+01	-3.76500926e+01	-1.46358931e+02	-3.75701256e+01	-1.46682994e+02	-3.87279653e+00	-1.40341196e+02
1948597142.86	-7.72609587e-01	-7.76336999e+01	-3.76622611e+01	-1.46973694e+02	-3.76208117e+01	-1.47060727e+02	-3.85143341e+00	-1.40440367e+02
1948882714.29	-7.70677471e-01	-7.76725228e+01	-3.77615439e+01	-1.47500914e+02	-3.77135896e+01	-1.47483339e+02	-3.83704059e+00	-1.40632818e+02
1949168285.71	-7.70383971e-01	-7.77129542e+01	-3.77494086e+01	-1.48020149e+02	-3.78162456e+01	-1.47719684e+02	-3.83484462e+00	-1.40859308e+02
1949453857.14	-7.75593538e-01	-7.77452269e+01	-3.78534026e+01	-1.48303380e+02	-3.78684836e+01	-1.48430408e+02	-3.82289781e+00	-1.40993689e+02
1949739428.57	-7.71159863e-01	-7.78212862e+01	-3.78563208e+01	-1.48461116e+02	-3.79356456e+01	-1.48734102e+02	-3.80959395e+00	-1.41118027e+02
1950025000	-7.72597172e-01	-7.78816629e+01	-3.79973897e+01	-1.48864425e+02	-3.80120983e+01	-1.49083144e+02	-3.80041490e+00	-1.41293763e+02
1950310571.43	-7.73084549e-01	-7.79570703e+01	-3.80838707e+01	-1.49511085e+02	-3.80494007e+01	-1.49349397e+02	-3.79542684e+00	-1.41428738e+02
1950596142.86	-7.72615671e-01	-7.79676213e+01	-3.81688786e+01	-1.49454772e+02	-3.81508934e+01	-1.49577071e+02	-3.77965344e+00	-1.41574194e+02
1950881714.29	-7.78573334e-01	-7.80088174e+01	-3.81910007e+01	-1.49836136e+02	-3.82357658e+01	-1.49966829e+02	-3.77450358e+00	-1.41680996e+02
1951167285.71	-7.77016467e-01	-7.80466672e+01	-3.83094600e+01	-1.50378075e+02	-3.82828928e+01	-1.50133445e+02	-3.75452388e+00	-1.41881090e+02
1951452857.14	-7.65285444e-01	-7.80752098e+01	-3.84030215e+01	-1.50561100e+02	-3.83446457e+01	-1.50476557e+02	-3.74205194e+00	-1.42082512e+02
1951738428.57	-7.68244032e-01	-7.80970449e+01	-3.84423433e+01	-1.50703404e+02	-3.83756705e+01	-1.50695495e+02	-3.72058278e+00	-1.42279594e+02
1952024000	-7.66238704e-01	-7.81877831e+01	-3.84982124e+01	-1.51294932e+02	-3.84501085e+01	-1.51284770e+02	-3.71441264e+00	-1.42446478e+02
1952309571.43	-7.68986813e-01	-7.82447246e+01	-3.85755944e+01	-1.51319473e+02	-3.85362927e+01	-1.51087724e+02	-3.70621892e+00	-1.42627578e+02
1952595142.86	-7.68582561e-01	-7.82330762e+01	-3.87136728e+01	-1.51632911e+02	-3.86011767e+01	-1.51659683e+02	-3.69424412e+00	-1.42778698e+02
1952880714.29	-7.70416553e-01	-7.82448935e+01	-3.87719378e+01	-1.52175001e+02	-3.86683484e+01	-1.51904314e+02	-3.68221479e+00	-1.42994373e+02
1953166285.71	-7.71024227e-01	-7.82781423e+01	-3.88956357e+01	-1.52348499e+02	-3.87893529e+01	-1.51799257e+02	-3.67163172e+00	-1.43157707e+02
1953451857.14	-7.71222432e-01	-7.83399475e+01	-3.89890642e+01	-1.52173784e+02	-3.88293921e+01	-1.52117894e+02	-3.65222530e+00	-1.43372466e+02
1953737428.57	-7.72709135e-01	-7.83838160e+01	-3.89889721e+01	-1.52382139e+02	-3.88864798e+01	-1.52606791e+02	-3.64538883e+00	-1.43556066e+02
1954023000	-7.78344334e-01	-7.84261842e+01	-3.90728962e+01	-1.52847353e+02	-3.89667890e+01	-1.52745362e+02	-3.64190735e+00	-1.43734761e+02
1954308571.43	-7.79521896e-01	-7.85317477e+01	-3.91398648e+01	-1.53160638e+02	-3.90914901e+01	-1.52698798e+02	-3.62142727e+00	-1.43960328e+02
1954594142.86	-7.76139626e-01	-7.85459308e+01	-3.92067835e+01	-1.53180467e+02	-3.91348219e+01	-1.52870003e+02	-3.61189155e+00	-1.44125902e+02
1954879714.29	-7.79549534e-01	-7.85881455e+01	-3.92992548e+01	-1.53668968e+02	-3.92396328e+01	-1.53387590e+02	-3.60767820e+00	-1.44234410e+02
1955165285.71	-7.79304239e-01	-7.86546224e+01	-3.93837781e+01	-1.53776288e+02	-3.93080709e+01	-1.53422919e+02	-3.58511865e+00	-1.44467083e+02
1955450857.14	-7.79574860e-01	-7.87056565e+01	-3.93977303e+01	-1.54005342e+02	-3.93705915e+01	-1.53194504e+02	-3.59479971e+00	-1.44603742e+02
1955736428.57	-7.76957397e-01	-7.87279006e+01	-3.95324382e+01	-1.54761498e+02	-3.94140197e+01	-1.53998513e+02	-3.57254716e+00	-1.44759908e+02
1956022000	-7.76516262e-01	-7.87633555e+01	-3.95827615e+01	-1.54474441e+02	-3.95445922e+01	-1.54233002e+02	-3.56393304e+00	-1.44901038e+02
1956307571.43	-7.81860338e-01	-7.88045452e+01	-3.95853274e+01	-1.54678463e+02	-3.95468456e+01	-1.54492659e+02	-3.55527472e+00	-1.45051042e+02
1956593142.86	-7.76190477e-01	-7.88166228e+01	-3.96588348e+01	-1.55070178e+02	-3.96290698e+01	-1.54380267e+02	-3.54524642e+00	-1.45214459e+02
1956878714.29	-7.77832352e-01	-7.88156573e+01	-3.97047591e+01	-1.55059819e+02	-3.97288995e+01	-1.54667323e+02	-3.54736821e+00	-1.45307471e+02
1957164285.71	-7.78178455e-01	-7.88826251e+01	-3.97659882e+01	-1.54603839e+02	-3.98076500e+01	-1.55015221e+02	-3.54418762e+00	-1.45492259e+02
1957449857.14	-7.78707913e-01	-7.89187548e+01	-3.98576726e+01	-1.56130959e+02	-3.98746633e+01	-1.55170278e+02	-3.52849610e+00	-1.45576915e+02
1957735428.57	-7.84330407e-01	-7.89415216e+01	-3.98955835e+01	-1.55760675e+02	-3.99132007e+01	-1.55213694e+02	-3.51569796e+00	-1.45715291e+02
1958021000	-7.87038430e-01	-7.89950463e+01	-4.00044400e+01	-1.56005501e+02	-3.99218416e+01	-1.55461670e+02	-3.51692820e+00	-1.45926483e+02
1958306571.43	-7.87269972e-01	-7.90423483e+01	-4.00310978e+01	-1.55792762e+02	-4.00088998e+01	-1.55283512e+02	-3.50458074e+00	-1.46117085e+02
1958592142.86	-7.81651461e-01	-7.90564327e+01	-4.00800586e+01	-1.55795082e+02	-4.01150918e+01	-1.55891593e+02	-3.49693229e+00	-1.46257541e+02
1958877714.29	-7.86555311e-01	-7.91150186e+01	-4.00812955e+01	-1.56499802e+02	-4.01551443e+01	-1.55969118e+02	-3.49607659e+00	-1.46482610e+02
1959163285.71	-7.88185534e-01	-7.92009823e+01	-4.01291308e+01	-1.56663666e+02	-4.01683027e+01	-1.56222329e+02	-3.49736978e+00	-1.46699607e+02
1959448857.14	-7.94966181e-01	-7.92209999e+01	-4.01928253e+01	-1.56576591e+02	-4.02514704e+01	-1.56157454e+02	-3.49775932e+00	-1.46847097e+02
1959734428.57	-7.95818702e-01	-7.92052101e+01	-4.02823748e+01	-1.57088776e+02	-4.02731894e+01	-1.56680236e+02	-3.48646806e+00	-1.47021466e+02
1960020000	-7.95840695e-01	-7.92639577e+01	-4.03340697e+01	-1.57252767e+02	-4.03603673e+01	-1.56362428e+02	-3.47427301e+00	-1.47190560e+02
1960305571.43	-7.98665294e-01	-7.92807474e+01	-4.03246864e+01	-1.57111794e+02	-4.04069629e+01	-1.56397878e+02	-3.46621224e+00	-1.47344609e+02
1960591142.86	-7.99897924e-01	-7.92960307e+01	-4.04494140e+01	-1.57141802e+02	-4.04550637e+01	-1.56802927e+02	-3.46390661e+00	-1.47626713e+02
1960876714.29	-8.03322637e-01	-7.94005201e+01	-4.04675166e+01	-1.57970493e+02	-4.04872405e+01	-1.56939717e+02	-3.46633800e+00	-1.47773170e+02
1961162285.71	-7.97575192e-01	-7.94334378e+01	-4.05056460e+01	-1.57705468e+02	-4.05968465e+01	-1.56978018e+02	-3.46264583e+00	-1.47977504e+02
1961447857.14	-8.00879010e-01	-7.94809441e+01	-4.04893766e+01	-1.57659875e+02	-4.05715039e+01	-1.56832433e+02	-3.45683334e+00	-1.48212461e+02
1961733428.57	-7.99449720e-01	-7.95292649e+01	-4.06322295e+01	-1.58369473e+02	-4.05906885e+01	-1.57205455e+02	-3.45022847e+00	-1.48292270e+02
1962019000	-8.02795709e-01	-7.95302529e+01	-4.06784210e+01	-1.57998351e+02	-4.06649441e+01	-1.57786464e+02	-3.44274471e+00	-1.48468557e+02
1962304571.43	-8.14638130e-01	-7.95466914e+01	-4.06904178e+01	-1.58169521e+02	-4.06604701e+01	-1.57869775e+02	-3.44488595e+00	-1.48606474e+02
1962590142.86	-8.15710133e-01	-7.95103948e+01	-4.06865876e+01	-1.58121344e+02	-4.07789564e+01	-1.57467699e+02	-3.43989168e+00	-1.48758706e+02
1962875714.29	-8.16564463e-01	-7.95757636e+01	-4.06989819e+01	-1.58392265e+02	-4.08132980e+01	-1.57805916e+02	-3.43781792e+00	-1.48893009e+02
1963161285.71	-8.16883188e-01	-7.95770110e+01	-4.08513160e+01	-1.58292109e+02	-4.08310157e+01	-1.57863665e+02	-3.44268442e+00	-1.49042886e+02
1963446857.14	-8.14603198e-01	-7.96647646e+01	-4.08161286e+01	-1.58709151e+02	-4.08680694e+01	-1.57728133e+02	-3.43716559e+00	-1.49190235e+02
1963732428.57	-8.15481476e-01	-7.97485004e+01	-4.08193141e+01	-1.58446184e+02	-4.09157972e+01	-1.58325895e+02	-3.43733764e+00	-1.49391135e+02
1964018000	-8.15292654e-01	-7.97998477e+01	-4.08964328e+01	-1.58678357e+02	-4.09664199e+01	-1.58369002e+02	-3.43290351e+00	-1.49592748e+02
1964303571.43	-8.20859424e-01	-7.97712540e+01	-4.09363586e+01	-1.59069942e+02	-4.10378254e+01	-1.58361641e+02	-3.43203455e+00	-1.49781510e+02
1964589142.86	-8.28127993e-01	-7.97639797e+01	-4.10319015e+01	-1.59033837e+02	-4.10895766e+01	-1.58548751e+02	-3.42909647e+00	-1.49923362e+02
1964874714.29	-8.23963300e-01	-7.97959330e+01	-4.10511356e+01	-1.59065311e+02	-4.10933391e+01	-1.59103947e+02	-3.42004084e+00	-1.50107502e+02
1965160285.71	-8.25467907e-01	-7.98807116e+01	-4.11495945e+01	-1.59176666e+02	-4.11224184e+01	-1.58829113e+02	-3.40728642e+00	-1.50292665e+02
1965445857.14	-8.27364679e-01	-7.99043560e+01	-4.10752681e+01	-1.58770872e+02	-4.11496454e+01	-1.58975363e+02	-3.41159184e+00	-1.50511593e+02
1965731428.57	-8.31634336e-01	-7.99230216e+01	-4.12062512e+01	-1.59112016e+02	-4.11895352e+01	-1.58954735e+02	-3.41340830e+00	-1.50763438e+02
1966017000	-8.39065617e-01	-7.99823190e+01	-4.11938453e+01	-1.59708623e+02	-4.12601409e+01	-1.59051128e+02	-3.40685182e+00	-1.50940310e+02
1966302571.43	-8.37493329e-01	-7.99912186e+01	-4.13530438e+01	-1.59943433e+02	-4.13034304e+01	-1.59458367e+02	-3.41151906e+00	-1.51113297e+02
1966588142.86	-8.41472817e-01	-8.00713723e+01	-4.14330519e+01	-1.59846525e+02	-4.13523692e+01	-1.59631159e+02	-3.40100885e+00	-1.51282121e+02
1966873714.29	-8.45836613e-01	-8.01353598e+01	-4.13918903e+01	-1.59876390e+02	-4.13585496e+01	-1.59366023e+02	-3.39825626e+00	-1.51466913e+02
1967159285.71	-8.43691924e-01	-8.01554612e+01	-4.15337618e+01	-1.59872219e+02	-4.13892960e+01	-1.59561679e+02	-3.40581386e+00	-1.51624798e+02
1967444857.14	-8.50190815e-01	-8.01811063e+01	-4.14887991e+01	-1.60083473e+02	-4.15347055e+01	-1.59934883e+02	-3.39927175e+00	-1.51795136e+02
1967730428.57	-8.54464622e-01	-8.02204565e+01	-4.15440696e+01	-1.60696360e+02	-4.15167782e+01	-1.59954482e+02	-3.40108797e+00	-1.51937133e+02
1968016000	-8.52285332e-01	-8.02188888e+01	-4.15676376e+01	-1.60410484e+02	-4.16207113e+01	-1.59565488e+02	-3.40396724e+00	-1.52105701e+02
1968301571.43	-8.49606492e-01	-8.02205483e+01	-4.16536349e+01	-1.60025842e+02	-4.15920950e+01	-1.60335065e+02	-3.40811045e+00	-1.52264356e+02
1968587142.86	-8.48669426e-01	-8.02344582e+01	-4.16126519e+01	-1.60325695e+02	-4.16705357e+01	-1.60207783e+02	-3.41536405e+00	-1.52465083e+02
1968872714.29	-8.58873964e-01	-8.02926503e+01	-4.17475582e+01	-1.60990248e+02	-4.17662584e+01	-1.60426623e+02	-3.41782880e+00	-1.52591238e+02
1969158285.71	-8.65083815e-01	-8.03138865e+01	-4.17803769e+01	-1.60842490e+02	-4.17462686e+01	-1.60269399e+02	-3.42373901e+00	-1.52711383e+02
1969443857.14	-8.58165566e-01	-8.03432957e+01	-4.18814650e+01	-1.61051369e+02	-4.17997593e+01	-1.61111495e+02	-3.42217817e+00	-1.52892255e+02
1969729428.57	-8.54233720e-01	-8.04055727e+01	-4.18069674e+01	-1.60645052e+02	-4.18455759e+01	-1.60566847e+02	-3.41781799e+00	-1.53129266e+02
1970015000	-8.69179071e-01	-8.04421948e+01	-4.20098909e+01	-1.60790029e+02	-4.18842984e+01	-1.61088443e+02	-3.42581476e+00	-1.53277702e+02
1970300571.43	-8.77953355e-01	-8.04454464e+01	-4.20441735e+01	-1.60513170e+02	-4.19946815e+01	-1.60703078e+02	-3.42951362e+00	-1.53464326e+02
1970586142.86	-8.76051139e-01	-8.04973519e+01	-4.20311572e+01	-1.60697095e+02	-4.20609656e+01	-1.60815919e+02	-3.43115386e+00	-1.53707894e+02
1970871714.29	-8.74332964e-01	-8.05328565e+01	-4.20730140e+01	-1.60842088e+02	-4.21183345e+01	-1.61091150e+02	-3.44448178e+00	-1.53868680e+02
1971157285.71	-8.78080557e-01	-8.05717180e+01	-4.21632057e+01	-1.61417500e+02	-4.21398130e+01	-1.60941275e+02	-3.44482166e+00	-1.54061997e+02
1971442857.14	-8.91948736e-01	-8.06107142e+01	-4.22318833e+01	-1.60820765e+02	-4.23025508e+01	-1.61331312e+02	-3.44518541e+00	-1.54271894e+02
1971728428.57	-8.89956073e-01	-8.06151582e+01	-4.22812390e+01	-1.60765171e+02	-4.22573279e+01	-1.60774685e+02	-3.44395927e+00	-1.54463639e+02
1972014000	-8.91948957e-01	-8.06411915e+01	-4.22639151e+01	-1.60494566e+02	-4.23355953e+01	-1.60930881e+02	-3.44413311e+00	-1.54641879e+02
1972299571.43	-8.96426485e-01	-8.06937649e+01	-4.23250750e+01	-1.60569093e+02	-4.24005469e+01	-1.61245947e+02	-3.44633304e+00	-1.54779149e+02
1972585142.86	-9.02126811e-01	-8.06789489e+01	-4.23817513e+01	-1.60106064e+02	-4.23396195e+01	-1.61084355e+02	-3.45483861e+00	-1.55035624e+02
1972870714.29	-9.03033491e-01	-8.07448636e+01	-4.23697038e+01	-1.60624712e+02	-4.24237097e+01	-1.60760366e+02	-3.45675585e+00	-1.55201478e+02
1973156285.71	-9.06286575e-01	-8.07876455e+01	-4.24883157e+01	-1.59981290e+02	-4.25627633e+01	-1.60967685e+02	-3.45725367e+00	-1.55420040e+02
1973441857.14	-9.13445780e-01	-8.07837469e+01	-4.24889873e+01	-1.59972064e+02	-4.25591835e+01	-1.60939273e+02	-3.46524440e+00	-1.55611319e+02
1973727428.57	-9.14754141e-01	-8.08134766e+01	-4.24396140e+01	-1.60444740e+02	-4.26132456e+01	-1.60965034e+02	-3.46480640e+00	-1.55806687e+02
1974013000	-9.15207985e-01	-8.08448027e+01	-4.25993890e+01	-1.59505169e+02	-4.26991748e+01	-1.61128419e+02	-3.46455150e+00	-1.55959456e+02
1974298571.43	-9.19230943e-01	-8.08629689e+01	-4.24919815e+01	-1.59685320e+02	-4.25857972e+01	-1.60826366e+02	-3.47233788e+00	-1.56171771e+02
1974584142.86	-9.18995275e-01	-8.08717557e+01	-4.26082649e+01	-1.59564699e+02	-4.25342564e+01	-1.60612074e+02	-3.47087450e+00	-1.56412194e+02
1974869714.29	-9.20560259e-01	-8.09017719e+01	-4.25903441e+01	-1.59294021e+02	-4.26504219e+01	-1.60595328e+02	-3.48014429e+00	-1.56568396e+02
1975155285.71	-9.30371456e-01	-8.08927539e+01	-4.25690888e+01	-1.58846666e+02	-4.26836774e+01	-1.60177424e+02	-3.47990291e+00	-1.56776171e+02
1975440857.14	-9.31174564e-01	-8.09468686e+01	-4.26826470e+01	-1.59704927e+02	-4.27674663e+01	-1.60524795e+02	-3.48710580e+00	-1.56979720e+02
1975726428.57	-9.39819280e-01	-8.10142741e+01	-4.26440723e+01	-1.59000642e+02	-4.26800807e+01	-1.60228883e+02	-3.49029809e+00	-1.57150503e+02
1976012000	-9.40061887e-01	-8.10086948e+01	-4.26624069e+01	-1.58987931e+02	-4.27072008e+01	-1.60327020e+02	-3.49159539e+00	-1.57343582e+02
1976297571.43	-9.40047203e-01	-8.10380502e+01	-4.26672302e+01	-1.59071781e+02	-4.27707465e+01	-1.60106169e+02	-3.49921127e+00	-1.57529599e+02
1976583142.86	-9.42543951e-01	-8.10899177e+01	-4.26468493e+01	-1.58651923e+02	-4.26919262e+01	-1.60111115e+02	-3.50483139e+00	-1.57786478e+02
1976868714.29	-9.44770629e-01	-8.10977988e+01	-4.26708935e+01	-1.59270447e+02	-4.27478003e+01	-1.59766876e+02	-3.50721950e+00	-1.57983052e+02
1977154285.71	-9.56547386e-01	-8.11016770e+01	-4.25772375e+01	-1.58876428e+02	-4.27878767e+01	-1.60561423e+02	-3.50754726e+00	-1.58222015e+02
1977439857.14	-9.59261142e-01	-8.11438947e+01	-4.27042217e+01	-1.58942752e+02	-4.27656416e+01	-1.60034502e+02	-3.51335013e+00	-1.58401282e+02
1977725428.57	-9.62638351e-01	-8.11508317e+01	-4.26393619e+01	-1.58129112e+02	-4.27281678e+01	-1.60118037e+02	-3.51655856e+00	-1.58667145e+02
1978011000	-9.72819169e-01	-8.11785168e+01	-4.25966711e+01	-1.58777130e+02	-4.28001256e+01	-1.60343035e+02	-3.52612803e+00	-1.58878315e+02
1978296571.43	-9.69066023e-01	-8.12289632e+01	-4.26887142e+01	-1.57988580e+02	-4.27939963e+01	-1.60638566e+02	-3.53332060e+00	-1.59036129e+02
1978582142.86	-9.70356316e-01	-8.12229911e+01	-4.26696578e+01	-1.58734230e+02	-4.27316517e+01	-1.59835406e+02	-3.53951863e+00	-1.59264276e+02
1978867714.29	-9.65697742e-01	-8.12291958e+01	-4.26685130e+01	-1.58374225e+02	-4.27437821e+01	-1.60320786e+02	-3.53454476e+00	-1.59533867e+02
1979153285.71	-9.76195491e-01	-8.12632139e+01	-4.25769440e+01	-1.58534120e+02	-4.27029060e+01	-1.59904102e+02	-3.53750888e+00	-1.59773704e+02
1979438857.14	-9.85321814e-01	-8.12994871e+01	-4.25833142e+01	-1.58981022e+02	-4.27357274e+01	-1.60387324e+02	-3.55165915e+00	-1.60015219e+02
1979724428.57	-9.82446425e-01	-8.13080113e+01	-4.25069614e+01	-1.58613186e+02	-4.26833208e+01	-1.60368164e+02	-3.54972017e+00	-1.60142529e+02
1980010000	-9.88113994e-01	-8.13262318e+01	-4.26048757e+01	-1.58263126e+02	-4.26527416e+01	-1.60413788e+02	-3.55251378e+00	-1.60312576e+02
1980295571.43	-9.88713170e-01	-8.13540443e+01	-4.26014496e+01	-1.58668031e+02	-4.27725572e+01	-1.60331301e+02	-3.56752142e+00	-1.60578874e+02
1980581142.86	-9.92884947e-01	-8.13564987e+01	-4.25516781e+01	-1.58747654e+02	-4.26958458e+01	-1.60779503e+02	-3.56725871e+00	-1.60832134e+02
1980866714.29	-9.98271956e-01	-8.13609239e+01	-4.24066538e+01	-1.58943020e+02	-4.26674636e+01	-1.60841470e+02	-3.57273701e+00	-1.60977272e+02
1981152285.71	-1.00165244e+00	-8.13864013e+01	-4.24872755e+01	-1.58348843e+02	-4.26716398e+01	-1.60101265e+02	-3.58270172e+00	-1.61241508e+02
1981437857.14	-1.00345416e+00	-8.13537527e+01	-4.25847608e+01	-1.58363827e+02	-4.26814724e+01	-1.60355738e+02	-3.59158315e+00	-1.61480615e+02
1981723428.57	-1.00617924e+00	-8.13770362e+01	-4.24081142e+01	-1.58374697e+02	-4.26813556e+01	-1.60872768e+02	-3.59241613e+00	-1.61594222e+02
1982009000	-1.00913251e+00	-8.13813018e+01	-4.25240626e+01	-1.59665592e+02	-4.26612264e+01	-1.61086899e+02	-3.60136586e+00	-1.61854062e+02
1982294571.43	-1.01761622e+00	-8.14069111e+01	-4.24284413e+01	-1.58462686e+02	-4.25888143e+01	-1.60510684e+02	-3.60692343e+00	-1.62042475e+02
1982580142.86	-1.02893758e+00	-8.14506851e+01	-4.22529305e+01	-1.59260491e+02	-4.25505247e+01	-1.60849565e+02	-3.61564154e+00	-1.62285429e+02
1982865714.29	-1.02611907e+00	-8.14684225e+01	-4.23688485e+01	-1.59582600e+02	-4.26391526e+01	-1.61029481e+02	-3.62641846e+00	-1.62461081e+02
1983151285.71	-1.03203896e+00	-8.14250596e+01	-4.23691076e+01	-1.59290839e+02	-4.25077973e+01	-1.61243126e+02	-3.62769057e+00	-1.62685622e+02
1983436857.14	-1.03633048e+00	-8.14278412e+01	-4.23217799e+01	-1.59718015e+02	-4.26088097e+01	-1.61426173e+02	-3.64337753e+00	-1.62951724e+02
1983722428.57	-1.03657817e+00	-8.14422825e+01	-4.22788853e+01	-1.59929540e+02	-4.25596919e+01	-1.61412134e+02	-3.64324385e+00	-1.63158833e+02
1984008000	-1.03794108e+00	-8.14587900e+01	-4.22922111e+01	-1.60556382e+02	-4.24843143e+01	-1.61362882e+02	-3.64800935e+00	-1.63400539e+02
1984293571.43	-1.04298766e+00	-8.14856246e+01	-4.21680935e+01	-1.60538776e+02	-4.25287801e+01	-1.62134073e+02	-3.66159256e+00	-1.63640584e+02
1984579142.86	-1.04284663e+00	-8.15263505e+01	-4.22662060e+01	-1.60350869e+02	-4.24645037e+01	-1.62226655e+02	-3.66551351e+00	-1.63810593e+02
1984864714.29	-1.04850699e+00	-8.15075997e+01	-4.21664652e+01	-1.60757111e+02	-4.24531718e+01	-1.62317862e+02	-3.67885870e+00	-1.64060039e+02
1985150285.71	-1.05314201e+00	-8.15053586e+01	-4.21285991e+01	-1.60729877e+02	-4.24156842e+01	-1.62542847e+02	-3.69194214e+00	-1.64264373e+02
1985435857.14	-1.06117201e+00	-8.15556852e+01	-4.21164243e+01	-1.61396226e+02	-4.24196080e+01	-1.62743475e+02	-3.70000063e+00	-1.64463865e+02
1985721428.57	-1.07253289e+00	-8.15489331e+01	-4.21487851e+01	-1.61725183e+02	-4.23939574e+01	-1.62997312e+02	-3.69037881e+00	-1.64744805e+02
1986007000	-1.07085156e+00	-8.15587293e+01	-4.20934284e+01	-1.61137743e+02	-4.23664750e+01	-1.63114099e+02	-3.70225373e+00	-1.64916472e+02
1986292571.43	-1.07314935e+00	-8.15706809e+01	-4.23091991e+01	-1.61539320e+02	-4.23162379e+01	-1.63362182e+02	-3.71575871e+00	-1.65196625e+02
1986578142.86	-1.07219879e+00	-8.15371915e+01	-4.20377045e+01	-1.62049359e+02	-4.24338412e+01	-1.63685741e+02	-3.72152545e+00	-1.65426281e+02
1986863714.29	-1.07468529e+00	-8.15760470e+01	-4.20098051e+01	-1.62679531e+02	-4.23569291e+01	-1.63891890e+02	-3.73645291e+00	-1.65636404e+02
1987149285.71	-1.07744571e+00	-8.15494648e+01	-4.20936747e+01	-1.62188427e+02	-4.23025112e+01	-1.64489393e+02	-3.74298768e+00	-1.65842869e+02
1987434857.14	-1.08441018e+00	-8.15691612e+01	-4.19699036e+01	-1.63241819e+02	-4.23206152e+01	-1.64803484e+02	-3.74400849e+00	-1.66017580e+02
1987720428.57	-1.09251318e+00	-8.15882376e+01	-4.20403874e+01	-1.62849373e+02	-4.23338785e+01	-1.64650139e+02	-3.77544489e+00	-1.66265673e+02
1988006000	-1.09723736e+00	-8.15899210e+01	-4.19599437e+01	-1.63980223e+02	-4.22940176e+01	-1.65143505e+02	-3.77809064e+00	-1.66472760e+02
1988291571.43	-1.09945730e+00	-8.16327375e+01	-4.20598490e+01	-1.63256974e+02	-4.21618380e+01	-1.64627420e+02	-3.79178258e+00	-1.66732305e+02
1988577142.86	-1.10546516e+00	-8.16078473e+01	-4.19592286e+01	-1.64250076e+02	-4.22820211e+01	-1.65599155e+02	-3.78810243e+00	-1.66913746e+02
1988862714.29	-1.10963708e+00	-8.16337209e+01	-4.20111554e+01	-1.64467575e+02	-4.22100360e+01	-1.65435642e+02	-3.79041507e+00	-1.67147638e+02
1989148285.71	-1.11600401e+00	-8.16358630e+01	-4.19447617e+01	-1.65107336e+02	-4.22467968e+01	-1.66156689e+02	-3.80667657e+00	-1.67372706e+02
1989433857.14	-1.11314593e+00	-8.16302326e+01	-4.19521982e+01	-1.64845653e+02	-4.22418918e+01	-1.66121671e+02	-3.81186979e+00	-1.67563149e+02
1989719428.57	-1.11768488e+00	-8.15931077e+01	-4.19081863e+01	-1.65736053e+02	-4.21671484e+01	-1.66711186e+02	-3.83794998e+00	-1.67815977e+02
1990005000	-1.12066675e+00	-8.16249378e+01	-4.18857759e+01	-1.65601455e+02	-4.22257054e+01	-1.66893615e+02	-3.83689877e+00	-1.68048384e+02
1990290571.43	-1.12896961e+00	-8.16384021e+01	-4.18664078e+01	-1.66213281e+02	-4.22492808e+01	-1.66959646e+02	-3.84929238e+00	-1.68207614e+02
1990576142.86	-1.12953347e+00	-8.16372308e+01	-4.18385587e+01	-1.65604719e+02	-4.21861993e+01	-1.67438511e+02	-3.85242786e+00	-1.68545836e+02
1990861714.29	-1.13522789e+00	-8.16081579e+01	-4.19052668e+01	-1.66661302e+02	-4.22658067e+01	-1.67926622e+02	-3.86507902e+00	-1.68735052e+02
1991147285.71	-1.14283019e+00	-8.15921718e+01	-4.18857370e+01	-1.66720829e+02	-4.22020654e+01	-1.67739701e+02	-3.87160086e+00	-1.68991664e+02
1991432857.14	-1.14997308e+00	-8.16199909e+01	-4.18708487e+01	-1.67853519e+02	-4.21545298e+01	-1.68257277e+02	-3.87054722e+00	-1.69237661e+02
1991718428.57	-1.15841388e+00	-8.16591020e+01	-4.18956965e+01	-1.68044635e+02	-4.21361507e+01	-1.68880109e+02	-3.88208981e+00	-1.69422865e+02
1992004000	-1.16205685e+00	-8.16832285e+01	-4.17953821e+01	-1.68628493e+02	-4.21719941e+01	-1.68952918e+02	-3.89709140e+00	-1.69639923e+02
1992289571.43	-1.16540287e+00	-8.16940091e+01	-4.18369446e+01	-1.68688021e+02	-4.22728033e+01	-1.69591375e+02	-3.90664720e+00	-1.69896681e+02
1992575142.86	-1.16867984e+00	-8.16916281e+01	-4.17762737e+01	-1.68942587e+02	-4.22272877e+01	-1.69191752e+02	-3.91593976e+00	-1.70132993e+02
1992860714.29	-1.17248299e+00	-8.17016254e+01	-4.18630610e+01	-1.68977570e+02	-4.22120729e+01	-1.70299400e+02	-3.92499509e+00	-1.70320463e+02
1993146285.71	-1.17680248e+00	-8.17180899e+01	-4.17696969e+01	-1.69277604e+02	-4.21386370e+01	-1.70602754e+02	-3.92911567e+00	-1.70550592e+02
1993431857.14	-1.18812581e+00	-8.17379982e+01	-4.19766605e+01	-1.69713561e+02	-4.22225156e+01	-1.70513862e+02	-3.94406564e+00	-1.70787803e+02
1993717428.57	-1.19360274e+00	-8.17254869e+01	-4.18722933e+01	-1.69902246e+02	-4.21949543e+01	-1.70775341e+02	-3.94744078e+00	-1.70953632e+02
1994003000	-1.19847095e+00	-8.17125830e+01	-4.18887563e+01	-1.70968428e+02	-4.21457121e+01	-1.71160669e+02	-3.95167579e+00	-1.71114780e+02
1994288571.43	-1.20354702e+00	-8.16821763e+01	-4.19607648e+01	-1.71587141e+02	-4.21147864e+01	-1.71449605e+02	-3.95934944e+00	-1.71263899e+02
1994574142.86	-1.19986930e+00	-8.17026818e+01	-4.17852211e+01	-1.71568987e+02	-4.22591728e+01	-1.71809749e+02	-3.96383973e+00	-1.71541057e+02
1994859714.29	-1.20360976e+00	-8.17588912e+01	-4.17787624e+01	-1.71276708e+02	-4.22028243e+01	-1.72215326e+02	-3.96642613e+00	-1.71784334e+02
1995145285.71	-1.21148576e+00	-8.17206202e+01	-4.19125460e+01	-1.71924950e+02	-4.22374763e+01	-1.72193640e+02	-3.99111024e+00	-1.72011038e+02
1995430857.14	-1.21707051e+00	-8.17242958e+01	-4.19398812e+01	-1.72334420e+02	-4.22391190e+01	-1.72688617e+02	-3.98488668e+00	-1.72061491e+02
1995716428.57	-1.22726007e+00	-8.17144867e+01	-4.19148005e+01	-1.72484142e+02	-4.22016234e+01	-1.73027139e+02	-3.99495418e+00	-1.72268913e+02
1996002000	-1.23136871e+00	-8.17346633e+01	-4.19479034e+01	-1.72649305e+02	-4.22132476e+01	-1.72520719e+02	-4.00662189e+00	-1.72463702e+02
1996287571.43	-1.23682193e+00	-8.17109877e+01	-4.19035750e+01	-1.73106472e+02	-4.22372556e+01	-1.72883956e+02	-4.01804287e+00	-1.72686762e+02
1996573142.86	-1.24157024e+00	-8.17224751e+01	-4.18592240e+01	-1.72852937e+02	-4.22325232e+01	-1.73491436e+02	-4.02234008e+00	-1.72855094e+02
1996858714.29	-1.24335556e+00	-8.17109987e+01	-4.19772720e+01	-1.73695122e+02	-4.21836416e+01	-1.73639820e+02	-4.04231126e+00	-1.73062980e+02
1997144285.71	-1.24606940e+00	-8.17082955e+01	-4.19248919e+01	-1.74284079e+02	-4.22148649e+01	-1.73952515e+02	-4.04500154e+00	-1.73222685e+02
1997429857.14	-1.24995464e+00	-8.17193281e+01	-4.19965618e+01	-1.74239710e+02	-4.21223421e+01	-1.74256919e+02	-4.06721426e+00	-1.73478761e+02
1997715428.57	-1.26129666e+00	-8.17393910e+01	-4.20405913e+01	-1.74640549e+02	-4.21940971e+01	-1.74681909e+02	-4.07960138e+00	-1.73711515e+02
1998001000	-1.27397039e+00	-8.17771355e+01	-4.19602018e+01	-1.74612135e+02	-4.22120649e+01	-1.74476882e+02	-4.09936713e+00	-1.73966092e+02
1998286571.43	-1.27973219e+00	-8.17852405e+01	-4.19949271e+01	-1.74223976e+02	-4.21628211e+01	-1.75025378e+02	-4.12065301e+00	-1.74255174e+02
1998572142.86	-1.28612617e+00	-8.17742062e+01	-4.20366652e+01	-1.75176822e+02	-4.21106478e+01	-1.74873258e+02	-4.13511243e+00	-1.74396906e+02
1998857714.29	-1.28968333e+00	-8.17685302e+01	-4.18866719e+01	-1.75356246e+02	-4.21798823e+01	-1.75453271e+02	-4.14135223e+00	-1.74669803e+02
1999143285.71	-1.29550650e+00	-8.17881336e+01	-4.19345113e+01	-1.75243411e+02	-4.21795785e+01	-1.75612913e+02	-4.15997471e+00	-1.74856780e+02
1999428857.14	-1.30477162e+00	-8.17942911e+01	-4.19695814e+01	-1.75778645e+02	-4.20868427e+01	-1.76143594e+02	-4.16203331e+00	-1.75116090e+02
1999714428.57	-1.31028247e+00	-8.17596484e+01	-4.19015210e+01	-1.76357969e+02	-4.20649159e+01	-1.76588917e+02	-4.18214081e+00	-1.75297095e+02
2000000000	-1.31017120e+00	-8.17486956e+01	-4.19456716e+01	-1.76833547e+02	-4.20779281e+01	-1.76691058e+02	-4.19296147e+00	-1.75505360e+02
