!    07/05/2026   19:26:44 
! Ref Plane: 0.000 mm
# MHZ S MA R  50
!
10.0000       1.00115       -0.12         9.211E-5      12.38         1.706E-4      152.01        1.0006        -0.20          
39.9500       0.99924       -0.50         1.279E-4      128.88        1.904E-4      91.52         1.00103       -1.38          
69.9000       0.99899       -0.89         1.085E-4      177.50        2.414E-4      157.82        1.00069       -1.55          
99.8500       0.99925       -1.42         1.526E-4      107.95        1.279E-4      121.91        1.00143       -1.85          
129.8000      0.99888       -1.79         5.184E-4      -98.19        4.962E-4      -89.48        1.00139       -3.47          
159.7500      0.99886       -2.36         3.132E-4      170.28        3.356E-4      154.96        1.00196       -2.96          
189.7000      0.9987        -3.01         2.566E-4      142.62        3.668E-4      115.68        1.00191       -4.49          
219.6500      0.99808       -2.89         7.901E-4      29.84         8.928E-4      24.44         1.00181       -4.11          
249.6000      0.99888       -3.61         4.632E-4      -127.65       4.615E-4      -137.95       1.00198       -5.20          
279.5500      0.999         -3.83         2.516E-4      -153.64       2.839E-4      -165.83       1.0027        -6.00          
309.5000      0.99663       -4.10         8.826E-4      92.86         1.091E-3      105.71        1.00194       -5.93          
339.4500      0.99774       -4.68         1.066E-3      -120.37       9.233E-4      -119.22       1.00093       -7.24          
369.4000      0.99798       -5.02         7.217E-4      125.57        6.658E-4      128.58        1.00293       -6.82          
399.3500      0.99532       -5.72         2.682E-3      11.59         2.843E-3      13.26         0.99778       -9.06          
429.3000      0.99706       -6.01         1.824E-3      -117.02       1.837E-3      -117.11       1.00312       -8.42          
459.2500      0.99616       -6.62         1.939E-3      157.65        2.09E-3       159.85        0.99911       -9.53          
489.2000      0.99361       -6.92         2.754E-3      72.12         2.786E-3      73.09         1.0004        -10.15         
519.1500      0.99316       -7.44         1.441E-3      -96.01        1.372E-3      -95.40        0.9974        -8.49          
549.1000      0.99419       -7.78         1.387E-4      46.09         1.834E-4      93.69         0.99864       -11.22         
579.0500      0.99202       -7.92         1.343E-3      -48.26        1.37E-3       -50.37        0.99674       -11.65         
609.0000      0.98657       -9.02         4.284E-3      -157.08       4.427E-3      -160.49       0.98719       -12.94         
638.9500      0.98633       -9.02         4.174E-3      73.13         4.222E-3      70.89         0.99293       -12.49         
668.9000      0.96748       -9.05         2.561E-3      -9.68         2.769E-3      -6.81         0.99683       -13.31         
698.8500      0.99129       -9.06         2.101E-3      -80.08        2.153E-3      -81.04        0.99879       -13.91         
728.8000      0.99135       -9.90         1.418E-3      -173.99       1.247E-3      -176.99       0.99646       -14.35         
758.7500      0.99192       -10.79        5.135E-4      14.50         4.284E-4      20.02         0.99583       -16.27         
788.7000      0.98838       -11.20        1.313E-3      -173.79       1.347E-3      179.90        0.99244       -15.38         
818.6500      0.99072       -11.75        1.788E-3      101.08        1.88E-3       101.09        0.99399       -16.99         
848.6000      0.98713       -12.36        2.49E-3       24.26         2.661E-3      21.64         0.99541       -17.14         
878.5500      0.98404       -12.84        3.297E-3      -89.69        3.32E-3       -88.37        0.9865        -17.52         
908.5000      0.98673       -12.57        2.261E-3      169.27        2.082E-3      167.42        0.99133       -18.63         
938.4500      0.986         -13.65        1.407E-3      74.52         1.564E-3      72.25         0.989         -18.89         
968.4000      0.98098       -14.24        7.548E-4      -90.21        5.791E-4      -100.59       0.98617       -20.30         
998.3500      0.98117       -14.59        1.923E-3      103.51        1.877E-3      99.94         0.98715       -19.82         
1028.3000     0.97723       -15.30        2.442E-3      2.42          2.291E-3      -0.66         0.98192       -21.39         
1058.2500     0.97975       -15.18        2.351E-3      -108.15       2.26E-3       -113.38       0.98035       -21.58         
1088.2000     0.97848       -16.04        1.319E-3      138.22        1.128E-3      146.29        0.97559       -23.37         
1118.1500     0.98007       -16.86        2.907E-4      -9.44         2.515E-4      -12.25        0.98406       -24.22         
1148.1000     0.97054       -17.45        1.212E-3      163.70        1.116E-3      157.00        0.96589       -24.10         
1178.0500     0.97689       -17.49        1.398E-3      42.81         1.264E-3      39.86         0.97659       -25.07         
1208.0000     0.97219       -18.27        1.33E-3       -69.04        1.334E-3      -70.09        0.97248       -24.59         
1237.9500     0.97096       -18.51        2.766E-3      -179.00       2.83E-3       -179.82       0.96868       -26.77         
1267.9000     0.97152       -18.62        3.60E-3       79.39         3.682E-3      77.57         0.9711        -26.51         
1297.8500     0.97226       -20.03        3.795E-3      -11.58        3.72E-3       -10.78        0.96886       -27.51         
1327.8000     0.96955       -19.80        3.462E-3      -101.63       3.386E-3      -103.99       0.97094       -28.59         
1357.7500     0.97174       -21.07        2.493E-3      178.16        2.389E-3      174.48        0.96542       -28.84         
1387.7000     0.96906       -21.33        1.273E-3      115.61        1.089E-3      116.77        0.95915       -30.50         
1417.6500     0.9628        -22.19        8.496E-4      97.59         8.335E-4      112.85        0.94459       -30.48         
1447.6000     0.95698       -23.35        1.626E-3      38.74         1.629E-3      34.91         0.94335       -30.93         
1477.5500     0.95215       -24.24        1.731E-3      -18.03        1.691E-3      -18.29        0.94271       -30.90         
1507.5000     0.93924       -24.24        3.265E-3      -98.85        3.294E-3      -100.23       0.94504       -30.99         
1537.4500     0.93581       -25.30        4.498E-3      -179.65       4.461E-3      179.13        0.94803       -32.56         
1567.4000     0.93704       -24.95        5.343E-3      87.89         5.315E-3      86.30         0.95289       -32.45         
1597.3500     0.93017       -24.32        4.469E-3      9.15          4.485E-3      7.95          0.94987       -34.47         
1627.3000     0.93228       -25.45        3.29E-3       -59.13        3.216E-3      -62.86        0.95231       -34.27         
1657.2500     0.92932       -25.48        3.34E-3       -102.59       3.383E-3      -99.52        0.95319       -36.37         
1687.2000     0.92352       -25.69        4.322E-3      -170.29       4.327E-3      -172.23       0.94387       -36.91         
1717.1500     0.93933       -26.24        3.585E-3      106.61        3.675E-3      107.27        0.94367       -37.13         
1747.1000     0.93204       -26.83        2.406E-3      33.33         2.309E-3      29.70         0.94742       -39.76         
1777.0500     0.93546       -27.81        1.017E-3      -6.69         1.179E-3      -6.57         0.93131       -39.28         
1807.0000     0.94349       -28.71        1.628E-3      -53.36        1.74E-3       -58.32        0.93335       -41.11         
1836.9500     0.93311       -30.65        2.813E-3      -128.32       2.807E-3      -127.93       0.91692       -42.20         
1866.9000     0.92783       -29.87        4.328E-3      133.69        4.366E-3      132.47        0.89184       -43.81         
1896.8500     0.90682       -31.72        4.705E-3      46.17         4.634E-3      45.62         0.86215       -43.28         
1926.8000     0.90097       -31.99        5.251E-3      -45.26        5.268E-3      -46.61        0.85033       -40.81         
1956.7500     0.87085       -32.75        3.506E-3      -121.75       3.475E-3      -122.66       0.86777       -41.60         
1986.7000     0.86845       -30.80        1.484E-3      -151.77       1.295E-3      -157.00       0.89405       -40.22         
2016.6500     0.87743       -28.20        1.018E-3      89.95         9.296E-4      90.21         0.89565       -42.96         
2046.6000     0.89901       -30.21        1.136E-3      158.33        1.128E-3      161.02        0.92129       -41.70         
2076.5500     0.91596       -30.81        8.884E-4      147.44        7.304E-4      139.52        0.91779       -43.90         
2106.5000     0.92735       -32.41        1.408E-3      69.23         1.504E-3      73.08         0.93094       -45.60         
2136.4500     0.93841       -32.69        8.822E-4      17.98         8.571E-4      4.65          0.92312       -45.88         
2166.4000     0.93649       -33.96        1.45E-3       -6.08         1.56E-3       -6.56         0.9273        -49.84         
2196.3500     0.93473       -36.78        1.129E-3      -56.76        1.12E-3       -56.67        0.93122       -47.37         
2226.3000     0.9343        -38.03        7.165E-5      -106.07       2.324E-4      -128.16       0.91849       -52.07         
2256.2500     0.92133       -39.30        2.054E-3      -68.89        2.173E-3      -72.08        0.93219       -49.90         
2286.2000     0.90766       -40.56        1.674E-3      -132.87       1.625E-3      -134.29       0.90334       -53.79         
2316.1500     0.89508       -40.68        1.695E-3      176.68        1.844E-3      173.52        0.92294       -53.85         
2346.1000     0.89209       -39.97        5.898E-4      163.73        6.935E-4      167.38        0.89677       -53.99         
2376.0500     0.8887        -39.50        2.49E-3       112.13        2.33E-3       110.11        0.9128        -56.95         
2406.0000     0.89847       -43.43        2.372E-3      28.23         2.445E-3      29.05         0.91138       -55.19         
2435.9500     0.91585       -44.01        9.432E-4      -9.36         1.044E-3      -10.34        0.91369       -60.20         
2465.9000     0.91947       -44.31        1.449E-3      -20.03        1.354E-3      -18.79        0.92446       -57.46         
2495.8500     0.92118       -46.62        1.016E-3      -56.17        1.028E-3      -48.41        0.90028       -62.37         
2525.8000     0.91865       -47.97        5.899E-4      -130.86       6.195E-4      -139.81       0.91985       -62.15         
2555.7500     0.9119        -50.12        4.566E-4      -16.40        4.582E-4      -13.69        0.8906        -64.20         
2585.7000     0.90396       -51.68        2.196E-3      -83.61        2.063E-3      -83.92        0.90366       -67.05         
2615.6500     0.89193       -54.59        3.364E-3      -139.00       3.372E-3      -136.84       0.88036       -66.20         
2645.6000     0.88037       -56.33        4.077E-3      161.38        4.051E-3      159.29        0.87937       -71.23         
2675.5500     0.86947       -56.48        4.117E-3      95.27         4.086E-3      94.99         0.87997       -68.63         
2705.5000     0.83463       -58.41        3.165E-3      61.81         3.062E-3      61.21         0.84541       -73.93         
2735.4500     0.82038       -59.98        3.079E-3      34.64         3.08E-3       31.83         0.86593       -71.79         
2765.4000     0.79767       -62.20        3.492E-3      -6.64         3.486E-3      -9.45         0.81569       -76.33         
2795.3500     0.78476       -61.75        4.265E-3      -39.06        4.35E-3       -40.14        0.8404        -76.37         
2825.3000     0.75882       -62.14        4.002E-3      -77.66        4.127E-3      -81.68        0.79733       -74.54         
2855.2500     0.75934       -63.28        5.63E-3       -126.60       5.653E-3      -129.58       0.83143       -79.73         
2885.2000     0.74306       -61.86        5.515E-3      -169.01       5.529E-3      -170.46       0.81509       -75.46         
2915.1500     0.73973       -63.21        6.099E-3      136.27        6.02E-3       135.39        0.81854       -83.62         
2945.1000     0.73694       -64.11        6.53E-3       100.60        6.619E-3      98.74         0.83761       -79.64         
2975.0500     0.74775       -65.29        5.763E-3      46.75         5.834E-3      46.22         0.80578       -87.57         
3005.0000     0.75865       -66.10        5.803E-3      3.55          5.751E-3      1.14          0.84763       -85.63         
3034.9500     0.76516       -68.44        6.268E-3      -36.79        6.186E-3      -37.22        0.78807       -90.15         
3064.9000     0.75857       -71.05        4.679E-3      -61.88        4.978E-3      -64.03        0.82431       -93.35         
3094.8500     0.76168       -75.41        3.796E-3      -109.39       3.835E-3      -109.22       0.77167       -92.73         
3124.8000     0.74772       -76.90        3.178E-3      -132.74       3.21E-3       -133.28       0.79294       -99.98         
3154.7500     0.72999       -83.03        5.558E-3      -159.81       5.414E-3      -161.31       0.76006       -96.21         
3184.7000     0.72929       -84.61        6.855E-3      149.46        6.983E-3      149.60        0.73564       -105.31        
3214.6500     0.69277       -87.34        8.117E-3      95.97         8.021E-3      96.62         0.7432        -101.67        
3244.6000     0.68246       -91.56        7.351E-3      46.53         7.26E-3       45.40         0.67577       -107.95        
3274.5500     0.64938       -91.97        4.282E-3      20.43         4.379E-3      19.44         0.70425       -108.23        
3304.5000     0.62635       -95.91        5.752E-3      13.60         5.757E-3      11.99         0.63794       -108.12        
3334.4500     0.60802       -97.37        5.974E-3      -54.24        5.901E-3      -55.64        0.66688       -114.33        
3364.4000     0.57486       -102.06       6.304E-3      -94.32        6.266E-3      -95.85        0.63799       -110.24        
3394.3500     0.56554       -103.04       8.009E-3      -125.96       7.904E-3      -126.90       0.62475       -117.77        
3424.3000     0.53113       -104.98       6.06E-3       -168.15       6.136E-3      -168.79       0.62935       -114.28        
3454.2500     0.5221        -108.34       7.212E-3      159.02        7.253E-3      159.07        0.60012       -120.76        
3484.2000     0.48906       -110.21       8.813E-3      108.25        8.834E-3      106.84        0.64001       -119.60        
3514.1500     0.49429       -116.11       9.594E-3      80.65         9.442E-3      79.40         0.58372       -125.49        
3544.1000     0.47079       -115.08       1.155E-2      16.34         1.15E-2       15.37         0.62957       -128.24        
3574.0500     0.44295       -122.97       1.067E-2      -34.59        1.053E-2      -35.57        0.56942       -129.43        
3604.0000     0.43796       -123.41       1.013E-2      -59.84        1.015E-2      -61.45        0.59645       -137.65        
3633.9500     0.39678       -127.64       1.157E-2      -118.56       1.156E-2      -120.34       0.55955       -135.09        
3663.9000     0.39949       -132.99       9.225E-3      -154.19       9.18E-3       -155.91       0.55468       -145.30        
3693.8500     0.35887       -136.85       8.884E-3      145.66        8.869E-3      144.90        0.54507       -143.30        
3723.8000     0.35155       -143.32       6.731E-3      102.48        6.748E-3      101.11        0.51019       -152.19        
3753.7500     0.31406       -146.60       6.364E-3      79.18         6.288E-3      77.41         0.5151        -150.49        
3783.7000     0.31203       -154.55       8.259E-3      43.06         8.119E-3      41.79         0.45786       -157.91        
3813.6500     0.2739        -156.04       8.279E-3      -17.64        8.426E-3      -19.75        0.48677       -160.46        
3843.6000     0.26448       -163.42       3.897E-3      -78.61        3.878E-3      -80.48        0.44156       -162.39        
3873.5500     0.25897       -164.59       3.709E-3      -80.57        3.75E-3       -82.61        0.44731       -167.45        
3903.5000     0.23043       -173.85       2.217E-3      -140.58       2.271E-3      -142.42       0.41138       -168.99        
3933.4500     0.24002       -178.01       3.72E-3       -155.17       3.722E-3      -157.95       0.41078       -175.62        
3963.4000     0.21726       173.53        1.884E-3      139.81        1.826E-3      136.27        0.38354       -175.77        
3993.3500     0.23675       168.64        7.149E-4      163.72        8.187E-4      159.54        0.36577       178.35         
4023.3000     0.20691       162.40        2.441E-3      141.26        2.458E-3      139.66        0.36727       177.20         
4053.2500     0.20882       146.90        5.081E-3      152.68        5.035E-3      150.86        0.34038       173.32         
4083.2000     0.20423       143.90        5.903E-3      19.05         5.85E-3       17.94         0.33917       171.11         
4113.1500     0.20311       132.20        1.056E-3      38.97         1.129E-3      33.85         0.31354       165.76         
4143.1000     0.20207       126.40        4.563E-3      -9.37         4.533E-3      -10.67        0.3308        162.11         
4173.0500     0.20186       117.16        4.607E-3      -6.35         4.565E-3      -7.57         0.30056       161.70         
4203.0000     0.2062        117.49        6.623E-3      -103.93       6.526E-3      -105.56       0.30675       155.20         
4232.9500     0.18643       103.73        5.746E-3      -157.53       5.666E-3      -158.53       0.28131       155.74         
4262.9000     0.20688       99.22         5.084E-3      156.22        5.05E-3       154.41        0.27308       147.46         
4292.8500     0.18171       91.68         2.451E-3      46.00         2.429E-3      45.85         0.26497       149.25         
4322.8000     0.20231       86.37         8.861E-4      88.80         9.141E-4      81.78         0.24272       139.72         
4352.7500     0.17565       85.74         2.903E-3      112.75        2.897E-3      111.57        0.24994       143.40         
4382.7000     0.19256       79.51         1.918E-3      56.24         1.955E-3      53.90         0.21314       137.77         
4412.6500     0.17634       79.90         3.631E-3      56.76         3.632E-3      56.22         0.23088       141.22         
4442.6000     0.16099       72.17         2.70E-3       9.43          2.727E-3      7.05          0.19912       142.44         
4472.5500     0.17549       77.08         5.906E-3      -24.92        5.817E-3      -26.32        0.21898       145.37         
4502.5000     0.18494       77.96         6.366E-3      -76.36        6.34E-3       -77.13        0.2234        146.22         
4532.4500     0.18244       83.23         7.867E-3      -133.47       7.941E-3      -135.27       0.27971       142.70         
4562.4000     0.19817       79.31         5.111E-3      -172.85       5.081E-3      -173.93       0.27727       137.18         
4592.3500     0.21313       85.26         5.972E-3      142.79        6.151E-3      141.96        0.32017       126.02         
4622.3000     0.18231       85.42         6.475E-3      104.38        6.402E-3      102.87        0.29018       129.10         
4652.2500     0.20398       78.72         6.002E-3      37.88         6.035E-3      36.37         0.29          114.66         
4682.2000     0.22757       81.66         4.052E-3      29.33         4.021E-3      28.71         0.29271       122.24         
4712.1500     0.23734       80.79         6.381E-3      -9.08         6.334E-3      -10.37        0.25288       109.32         
4742.1000     0.26496       78.07         5.414E-3      -60.96        5.361E-3      -62.71        0.29195       114.22         
4772.0500     0.27183       74.42         5.207E-3      -103.32       5.181E-3      -104.43       0.24481       108.48         
4802.0000     0.27605       70.05         5.523E-3      -153.88       5.543E-3      -155.12       0.29286       104.98         
4831.9500     0.27485       68.16         3.942E-3      171.77        3.974E-3      170.99        0.24983       109.74         
4861.9000     0.27971       65.05         4.326E-3      169.21        4.427E-3      168.08        0.2782        99.28          
4891.8500     0.27778       61.07         6.377E-3      103.89        6.338E-3      103.08        0.26045       108.72         
4921.8000     0.25279       55.11         4.715E-3      57.25         4.723E-3      55.48         0.24944       92.07          
4951.7500     0.23944       54.50         3.819E-3      26.96         3.762E-3      26.98         0.29338       101.70         
4981.7000     0.21529       58.04         3.889E-3      -6.55         3.872E-3      -8.60         0.23959       94.56          
5011.6500     0.19665       58.15         3.163E-3      -65.55        3.141E-3      -67.22        0.30205       97.18          
5041.6000     0.17933       64.61         4.23E-3       -81.33        4.223E-3      -83.02        0.23862       97.01          
5071.5500     0.16947       80.63         3.01E-3       -104.45       2.896E-3      -106.26       0.29312       86.38          
5101.5000     0.18637       85.08         3.344E-3      -160.70       3.416E-3      -161.42       0.25914       95.20          
5131.4500     0.20856       95.59         4.904E-3      170.55        4.847E-3      169.64        0.2902        79.11          
5161.4000     0.22763       100.68        4.227E-3      119.79        4.198E-3      120.04        0.29058       93.87          
5191.3500     0.30775       103.35        4.371E-3      75.16         4.351E-3      73.62         0.25431       72.49          
5221.3000     0.33019       101.86        3.222E-3      29.22         3.232E-3      28.31         0.32139       84.91          
5251.2500     0.40958       92.42         3.195E-3      -13.87        3.149E-3      -13.35        0.23328       76.89          
5281.2000     0.45047       102.87        2.824E-3      -63.89        2.829E-3      -66.12        0.30998       77.32          
5311.1500     0.41065       94.06         1.12E-3       -91.85        1.115E-3      -93.09        0.20954       78.05          
5341.1000     0.46817       86.66         8.393E-4      -95.45        7.386E-4      -95.29        0.28007       63.56          
5371.0500     0.44894       85.58         1.811E-3      -148.32       1.832E-3      -146.75       0.22218       83.57          
5401.0000     0.47173       79.55         2.246E-3      166.60        2.196E-3      165.24        0.20915       55.56          
5430.9500     0.47072       79.07         1.464E-3      144.21        1.435E-3      143.93        0.22752       80.88          
5460.9000     0.45548       73.68         6.127E-4      102.09        7.028E-4      107.87        0.15587       67.57          
5490.8500     0.45255       72.75         1.201E-3      -166.28       1.254E-3      -164.47       0.23554       85.17          
5520.8000     0.45092       72.85         2.335E-3      76.85         2.387E-3      75.12         0.14713       97.51          
5550.7500     0.45419       73.41         3.489E-3      18.09         3.447E-3      16.35         0.23737       83.68          
5580.7000     0.44618       71.51         2.107E-3      -37.35        2.103E-3      -36.53        0.23646       109.28         
5610.6500     0.4519        75.35         1.457E-3      -90.91        1.495E-3      -91.16        0.23481       90.98          
5640.6000     0.44734       77.97         2.428E-3      -140.77       2.366E-3      -138.85       0.32574       105.93         
5670.5500     0.46937       76.63         6.35E-4       -121.95       6.667E-4      -116.90       0.27641       96.39          
5700.5000     0.48793       78.12         4.742E-4      -73.53        3.98E-4       -53.42        0.40449       98.95          
5730.4500     0.52167       77.77         8.35E-4       164.37        8.275E-4      170.79        0.33708       98.83          
5760.4000     0.55302       77.88         1.92E-3       99.76         1.956E-3      97.10         0.45394       87.41          
5790.3500     0.57913       73.25         8.215E-4      -88.48        9.609E-4      -87.71        0.41971       92.01          
5820.3000     0.61063       74.73         8.68E-4       155.46        8.623E-4      153.09        0.47902       74.84          
5850.2500     0.5983        70.79         8.068E-5      174.33        2.092E-4      -178.02       0.49982       84.85          
5880.2000     0.63617       68.46         2.736E-3      20.57         2.784E-3      18.41         0.44786       69.41          
5910.1500     0.61079       66.09         6.013E-4      -79.99        5.42E-4       -86.44        0.53408       73.95          
5940.1000     0.63347       63.03         7.69E-4       16.61         7.598E-4      5.38          0.44197       65.90          
5970.0500     0.61038       66.13         9.689E-4      156.74        1.254E-3      147.91        0.55372       65.61          
6000.0000     0.60415       59.82         1.231E-3      -117.72       1.275E-3      -121.46       0.45365       64.20          
