!    20/04/2026   17:17:46 
! Ref Plane: 0.000 mm
# MHZ S MA R  50
!
10.0000       1.00814       -0.41         8.658E-5      -9.24         1.767E-4      145.33        0.99415       0.63           
39.9500       1.00833       -0.91         5.691E-5      -144.78       1.559E-4      47.75         0.9959        0.49           
69.9000       1.0066        -1.61         4.593E-5      119.96        2.019E-4      151.25        0.9954        1.71           
99.8500       1.00727       -2.52         4.748E-5      125.76        7.17E-5       -124.86       0.9957        2.72           
129.8000      1.00694       -3.20         4.662E-5      161.27        6.045E-5      0.55          0.99656       2.56           
159.7500      1.00661       -4.17         3.777E-5      -77.97        8.637E-5      134.31        0.99686       4.39           
189.7000      1.00552       -4.88         7.932E-6      -136.14       1.68E-4       50.87         0.99711       3.83           
219.6500      1.0058        -5.67         6.245E-5      -38.60        2.07E-4       -17.05        0.99844       5.68           
249.6000      1.00645       -6.57         9.71E-6       132.94        3.951E-5      90.14         0.99589       5.72           
279.5500      1.00509       -7.41         3.473E-5      17.74         7.142E-5      78.55         0.99824       6.59           
309.5000      1.00703       -8.31         6.832E-5      28.26         2.56E-4       138.66        0.99883       7.85           
339.4500      1.003         -9.04         3.594E-5      -129.82       1.054E-4      100.53        0.99871       7.51           
369.4000      1.00197       -9.84         4.919E-5      -93.89        1.51E-4       -83.86        0.99843       9.39           
399.3500      1.00096       -10.62        3.976E-5      68.98         2.65E-4       50.57         0.99736       8.57           
429.3000      1.00545       -11.30        6.401E-5      92.97         6.174E-5      74.94         1.0021        10.51          
459.2500      1.00133       -12.23        5.665E-5      62.32         1.909E-4      -172.74       0.99799       10.48          
489.2000      1.00161       -13.09        5.737E-5      -55.92        5.872E-5      133.36        0.9992        11.00          
519.1500      1.00018       -13.96        6.171E-5      -90.55        5.044E-5      16.15         1.00029       13.89          
549.1000      0.9966        -14.91        8.076E-5      -115.98       1.384E-4      164.02        0.99562       12.96          
579.0500      0.99406       -15.62        4.417E-5      -162.90       7.056E-5      -126.76       1.00224       14.36          
609.0000      0.99176       -16.49        3.492E-5      -167.55       1.924E-4      166.63        0.99649       13.67          
638.9500      0.99258       -17.07        7.045E-5      -147.42       7.664E-5      41.52         1.00219       15.05          
668.9000      0.99372       -18.13        2.335E-5      87.36         2.837E-4      34.44         0.99617       15.29          
698.8500      0.99348       -18.89        5.214E-5      -90.54        9.875E-5      -89.26        1.00292       16.22          
728.8000      0.9947        -20.07        5.432E-5      -1.94         1.753E-4      11.16         0.99926       17.59          
758.7500      0.99035       -21.07        4.64E-6       -31.69        5.492E-5      -178.88       1.00303       17.08          
788.7000      0.98426       -22.05        9.148E-6      -17.52        1.512E-4      81.80         1.0014        18.91          
818.6500      0.97852       -22.73        6.814E-5      -31.30        8.593E-5      87.30         1.00003       18.30          
848.6000      0.97654       -23.35        2.767E-5      130.94        1.957E-4      13.52         1.0041        19.71          
878.5500      0.98126       -23.92        5.818E-5      170.40        1.808E-5      -26.13        1.00293       20.77          
908.5000      0.98269       -25.19        5.378E-5      164.07        9.926E-5      16.30         1.00274       21.43          
938.4500      0.98272       -26.25        4.689E-5      165.76        1.404E-4      91.30         1.00149       22.01          
968.4000      0.97503       -27.61        6.522E-5      -94.66        9.002E-5      92.99         1.00064       22.28          
998.3500      0.96769       -28.13        1.136E-4      162.55        1.072E-4      -175.69       1.00275       23.93          
1028.3000     0.96492       -28.99        1.372E-4      34.93         3.823E-5      -78.76        0.99921       23.75          
1058.2500     0.97127       -29.54        5.548E-5      -95.02        1.369E-4      -174.82       1.00824       25.96          
1088.2000     0.96864       -30.76        6.934E-5      100.37        1.089E-4      -44.09        0.99644       25.26          
1118.1500     0.97088       -31.71        7.471E-5      70.95         6.149E-5      164.66        1.00659       25.50          
1148.1000     0.96483       -33.04        5.656E-5      -140.03       1.485E-4      31.89         0.99677       26.75          
1178.0500     0.96378       -34.09        4.82E-5       -38.40        1.136E-4      -138.54       1.00534       26.20          
1208.0000     0.95305       -35.04        1.443E-5      -35.65        1.515E-5      -173.85       1.00223       29.07          
1237.9500     0.95667       -35.65        7.869E-5      57.87         3.925E-5      169.61        1.00118       28.36          
1267.9000     0.94953       -36.76        6.46E-5       -120.66       6.555E-5      146.36        1.00537       29.55          
1297.8500     0.95237       -37.78        6.729E-5      -87.83        5.43E-5       139.75        0.99864       29.64          
1327.8000     0.94598       -38.95        7.981E-5      -109.25       9.503E-5      150.33        1.00827       30.59          
1357.7500     0.94769       -39.98        5.51E-5       -156.83       8.644E-5      55.62         0.99863       31.32          
1387.7000     0.93611       -41.13        9.675E-5      100.72        5.071E-5      -92.92        1.01005       32.22          
1417.6500     0.93678       -42.08        6.929E-5      62.54         1.318E-4      -170.49       0.99818       33.25          
1447.6000     0.92687       -42.88        2.026E-5      111.61        6.306E-5      23.33         1.00773       33.26          
1477.5500     0.93181       -44.02        4.713E-5      7.63          8.249E-5      50.88         1.00129       34.59          
1507.5000     0.92734       -44.75        1.035E-5      -148.34       1.82E-5       -20.04        1.00669       35.33          
1537.4500     0.92981       -46.40        4.707E-5      119.39        5.212E-5      95.61         1.00386       36.34          
1567.4000     0.92095       -47.33        3.259E-5      -81.65        4.985E-5      -51.52        1.00532       36.61          
1597.3500     0.9199        -48.94        5.33E-5       -17.64        8.506E-5      0.06          1.00704       37.53          
1627.3000     0.91205       -49.60        6.476E-5      7.81          2.914E-5      63.41         1.00499       38.20          
1657.2500     0.9151        -50.99        2.019E-5      102.01        1.26E-4       -2.90         1.00635       38.50          
1687.2000     0.90869       -52.26        3.488E-5      -62.85        1.919E-5      123.15        1.00548       39.15          
1717.1500     0.90768       -53.71        1.093E-4      -72.12        6.563E-5      -165.79       1.00609       40.09          
1747.1000     0.89716       -55.21        5.273E-5      170.56        6.872E-5      -108.89       1.00781       40.74          
1777.0500     0.89276       -56.53        2.937E-5      -113.88       5.936E-5      5.54          1.00368       41.13          
1807.0000     0.8827        -57.97        7.57E-5       28.09         9.717E-5      -24.62        1.00963       41.82          
1836.9500     0.87603       -59.35        5.698E-5      67.83         1.033E-4      25.13         1.0028        42.80          
1866.9000     0.86442       -60.51        3.616E-5      -178.04       4.744E-5      -177.69       1.01066       43.31          
1896.8500     0.85737       -62.25        1.51E-5       -60.25        7.949E-5      -110.18       1.00288       44.38          
1926.8000     0.8454        -63.23        1.012E-4      -150.87       7.04E-5       149.54        1.00964       45.36          
1956.7500     0.81965       -65.39        3.949E-5      -114.87       2.534E-5      -143.55       1.00374       45.63          
1986.7000     0.79917       -64.44        7.297E-5      -179.83       5.95E-5       90.30         1.00874       46.53          
2016.6500     0.79083       -64.62        9.40E-5       139.14        7.808E-5      162.90        1.00488       46.98          
2046.6000     0.81259       -64.24        1.052E-4      97.40         6.035E-5      53.10         1.00644       47.54          
2076.5500     0.81071       -65.96        8.203E-5      -25.35        1.686E-4      28.88         1.00911       49.25          
2106.5000     0.82611       -67.28        3.901E-5      27.79         8.076E-5      77.53         1.00302       49.02          
2136.4500     0.81726       -68.84        9.679E-5      -149.98       1.283E-4      -82.42        1.01264       50.77          
2166.4000     0.82737       -70.81        2.494E-5      -34.15        6.995E-5      15.14         0.99961       50.59          
2196.3500     0.81891       -71.73        1.835E-5      31.63         5.866E-5      -66.60        1.01346       51.23          
2226.3000     0.82281       -74.70        8.033E-5      92.93         7.522E-5      124.48        1.00094       52.11          
2256.2500     0.81043       -75.43        2.892E-5      137.32        2.717E-5      -36.02        1.01156       52.33          
2286.2000     0.80971       -78.20        1.975E-5      50.78         3.993E-5      -44.21        1.00226       54.47          
2316.1500     0.80135       -78.96        7.042E-5      -157.93       2.576E-5      133.55        1.00693       53.42          
2346.1000     0.79905       -81.82        8.457E-6      -33.44        1.864E-5      93.37         1.00666       56.16          
2376.0500     0.78707       -82.96        4.576E-5      -130.64       6.917E-5      -43.38        1.00419       55.40          
2406.0000     0.78113       -84.97        2.819E-5      -176.55       6.241E-5      -65.65        1.00977       57.28          
2435.9500     0.77167       -86.96        1.149E-5      -68.76        4.665E-5      33.32         1.00399       56.54          
2465.9000     0.76676       -88.69        2.825E-5      -14.20        5.861E-5      -140.16       1.00922       57.88          
2495.8500     0.75226       -90.99        5.825E-5      6.24          8.169E-5      49.59         1.00091       58.65          
2525.8000     0.75221       -92.50        5.066E-6      -30.84        4.713E-5      91.27         1.00593       59.20          
2555.7500     0.73509       -95.03        8.491E-5      -81.53        5.589E-6      50.70         1.00385       60.09          
2585.7000     0.73331       -97.27        3.573E-5      3.57          4.999E-5      96.35         1.0055        60.48          
2615.6500     0.7148        -98.97        7.36E-5       129.98        3.937E-5      -41.27        1.00565       61.67          
2645.6000     0.71166       -101.93       6.302E-5      -99.83        7.477E-5      -6.43         1.00359       61.88          
2675.5500     0.69625       -102.82       5.319E-5      -119.69       6.44E-5       -107.51       1.00581       63.16          
2705.5000     0.68864       -106.74       2.492E-5      107.73        3.215E-5      -127.25       1.00364       63.70          
2735.4500     0.67969       -107.62       7.646E-5      -171.55       6.273E-5      32.61         1.00425       64.11          
2765.4000     0.65816       -112.23       6.228E-5      166.25        3.363E-5      179.58        1.00447       65.25          
2795.3500     0.651         -112.81       7.133E-6      115.20        6.932E-5      -61.23        1.00151       64.85          
2825.3000     0.62397       -116.60       1.356E-5      2.38          2.836E-5      178.16        1.00681       67.01          
2855.2500     0.62285       -118.08       6.854E-5      -68.21        5.373E-5      -71.25        0.99689       66.34          
2885.2000     0.59455       -121.22       2.328E-5      -156.08       6.20E-5       -74.42        1.00726       67.53          
2915.1500     0.58944       -123.20       6.575E-5      150.53        7.076E-5      -116.04       0.99821       68.93          
2945.1000     0.56109       -125.29       1.372E-4      -106.35       3.823E-5      -135.60       1.00436       69.19          
2975.0500     0.56102       -128.12       3.907E-5      -145.15       5.227E-5      83.15         0.99994       71.27          
3005.0000     0.53352       -130.40       4.693E-5      -35.62        3.241E-6      10.15         0.99759       69.70          
3034.9500     0.52133       -133.37       7.599E-5      121.82        3.763E-5      -12.86        1.00382       72.71          
3064.9000     0.49961       -134.98       8.324E-5      -178.05       2.905E-5      -145.79       0.99432       71.36          
3094.8500     0.48867       -137.64       3.30E-5       132.86        3.245E-5      -126.19       1.00721       73.69          
3124.8000     0.47135       -140.16       7.784E-5      141.03        1.754E-5      -23.22        0.99376       73.57          
3154.7500     0.45911       -142.44       4.659E-5      15.11         5.501E-5      -64.48        1.00574       74.38          
3184.7000     0.44132       -145.06       5.75E-5       -107.84       2.58E-5       -172.72       0.99554       75.71          
3214.6500     0.4353        -147.58       8.891E-6      -48.84        3.088E-5      141.79        1.00036       74.67          
3244.6000     0.41652       -151.29       1.013E-4      -92.64        6.546E-5      150.47        1.00085       76.68          
3274.5500     0.40599       -153.36       3.034E-5      54.15         4.46E-5       113.36        0.99712       76.52          
3304.5000     0.38494       -156.73       2.735E-5      -166.47       5.677E-5      173.78        1.002         77.75          
3334.4500     0.38258       -158.70       2.834E-5      -83.92        4.704E-5      55.26         0.99849       79.45          
3364.4000     0.3568        -162.42       3.659E-6      40.44         5.064E-6      19.11         0.99611       79.25          
3394.3500     0.35294       -165.26       1.027E-4      -67.11        5.27E-5       -101.49       1.00304       80.59          
3424.3000     0.32685       -166.93       1.346E-5      90.57         4.809E-5      88.11         0.99118       80.19          
3454.2500     0.33216       -170.36       7.422E-5      140.78        1.075E-4      113.72        1.00826       82.05          
3484.2000     0.31317       -172.67       5.857E-5      61.21         7.958E-5      94.00         0.9861        81.38          
3514.1500     0.31117       -178.19       1.142E-4      87.37         8.059E-5      134.25        1.01273       83.44          
3544.1000     0.29072       -178.24       6.514E-5      106.61        7.989E-5      34.57         0.98495       83.76          
3574.0500     0.28788       176.49        9.224E-5      95.49         7.747E-5      65.15         1.01044       84.10          
3604.0000     0.28203       176.97        5.129E-5      40.89         5.668E-5      25.55         0.99152       86.47          
3633.9500     0.27735       169.85        2.553E-5      -32.14        4.811E-5      30.67         1.00176       84.52          
3663.9000     0.27329       170.27        3.975E-5      68.63         1.06E-4       -24.89        1.00526       88.08          
3693.8500     0.27031       163.17        3.199E-5      3.87          4.799E-5      85.21         0.9929        85.77          
3723.8000     0.27292       161.50        3.86E-5       -7.53         7.49E-5       3.85          1.01778       90.05          
3753.7500     0.26185       153.73        4.625E-5      -36.60        5.999E-5      14.79         0.98391       87.71          
3783.7000     0.26428       151.40        1.326E-4      31.39         3.82E-5       24.14         1.02298       89.67          
3813.6500     0.24743       144.92        5.142E-5      50.20         1.773E-4      -169.00       0.98482       90.00          
3843.6000     0.25274       142.72        5.288E-5      7.84          3.481E-5      -51.95        1.01947       89.91          
3873.5500     0.24139       135.85        4.626E-5      -20.20        3.011E-5      -77.19        0.99453       93.04          
3903.5000     0.24318       133.77        4.484E-5      -81.32        3.725E-5      169.25        1.00676       90.33          
3933.4500     0.23441       128.11        1.147E-4      -83.68        2.648E-5      -89.85        1.01126       95.20          
3963.4000     0.23488       124.80        1.685E-5      110.68        1.207E-4      -93.03        0.99332       91.62          
3993.3500     0.22712       119.94        3.551E-5      -152.05       9.50E-6       35.53         1.02433       95.51          
4023.3000     0.22665       117.86        5.571E-5      -40.09        4.199E-5      -44.89        0.99095       94.28          
4053.2500     0.22126       113.33        2.813E-5      117.30        9.542E-5      14.59         1.02595       95.79          
4083.2000     0.22323       111.75        3.383E-5      -8.08         3.28E-5       3.74          0.99808       97.67          
4113.1500     0.22483       107.39        1.515E-5      50.39         1.122E-4      -53.81        1.01393       95.31          
4143.1000     0.22741       106.71        1.026E-4      -50.38        2.252E-5      -70.55        1.0212        101.19         
4173.0500     0.23361       100.79        8.298E-5      -75.30        4.959E-5      166.48        0.99051       97.15          
4203.0000     0.24102       99.34         3.578E-5      -120.32       5.05E-5       -122.07       1.0426        101.78         
4232.9500     0.24253       92.89         3.106E-5      -49.71        1.889E-4      -57.21        0.9773        99.17          
4262.9000     0.25126       91.08         3.561E-5      -159.54       4.964E-5      -107.07       1.05135       100.42         
4292.8500     0.24251       86.16         9.154E-5      -71.38        1.156E-4      -92.62        0.98398       102.31         
4322.8000     0.26516       84.28         6.76E-5       -143.96       1.044E-4      -73.52        1.03973       99.55          
4352.7500     0.25447       80.31         7.478E-5      -146.72       9.061E-5      -154.63       1.00984       106.15         
4382.7000     0.28099       77.38         7.358E-5      -151.25       4.328E-5      -134.57       1.01201       100.29         
4412.6500     0.26103       74.16         1.172E-4      -166.41       1.783E-4      158.81        1.04189       107.54         
4442.6000     0.28837       70.00         1.183E-4      138.80        4.65E-5       178.55        0.98809       102.73         
4472.5500     0.27205       68.58         1.063E-4      163.04        1.86E-4       143.31        1.06412       107.02         
4502.5000     0.29352       62.61         8.794E-5      73.04         4.138E-5      30.77         0.98198       105.34         
4532.4500     0.27877       63.21         1.45E-4       132.33        2.016E-4      155.64        1.06517       106.09         
4562.4000     0.29477       57.24         6.402E-5      135.71        8.677E-5      176.47        0.99472       108.56         
4592.3500     0.29293       60.03         1.001E-4      108.29        2.68E-4       134.93        1.04705       105.24         
4622.3000     0.3046        53.71         1.376E-4      119.77        5.081E-5      151.43        1.02835       113.13         
4652.2500     0.30847       54.37         1.272E-4      103.54        8.634E-5      86.81         1.01141       106.05         
4682.2000     0.31225       48.92         1.106E-4      84.83         8.825E-5      115.13        1.06333       114.12         
4712.1500     0.31975       49.06         8.057E-5      109.04        1.157E-4      66.24         0.98705       108.68         
4742.1000     0.32299       45.34         9.838E-5      82.16         1.041E-4      115.49        1.07962       112.24         
4772.0500     0.33209       43.91         5.266E-5      55.93         1.358E-4      64.11         0.99616       113.07         
4802.0000     0.33537       40.48         1.362E-4      50.05         9.199E-5      49.30         1.06383       112.06         
4831.9500     0.34421       38.83         8.176E-5      84.53         6.413E-5      70.68         1.02536       116.33         
4861.9000     0.35083       35.88         1.079E-4      45.66         1.263E-4      86.07         1.0307        111.65         
4891.8500     0.35542       33.79         6.659E-5      7.52          1.06E-4       25.09         1.06546       118.69         
4921.8000     0.36226       29.92         7.09E-5       75.81         9.862E-5      48.63         0.99599       113.69         
4951.7500     0.36351       28.87         1.015E-4      19.11         9.218E-5      63.82         1.09349       117.73         
4981.7000     0.36811       24.83         8.405E-5      31.62         5.047E-5      57.69         0.99564       118.04         
5011.6500     0.37149       24.31         1.443E-4      7.67          1.64E-4       21.03         1.08631       117.41         
5041.6000     0.37081       19.69         1.332E-4      11.49         1.413E-4      11.44         1.01894       120.91         
5071.5500     0.37774       19.86         2.268E-4      -21.81        1.701E-4      12.02         1.05559       116.59         
5101.5000     0.37255       14.95         1.959E-4      -20.43        1.837E-4      -57.84        1.05985       123.55         
5131.4500     0.38308       14.80         2.304E-4      -39.11        3.131E-4      -37.81        1.01213       117.54         
5161.4000     0.36398       10.38         1.456E-4      -34.93        1.437E-4      -131.57       1.09458       123.97         
5191.3500     0.38345       9.54          2.519E-4      -78.05        2.376E-4      -80.54        0.99247       121.23         
5221.3000     0.36454       6.41          2.184E-4      -92.60        1.445E-4      -99.90        1.10369       122.73         
5251.2500     0.3855        4.53          2.624E-4      -100.08       2.218E-4      -127.57       1.01418       125.21         
5281.2000     0.36485       3.71          2.611E-4      -124.59       2.346E-4      -121.13       1.07623       124.19         
5311.1500     0.37829       1.05          1.263E-4      -136.46       1.564E-4      -173.98       1.04454       127.34         
5341.1000     0.3602        1.60          1.61E-4       -145.36       1.259E-4      -157.42       1.03925       122.56         
5371.0500     0.36683       -3.03         1.137E-4      -155.11       9.257E-5      -139.27       1.08402       128.42         
5401.0000     0.3576        -2.33         1.216E-4      -157.09       1.757E-4      174.23        1.00912       125.71         
5430.9500     0.3551        -6.52         1.315E-4      -153.02       5.84E-5       -153.27       1.09891       128.45         
5460.9000     0.35205       -5.99         9.311E-5      163.70        2.346E-4      158.77        1.01528       127.55         
5490.8500     0.34642       -8.93         1.698E-4      147.17        1.677E-4      -164.83       1.08799       129.23         
5520.8000     0.34193       -9.18         8.328E-5      148.22        1.686E-4      112.97        1.04084       130.58         
5550.7500     0.33778       -11.18        1.132E-4      139.54        9.756E-5      110.58        1.05191       130.01         
5580.7000     0.33082       -11.13        1.13E-4       174.90        5.67E-5       125.30        1.0718        131.30         
5610.6500     0.33093       -12.65        1.496E-4      142.73        3.282E-5      107.57        1.02376       132.02         
5640.6000     0.32051       -12.13        1.518E-4      168.94        4.359E-5      143.45        1.08658       131.96         
5670.5500     0.32186       -13.94        1.714E-4      103.33        1.132E-4      66.53         1.02035       133.08         
5700.5000     0.31286       -12.40        5.998E-5      92.82         1.818E-4      87.57         1.08438       133.60         
5730.4500     0.31617       -15.06        1.663E-4      90.77         6.041E-5      10.23         1.03649       134.63         
5760.4000     0.31285       -12.30        8.029E-5      70.72         1.755E-4      100.23        1.05783       134.70         
5790.3500     0.31385       -15.36        1.333E-4      94.95         1.594E-4      5.38          1.06086       135.21         
5820.3000     0.31848       -11.33        1.239E-4      41.78         1.425E-4      38.15         1.02819       136.46         
5850.2500     0.31231       -15.13        9.658E-5      -12.89        6.682E-5      -35.68        1.07871       135.71         
5880.2000     0.33024       -11.13        7.024E-5      73.78         1.402E-4      8.52          1.01805       139.22         
5910.1500     0.31384       -14.01        5.875E-5      -39.42        5.875E-5      -96.38        1.07681       137.61         
5940.1000     0.34624       -12.52        7.911E-5      -1.46         2.736E-4      -23.53        1.02578       139.18         
5970.0500     0.3261        -13.17        1.219E-4      -56.21        1.297E-4      169.53        1.06429       139.99         
6000.0000     0.35967       -14.10        9.435E-5      -118.68       1.569E-4      -102.57       1.03784       139.61         
