!    08/05/2026   14:46:47 
! Ref Plane: 0.000 mm
# MHZ S MA R  50
!
10.0000       1.00089       -178.79       7.034E-5      147.06        2.168E-5      94.34         0.12534       -31.03         
12.9900       1.00136       -178.50       6.204E-5      -57.95        5.187E-5      -81.61        0.12867       -38.34         
15.9800       1.0015        -178.21       3.962E-5      -162.00       6.351E-5      88.28         0.13353       -45.37         
18.9700       1.00183       -177.92       6.479E-5      -147.07       8.89E-5       38.22         0.13973       -52.05         
21.9600       1.00227       -177.63       5.657E-5      139.29        1.859E-5      -16.24        0.14677       -58.45         
24.9500       1.0025        -177.33       4.553E-5      175.68        6.243E-5      162.76        0.15153       -64.46         
27.9400       1.00275       -177.04       1.065E-4      99.18         6.331E-5      93.23         0.15668       -67.51         
30.9300       1.00296       -176.75       1.226E-4      -27.68        6.496E-5      -40.55        0.17012       -70.35         
33.9200       1.00319       -176.45       7.479E-5      -68.97        6.169E-5      -80.95        0.18206       -74.20         
36.9100       1.00327       -176.16       6.766E-5      -40.66        3.863E-5      145.26        0.19278       -77.28         
39.9000       1.00315       -175.88       3.176E-5      -146.38       1.815E-5      -1.33         0.2046        -79.84         
42.8900       1.00321       -175.58       2.093E-5      -134.12       7.842E-5      -48.42        0.21637       -82.18         
45.8800       1.00322       -175.30       3.902E-5      48.54         7.671E-5      46.70         0.22765       -84.31         
48.8700       1.00321       -174.95       1.379E-4      10.49         7.454E-5      -83.95        0.23858       -86.37         
51.8600       1.00292       -174.71       7.689E-5      -57.25        2.99E-5       -50.36        0.24867       -88.52         
54.8500       1.00396       -174.49       2.816E-5      -129.82       4.278E-5      -111.66       0.25652       -90.31         
57.8400       1.00312       -174.11       5.506E-5      155.27        5.192E-5      144.10        0.26407       -91.43         
60.8300       1.00311       -173.81       2.066E-5      -111.36       9.873E-5      -119.97       0.27358       -92.46         
63.8200       1.00318       -173.51       8.411E-5      -133.69       8.088E-5      -75.53        0.28356       -93.70         
66.8100       1.00319       -173.19       7.402E-5      -87.31        6.577E-5      -40.47        0.29287       -95.15         
69.8000       1.00357       -172.88       5.675E-5      -66.46        3.775E-5      -77.96        0.3017        -96.60         
72.7900       1.00412       -172.57       6.419E-5      133.35        6.923E-5      -152.67       0.31058       -98.09         
75.7800       1.00427       -172.25       4.117E-5      -47.45        7.062E-5      -96.26        0.31969       -99.65         
78.7700       1.00447       -171.92       1.435E-4      -20.82        1.851E-5      56.20         0.32859       -101.28        
81.7600       1.0047        -171.60       8.332E-5      -137.05       2.99E-5       -52.74        0.33652       -102.90        
84.7500       1.00483       -171.31       1.052E-4      -80.54        9.97E-5       -107.03       0.344         -104.33        
87.7400       1.00502       -171.02       4.606E-5      175.10        5.214E-5      -147.21       0.35261       -105.52        
90.7300       1.00532       -170.74       7.955E-5      -112.51       1.129E-4      -112.32       0.36204       -106.82        
93.7200       1.00586       -170.39       2.974E-5      -0.55         4.588E-5      -124.87       0.37119       -108.13        
96.7100       1.00548       -170.14       1.003E-5      -134.66       3.942E-5      -56.17        0.37978       -109.37        
99.7000       1.00536       -169.85       5.633E-5      -89.77        5.382E-5      -110.49       0.38829       -110.42        
102.6900      1.00522       -169.56       1.09E-4       170.91        3.835E-5      -149.04       0.39725       -111.32        
105.6800      1.00509       -169.28       9.194E-5      160.54        8.534E-5      -116.38       0.40671       -112.13        
108.6700      1.00511       -169.01       5.786E-5      -178.12       8.792E-5      -110.93       0.416         -112.91        
111.6600      1.00477       -168.71       3.34E-5       176.70        6.845E-5      -84.89        0.42492       -113.60        
114.6500      1.00459       -168.41       1.742E-5      81.22         3.809E-5      -11.74        0.43366       -114.19        
117.6400      1.00436       -168.12       8.263E-5      166.41        6.897E-5      170.75        0.44288       -114.74        
120.6300      1.0046        -167.81       6.072E-5      149.48        1.158E-4      -132.72       0.45197       -115.35        
123.6200      1.0047        -167.51       4.985E-5      74.82         3.565E-5      -173.46       0.46047       -116.03        
126.6100      1.00464       -167.19       6.498E-5      139.45        8.599E-5      -0.60         0.46799       -116.78        
129.6000      1.00447       -166.86       6.80E-5       169.83        4.097E-5      -175.65       0.47511       -117.53        
132.5900      1.00466       -166.53       8.70E-5       -145.49       3.547E-5      -87.55        0.48158       -118.27        
135.5800      1.00453       -166.20       1.038E-4      -164.72       6.776E-5      -83.71        0.48774       -118.98        
138.5700      1.00464       -165.88       6.179E-5      161.21        7.981E-5      168.39        0.49389       -119.69        
141.5600      1.00499       -165.59       1.197E-4      172.74        8.811E-5      -161.29       0.50004       -120.41        
144.5500      1.00542       -165.31       1.09E-4       -173.44       1.13E-4       177.92        0.50631       -121.17        
147.5400      1.00583       -165.00       6.336E-5      171.80        1.137E-4      -154.45       0.51242       -121.99        
150.5300      1.00614       -164.71       1.477E-4      154.00        8.212E-5      118.47        0.51835       -122.89        
153.5200      1.00638       -164.40       6.61E-5       117.02        9.905E-5      148.35        0.52453       -123.81        
156.5100      1.00643       -164.11       1.004E-4      168.92        9.606E-5      114.69        0.53101       -124.72        
159.5000      1.00648       -163.81       9.476E-5      140.03        1.817E-4      120.68        0.53766       -125.60        
162.4900      1.00647       -163.55       1.753E-4      144.72        1.294E-4      137.59        0.54408       -126.45        
165.4800      1.00631       -163.28       1.099E-4      103.91        1.266E-4      89.91         0.55067       -127.28        
168.4700      1.00621       -162.99       1.841E-4      115.27        1.264E-4      95.96         0.55696       -128.05        
171.4600      1.00611       -162.69       1.961E-4      127.26        1.537E-4      -179.39       0.56311       -128.76        
174.4500      1.00614       -162.38       1.367E-4      120.12        1.162E-4      74.34         0.56899       -129.42        
177.4400      1.00569       -162.08       1.056E-4      110.86        1.182E-4      111.19        0.57432       -130.05        
180.4300      1.00523       -161.78       7.891E-5      55.19         1.136E-4      117.54        0.57932       -130.63        
183.4200      1.00484       -161.46       1.939E-4      99.18         2.446E-4      130.52        0.58396       -131.17        
186.4100      1.00429       -161.17       1.927E-4      91.41         1.474E-4      125.40        0.58813       -131.61        
189.4000      1.00398       -160.85       1.408E-4      100.62        1.157E-4      99.49         0.59228       -131.99        
192.3900      1.00363       -160.53       1.566E-4      64.48         2.231E-4      60.12         0.59661       -132.33        
195.3800      1.00375       -160.24       2.047E-4      70.53         1.928E-4      72.26         0.60128       -132.69        
198.3700      1.00396       -159.95       1.676E-4      55.84         1.628E-4      30.87         0.60564       -133.10        
201.3600      1.00449       -159.66       1.475E-4      50.24         1.706E-4      39.11         0.60961       -133.55        
204.3500      1.00489       -159.34       1.728E-4      32.52         7.13E-5       44.93         0.61315       -134.03        
207.3400      1.00542       -159.01       1.656E-4      31.15         2.808E-4      59.34         0.61662       -134.57        
210.3300      1.00596       -158.68       1.187E-4      21.81         1.011E-4      53.98         0.62017       -135.16        
213.3200      1.00601       -158.37       1.681E-4      36.61         1.711E-4      4.55          0.62402       -135.79        
216.3100      1.00603       -158.09       1.436E-4      -12.40        1.458E-4      -4.46         0.62824       -136.44        
219.3000      1.00652       -157.81       1.356E-4      -26.52        1.488E-4      -59.09        0.63245       -137.11        
222.2900      1.00699       -157.53       1.243E-4      -27.11        1.467E-4      -91.40        0.6367        -137.80        
225.2800      1.00756       -157.18       3.803E-5      24.90         2.313E-4      -62.67        0.64087       -138.47        
228.2700      1.00753       -156.83       5.336E-5      -103.85       1.31E-4       -81.92        0.64488       -139.13        
231.2600      1.00723       -156.52       4.341E-5      -130.64       1.012E-4      -109.04       0.64886       -139.77        
234.2500      1.00667       -156.20       3.759E-5      169.00        7.809E-5      27.50         0.65269       -140.38        
237.2400      1.00601       -155.89       1.061E-5      92.81         5.831E-5      -97.32        0.65669       -140.95        
240.2300      1.0052        -155.58       4.67E-5       112.46        7.04E-5       -16.56        0.66082       -141.46        
243.2200      1.00431       -155.27       8.173E-5      83.39         9.016E-5      -45.15        0.66506       -141.91        
246.2100      1.00383       -154.97       1.515E-4      71.51         7.851E-5      106.47        0.66906       -142.31        
249.2000      1.00353       -154.67       1.638E-4      84.81         9.096E-5      99.92         0.67289       -142.64        
252.1900      1.00342       -154.37       1.313E-4      55.78         5.686E-5      65.09         0.67639       -142.91        
255.1800      1.00343       -154.08       1.405E-4      26.71         8.351E-5      27.22         0.67962       -143.17        
258.1700      1.00371       -153.77       1.323E-4      25.61         9.887E-5      37.02         0.68255       -143.42        
261.1600      1.00409       -153.45       1.46E-4       46.16         1.766E-4      55.93         0.68534       -143.66        
264.1500      1.00437       -153.12       2.102E-4      17.39         1.385E-4      3.35          0.68797       -143.93        
267.1400      1.00472       -152.81       1.474E-4      -32.67        1.707E-4      -17.92        0.69058       -144.23        
270.1300      1.00517       -152.53       1.524E-4      -24.99        1.912E-4      -49.20        0.69283       -144.57        
273.1200      1.00618       -152.26       1.619E-4      -5.71         1.397E-4      -21.46        0.69472       -144.95        
276.1100      1.0075        -151.98       7.542E-5      -21.21        2.225E-4      -31.94        0.69665       -145.31        
279.1000      1.00838       -151.64       1.225E-4      -77.08        1.406E-4      -53.13        0.69899       -145.67        
282.0900      1.00842       -151.28       9.108E-5      -67.93        1.564E-4      -45.06        0.70165       -146.05        
285.0800      1.00811       -150.91       5.186E-5      -142.25       1.594E-4      -17.28        0.70447       -146.50        
288.0700      1.00769       -150.54       6.444E-5      -116.57       1.237E-4      -91.50        0.70721       -147.02        
291.0600      1.00708       -150.21       4.24E-5       -74.51        9.58E-5       -71.02        0.71008       -147.57        
294.0500      1.00616       -149.89       6.19E-5       -93.85        4.949E-5      -90.94        0.7131        -148.13        
297.0400      1.00521       -149.56       1.273E-4      -135.11       2.583E-5      -103.11       0.71627       -148.69        
300.0300      1.00428       -149.23       3.694E-5      37.77         2.451E-5      -74.22        0.7196        -149.21        
303.0200      1.00353       -148.92       4.213E-5      171.24        4.506E-5      -118.83       0.72301       -149.70        
306.0100      1.00281       -148.61       7.312E-5      48.44         1.603E-4      -140.85       0.72636       -150.15        
309.0000      1.00245       -148.32       4.216E-5      -168.64       1.017E-4      -0.42         0.72954       -150.52        
311.9900      1.00204       -148.01       2.957E-5      75.55         7.231E-5      12.18         0.73235       -150.87        
314.9800      1.00163       -147.71       6.031E-5      31.28         5.879E-5      -155.07       0.73494       -151.20        
317.9700      1.00136       -147.41       6.685E-5      115.69        5.864E-5      83.45         0.73744       -151.48        
320.9600      1.00123       -147.13       8.439E-5      77.87         9.138E-5      48.75         0.74002       -151.76        
323.9500      1.00178       -146.86       9.42E-5       37.85         1.189E-4      115.04        0.7424        -151.99        
326.9400      1.00255       -146.57       6.788E-5      121.54        1.313E-4      47.55         0.74463       -152.23        
329.9300      1.00391       -146.26       6.972E-5      83.78         9.423E-5      -9.19         0.74649       -152.47        
332.9200      1.00508       -145.92       1.291E-4      10.92         1.177E-4      91.35         0.74833       -152.73        
335.9100      1.00614       -145.55       8.262E-5      51.92         9.704E-5      14.77         0.7502        -153.00        
338.9000      1.00668       -145.14       1.505E-4      49.55         2.059E-4      17.45         0.75179       -153.28        
341.8900      1.00656       -144.75       1.379E-4      30.34         1.34E-4       -12.14        0.75303       -153.60        
344.8800      1.0065        -144.37       1.677E-4      17.41         1.216E-4      -37.31        0.75418       -153.97        
347.8700      1.00612       -144.04       1.41E-4       3.23          3.00E-4       -5.30         0.75529       -154.40        
350.8600      1.00574       -143.68       1.66E-4       -37.58        2.30E-4       2.00          0.75655       -154.85        
353.8500      1.00544       -143.33       1.665E-4      -50.55        2.064E-4      -26.18        0.75822       -155.31        
356.8400      1.00485       -143.00       1.399E-4      -54.21        1.888E-4      -49.36        0.75995       -155.75        
359.8300      1.00406       -142.67       1.753E-4      -68.04        1.368E-4      -63.69        0.76171       -156.22        
362.8200      1.00341       -142.35       5.832E-5      -33.59        9.277E-5      1.46          0.76356       -156.65        
365.8100      1.00264       -142.03       1.111E-4      -21.11        1.499E-4      -46.04        0.76537       -157.05        
368.8000      1.00155       -141.73       1.863E-4      -20.95        9.224E-5      -38.56        0.76711       -157.42        
371.7900      1.00043       -141.46       2.574E-4      -2.96         2.388E-4      29.57         0.7688        -157.77        
374.7800      1.00034       -141.19       1.825E-4      -16.77        2.086E-4      22.29         0.77055       -158.08        
377.7700      1.00018       -140.94       2.67E-4       -30.20        3.287E-4      -24.32        0.77231       -158.35        
380.7600      1.00095       -140.65       3.294E-4      -33.55        2.662E-4      -19.24        0.77447       -158.59        
383.7500      1.00186       -140.33       3.34E-4       -41.55        3.137E-4      -43.72        0.77658       -158.79        
386.7400      1.00285       -140.01       3.726E-4      -62.94        3.939E-4      -53.79        0.77872       -158.96        
389.7300      1.00386       -139.65       2.758E-4      -67.91        2.883E-4      -56.68        0.78072       -159.09        
392.7200      1.00447       -139.28       3.635E-4      -79.86        3.252E-4      -76.63        0.7825        -159.23        
395.7100      1.00462       -138.88       2.82E-4       -84.52        2.338E-4      -97.73        0.78402       -159.38        
398.7000      1.0045        -138.51       2.33E-4       -79.23        3.568E-4      -56.30        0.78525       -159.56        
401.6900      1.00431       -138.15       2.094E-4      -75.86        2.937E-4      -69.06        0.78613       -159.76        
404.6800      1.00424       -137.79       1.346E-4      -53.21        1.741E-4      -69.47        0.78685       -160.00        
407.6700      1.00418       -137.42       2.192E-4      -59.20        2.386E-4      -69.16        0.78739       -160.27        
410.6600      1.00413       -137.05       3.127E-4      -59.24        3.394E-4      -43.61        0.78788       -160.55        
413.6500      1.00367       -136.69       3.791E-4      -64.99        3.658E-4      -54.13        0.78868       -160.86        
416.6400      1.00274       -136.33       3.629E-4      -74.47        4.829E-4      -66.38        0.78945       -161.18        
419.6300      1.00142       -135.99       4.912E-4      -82.32        4.419E-4      -73.98        0.79024       -161.55        
422.6200      0.99974       -135.67       4.61E-4       -101.91       4.184E-4      -103.66       0.79105       -161.95        
425.6100      0.99822       -135.37       4.121E-4      -97.08        5.248E-4      -94.06        0.79173       -162.36        
428.6000      0.99721       -135.09       4.427E-4      -104.29       4.501E-4      -99.93        0.79233       -162.80        
431.5900      0.99688       -134.80       4.365E-4      -121.70       4.285E-4      -121.04       0.79303       -163.23        
434.5800      0.99746       -134.51       4.36E-4       -116.34       5.031E-4      -134.98       0.79369       -163.67        
437.5700      0.99819       -134.21       4.064E-4      -125.04       3.64E-4       -115.64       0.79438       -164.08        
440.5600      0.99892       -133.90       3.969E-4      -117.57       5.579E-4      -130.63       0.79536       -164.46        
443.5500      0.99962       -133.57       3.663E-4      -133.41       5.605E-4      -125.55       0.79657       -164.79        
446.5400      0.99998       -133.22       3.519E-4      -138.65       4.838E-4      -137.27       0.79791       -165.05        
449.5300      1.00007       -132.87       4.108E-4      -147.13       4.167E-4      -145.01       0.79911       -165.27        
452.5200      1.00003       -132.52       4.493E-4      -143.21       4.917E-4      -139.46       0.79992       -165.44        
455.5100      1.0001        -132.18       4.268E-4      -155.53       3.739E-4      -134.26       0.80083       -165.60        
458.5000      1.00002       -131.84       3.854E-4      -150.40       4.727E-4      -149.29       0.80172       -165.76        
461.4900      1.00046       -131.48       4.095E-4      -143.98       4.59E-4       -156.39       0.80271       -165.90        
464.4800      1.00094       -131.10       4.207E-4      -156.62       4.76E-4       -160.29       0.80381       -166.04        
467.4700      1.001         -130.70       4.506E-4      -160.66       3.817E-4      -148.40       0.80469       -166.19        
470.4600      1.00049       -130.28       4.75E-4       -167.91       4.217E-4      -173.53       0.80544       -166.35        
473.4500      0.99942       -129.89       4.471E-4      -165.82       4.315E-4      -179.60       0.80633       -166.53        
476.4400      0.99844       -129.54       4.529E-4      179.12        4.334E-4      178.91        0.80658       -166.74        
479.4300      0.99763       -129.23       4.238E-4      179.40        3.746E-4      -167.98       0.80656       -166.99        
482.4200      0.99691       -128.94       4.331E-4      170.07        4.979E-4      178.55        0.80639       -167.30        
485.4100      0.99684       -128.66       4.656E-4      167.66        4.633E-4      176.92        0.80592       -167.64        
488.4000      0.99693       -128.37       4.192E-4      162.27        5.013E-4      168.52        0.80542       -168.04        
491.3900      0.99748       -128.07       3.782E-4      159.07        3.714E-4      156.15        0.80477       -168.49        
494.3800      0.99772       -127.77       3.289E-4      161.31        3.975E-4      177.90        0.80396       -168.96        
497.3700      0.99775       -127.44       3.925E-4      157.76        3.674E-4      170.24        0.80345       -169.48        
500.3600      0.99725       -127.11       4.362E-4      166.18        3.587E-4      173.42        0.80303       -169.99        
503.3500      0.99655       -126.79       3.934E-4      165.66        3.906E-4      165.88        0.8032        -170.47        
506.3400      0.99593       -126.48       3.49E-4       169.60        3.371E-4      163.09        0.80301       -170.94        
509.3300      0.9952        -126.16       3.602E-4      173.78        3.841E-4      165.36        0.80287       -171.39        
512.3200      0.99492       -125.83       3.528E-4      156.82        3.409E-4      153.74        0.80278       -171.79        
515.3100      0.99481       -125.49       3.957E-4      163.60        3.601E-4      160.73        0.80286       -172.18        
518.3000      0.99485       -125.10       3.707E-4      155.43        3.737E-4      157.21        0.80344       -172.55        
521.2900      0.99435       -124.70       4.225E-4      161.74        3.272E-4      166.86        0.80445       -172.85        
524.2800      0.99337       -124.29       4.002E-4      151.33        4.637E-4      154.20        0.80549       -173.10        
527.2700      0.99222       -123.90       4.166E-4      144.52        3.926E-4      152.14        0.80652       -173.28        
530.2600      0.991         -123.55       3.719E-4      146.02        3.831E-4      150.75        0.80767       -173.42        
533.2500      0.99019       -123.22       4.042E-4      154.38        3.938E-4      141.52        0.80873       -173.52        
536.2400      0.98994       -122.91       4.586E-4      153.06        3.861E-4      143.08        0.80964       -173.60        
539.2300      0.98995       -122.63       4.957E-4      150.76        4.655E-4      150.66        0.81006       -173.64        
542.2200      0.99045       -122.32       4.782E-4      146.54        5.295E-4      144.15        0.8102        -173.69        
545.2100      0.99091       -121.99       5.598E-4      143.08        5.405E-4      141.87        0.81009       -173.73        
548.2000      0.99119       -121.66       6.051E-4      146.04        7.01E-4       146.11        0.80965       -173.79        
551.1900      0.99126       -121.33       6.657E-4      132.77        7.418E-4      142.43        0.80903       -173.86        
554.1800      0.9905        -120.99       6.659E-4      129.88        6.882E-4      129.00        0.80819       -173.95        
557.1700      0.98947       -120.65       7.246E-4      126.59        6.638E-4      134.01        0.80733       -174.07        
560.1600      0.98807       -120.34       7.589E-4      117.94        7.823E-4      116.08        0.80611       -174.19        
563.1500      0.98663       -120.02       8.593E-4      112.45        8.378E-4      113.18        0.80481       -174.35        
566.1400      0.98569       -119.69       8.87E-4       103.30        7.967E-4      100.67        0.80316       -174.53        
569.1300      0.98485       -119.32       8.444E-4      98.60         7.256E-4      97.22         0.80134       -174.74        
572.1200      0.98405       -118.92       7.663E-4      84.94         8.441E-4      95.18         0.79948       -174.98        
575.1100      0.98327       -118.50       8.346E-4      82.28         7.383E-4      90.54         0.79771       -175.23        
578.1000      0.98234       -118.11       7.844E-4      74.17         7.577E-4      72.82         0.79661       -175.50        
581.0900      0.981         -117.74       7.475E-4      76.91         7.796E-4      68.13         0.7959        -175.77        
584.0800      0.97984       -117.41       7.232E-4      64.12         6.586E-4      57.54         0.79542       -175.99        
587.0700      0.97925       -117.10       7.271E-4      62.35         7.775E-4      59.84         0.79534       -176.19        
590.0600      0.97931       -116.82       6.811E-4      52.87         7.198E-4      58.47         0.79555       -176.38        
593.0500      0.97963       -116.53       6.459E-4      51.30         6.39E-4       58.54         0.79601       -176.54        
596.0400      0.98047       -116.24       5.402E-4      49.97         5.316E-4      45.93         0.79663       -176.68        
599.0300      0.98136       -115.91       5.316E-4      41.19         5.857E-4      44.52         0.79699       -176.81        
602.0200      0.98238       -115.58       5.34E-4       45.66         5.32E-4       44.95         0.79751       -176.92        
605.0100      0.98289       -115.26       4.821E-4      52.23         5.584E-4      46.59         0.79809       -177.03        
608.0000      0.98325       -114.93       4.545E-4      43.43         4.358E-4      47.98         0.79849       -177.13        
610.9900      0.98325       -114.63       4.23E-4       40.49         3.83E-4       34.14         0.79882       -177.21        
613.9800      0.98275       -114.36       3.793E-4      44.58         3.835E-4      53.33         0.7991        -177.30        
616.9700      0.98214       -114.09       2.71E-4       48.81         4.221E-4      56.37         0.79902       -177.38        
619.9600      0.98145       -113.82       3.877E-4      47.49         3.684E-4      51.07         0.7985        -177.48        
622.9500      0.98067       -113.54       3.889E-4      50.21         3.697E-4      63.72         0.79763       -177.59        
625.9400      0.97926       -113.24       3.809E-4      51.21         3.306E-4      69.49         0.79669       -177.73        
628.9300      0.97775       -112.96       4.184E-4      60.71         2.845E-4      64.62         0.79529       -177.90        
631.9200      0.9755        -112.69       4.027E-4      67.04         3.913E-4      72.53         0.79395       -178.10        
634.9100      0.97295       -112.43       5.574E-4      55.59         3.84E-4       81.08         0.79258       -178.32        
637.9000      0.97033       -112.21       4.48E-4       66.57         5.148E-4      70.57         0.79152       -178.58        
640.8900      0.96812       -112.02       5.434E-4      67.10         5.142E-4      68.00         0.79055       -178.85        
643.8800      0.96636       -111.84       5.653E-4      60.89         6.337E-4      57.61         0.7898        -179.12        
646.8700      0.96473       -111.66       6.811E-4      70.10         5.454E-4      67.82         0.7892        -179.37        
649.8600      0.96354       -111.47       7.508E-4      63.49         8.684E-4      61.23         0.78886       -179.62        
652.8500      0.96218       -111.27       8.882E-4      58.86         8.614E-4      61.89         0.78887       -179.87        
655.8400      0.9608        -111.05       8.805E-4      51.57         9.96E-4       56.58         0.78896       179.90         
658.8300      0.95898       -110.82       1.028E-3      51.31         9.675E-4      54.84         0.78916       179.69         
661.8200      0.95709       -110.58       1.102E-3      44.85         9.575E-4      42.63         0.78968       179.50         
664.8100      0.955         -110.33       1.17E-3       41.88         1.147E-3      40.74         0.79032       179.33         
667.8000      0.95241       -110.08       1.284E-3      36.02         1.162E-3      37.44         0.79096       179.20         
670.7900      0.94973       -109.80       1.35E-3       28.95         1.396E-3      31.35         0.79177       179.09         
673.7800      0.94689       -109.49       1.472E-3      21.58         1.364E-3      22.76         0.79239       179.00         
676.7700      0.94388       -109.15       1.43E-3       11.88         1.429E-3      14.35         0.7927        178.92         
679.7600      0.94089       -108.76       1.539E-3      9.61          1.399E-3      8.39          0.79258       178.86         
682.7500      0.93804       -108.36       1.467E-3      0.03          1.502E-3      3.76          0.79241       178.78         
685.7400      0.93644       -107.98       1.449E-3      -8.00         1.354E-3      -10.03        0.79194       178.67         
688.7300      0.9367        -107.76       1.142E-3      -7.43         1.149E-3      -8.87         0.79125       178.56         
691.7200      0.9327        -108.04       1.419E-3      4.74          1.447E-3      7.79          0.79026       178.41         
694.7100      0.91973       -107.88       1.908E-3      -7.94         1.831E-3      -5.13         0.78919       178.24         
697.7000      0.9129        -107.38       1.942E-3      -20.46        1.867E-3      -22.72        0.78793       178.02         
700.6900      0.90895       -106.99       1.78E-3       -30.72        1.902E-3      -27.61        0.78661       177.77         
703.6800      0.9063        -106.65       1.702E-3      -35.07        1.713E-3      -33.61        0.78557       177.53         
706.6700      0.90392       -106.35       1.633E-3      -41.20        1.628E-3      -39.12        0.78437       177.28         
709.6600      0.90172       -106.10       1.609E-3      -43.85        1.584E-3      -46.37        0.78351       177.01         
712.6500      0.89929       -105.88       1.527E-3      -47.55        1.533E-3      -42.33        0.78281       176.74         
715.6400      0.89695       -105.71       1.517E-3      -51.50        1.481E-3      -48.54        0.78238       176.48         
718.6300      0.89433       -105.54       1.505E-3      -50.60        1.531E-3      -50.42        0.78226       176.23         
721.6200      0.89175       -105.36       1.505E-3      -52.16        1.444E-3      -51.60        0.78269       176.00         
724.6100      0.88858       -105.16       1.534E-3      -53.61        1.586E-3      -55.53        0.78358       175.82         
727.6000      0.88497       -104.94       1.598E-3      -58.16        1.629E-3      -55.26        0.78465       175.67         
730.5900      0.88079       -104.67       1.759E-3      -59.14        1.617E-3      -57.14        0.78583       175.55         
733.5800      0.87608       -104.38       1.815E-3      -64.12        1.714E-3      -62.66        0.78698       175.47         
736.5700      0.87094       -104.06       1.889E-3      -67.22        1.906E-3      -68.57        0.78807       175.42         
739.5600      0.86516       -103.71       2.049E-3      -71.97        1.976E-3      -72.13        0.78877       175.39         
742.5500      0.85926       -103.37       2.057E-3      -77.69        2.045E-3      -76.79        0.7893        175.37         
745.5400      0.85317       -103.03       2.144E-3      -82.99        2.13E-3       -84.89        0.78961       175.36         
748.5300      0.84699       -102.70       2.24E-3       -88.39        2.162E-3      -87.52        0.78957       175.35         
751.5200      0.8413        -102.38       2.256E-3      -96.94        2.349E-3      -95.23        0.78933       175.33         
754.5100      0.83529       -102.05       2.232E-3      -101.04       2.249E-3      -102.92       0.78856       175.28         
757.5000      0.82887       -101.78       2.249E-3      -107.80       2.295E-3      -108.59       0.78744       175.20         
760.4900      0.82167       -101.51       2.21E-3       -112.02       2.304E-3      -111.84       0.78608       175.08         
763.4800      0.81431       -101.18       2.296E-3      -117.77       2.328E-3      -120.14       0.78454       174.94         
766.4700      0.80766       -100.84       2.275E-3      -123.18       2.285E-3      -125.40       0.78283       174.74         
769.4600      0.80139       -100.53       2.352E-3      -130.15       2.267E-3      -129.01       0.78113       174.50         
772.4500      0.79563       -100.21       2.294E-3      -134.87       2.232E-3      -135.11       0.7795        174.19         
775.4400      0.79041       -99.89        2.208E-3      -141.75       2.142E-3      -140.95       0.77815       173.85         
778.4300      0.78536       -99.57        2.155E-3      -148.20       2.20E-3       -147.30       0.77694       173.48         
781.4200      0.78051       -99.23        2.179E-3      -154.19       2.247E-3      -153.05       0.7762        173.12         
784.4100      0.77531       -98.86        2.147E-3      -158.53       2.229E-3      -159.25       0.77582       172.77         
787.4000      0.76983       -98.47        2.125E-3      -165.30       2.136E-3      -166.82       0.77566       172.43         
790.3900      0.764         -98.08        2.001E-3      -170.26       2.045E-3      -168.97       0.77577       172.11         
793.3800      0.75775       -97.67        2.023E-3      -175.92       2.086E-3      -173.96       0.77597       171.81         
796.3700      0.75148       -97.23        1.926E-3      179.08        1.949E-3      179.91        0.77643       171.56         
799.3600      0.74528       -96.77        1.82E-3       173.51        1.894E-3      173.41        0.777         171.35         
802.3500      0.739         -96.30        1.765E-3      168.21        1.794E-3      169.78        0.77759       171.19         
805.3400      0.73273       -95.79        1.712E-3      161.48        1.744E-3      162.90        0.77834       171.07         
808.3300      0.72617       -95.24        1.647E-3      156.83        1.642E-3      159.24        0.77911       170.99         
811.3200      0.71941       -94.67        1.57E-3       151.50        1.649E-3      149.27        0.77956       170.93         
814.3100      0.71284       -94.09        1.514E-3      145.02        1.456E-3      146.53        0.77974       170.91         
817.3000      0.70635       -93.54        1.464E-3      141.47        1.426E-3      144.68        0.77921       170.90         
820.2900      0.70005       -93.03        1.352E-3      133.27        1.361E-3      138.11        0.7782        170.89         
823.2800      0.69384       -92.55        1.282E-3      130.74        1.248E-3      131.77        0.77708       170.86         
826.2700      0.68768       -92.11        1.227E-3      128.19        1.075E-3      131.31        0.77568       170.79         
829.2600      0.68147       -91.65        1.083E-3      123.84        9.749E-4      124.44        0.77413       170.67         
832.2500      0.67504       -91.16        9.833E-4      118.26        9.554E-4      116.98        0.77234       170.50         
835.2400      0.66884       -90.61        9.151E-4      117.10        9.579E-4      112.32        0.77027       170.29         
838.2300      0.66244       -90.00        8.159E-4      108.63        8.853E-4      111.74        0.76824       170.04         
841.2200      0.65662       -89.33        6.322E-4      111.80        6.573E-4      104.04        0.76602       169.76         
844.2100      0.65102       -88.62        6.165E-4      105.54        7.078E-4      98.04         0.76414       169.44         
847.2000      0.64613       -87.87        5.307E-4      102.55        5.313E-4      113.04        0.76212       169.09         
850.1900      0.64181       -87.10        4.461E-4      115.07        5.558E-4      131.66        0.76042       168.72         
853.1800      0.63859       -86.27        4.03E-4       112.16        4.12E-4       127.14        0.75899       168.33         
856.1700      0.63617       -85.37        4.276E-4      128.01        5.127E-4      125.22        0.75784       167.94         
859.1600      0.63506       -84.42        3.633E-4      135.39        3.43E-4       111.29        0.75717       167.58         
862.1500      0.63518       -83.53        4.449E-4      130.00        4.37E-4       128.16        0.75681       167.24         
865.1400      0.63607       -82.74        4.299E-4      135.33        4.206E-4      133.43        0.75693       166.93         
868.1300      0.63696       -82.04        3.366E-4      132.31        4.374E-4      139.99        0.75734       166.68         
871.1200      0.63742       -81.51        4.283E-4      125.30        4.507E-4      130.42        0.75775       166.48         
874.1100      0.6371        -81.08        4.589E-4      135.96        3.592E-4      141.80        0.75783       166.33         
877.1000      0.63605       -80.76        3.736E-4      136.41        5.443E-4      144.51        0.75759       166.24         
880.0900      0.63434       -80.50        4.775E-4      135.21        3.912E-4      140.48        0.75709       166.17         
883.0800      0.63204       -80.29        4.062E-4      142.64        4.428E-4      138.43        0.75634       166.11         
886.0700      0.62895       -80.10        4.682E-4      143.07        4.835E-4      136.36        0.75552       166.06         
889.0600      0.62529       -79.95        5.441E-4      136.97        4.248E-4      135.15        0.75452       166.03         
892.0500      0.62122       -79.83        4.995E-4      145.91        5.233E-4      144.26        0.75319       165.99         
895.0400      0.61641       -79.77        4.962E-4      150.26        5.193E-4      145.48        0.75132       165.97         
898.0300      0.61084       -79.76        5.57E-4       147.44        5.83E-4       150.99        0.74912       165.92         
901.0200      0.60468       -79.76        5.737E-4      139.41        5.507E-4      148.77        0.74666       165.87         
904.0100      0.59821       -79.76        6.867E-4      148.00        6.755E-4      152.45        0.74423       165.75         
907.0000      0.59141       -79.71        7.464E-4      142.71        7.025E-4      143.96        0.74145       165.59         
909.9900      0.58441       -79.60        8.786E-4      146.64        8.359E-4      143.36        0.73878       165.39         
912.9800      0.57697       -79.42        9.285E-4      140.38        8.493E-4      146.43        0.73591       165.15         
915.9700      0.56886       -79.17        9.588E-4      134.51        8.527E-4      135.91        0.73332       164.86         
918.9600      0.55983       -78.83        1.033E-3      136.43        9.973E-4      131.81        0.73107       164.55         
921.9500      0.54995       -78.33        1.08E-3       125.32        1.053E-3      127.71        0.72924       164.21         
924.9400      0.53997       -77.61        1.127E-3      127.72        1.127E-3      124.70        0.72778       163.89         
927.9300      0.53161       -76.71        1.032E-3      116.71        1.158E-3      122.63        0.72667       163.58         
930.9200      0.52452       -75.88        1.118E-3      117.81        1.153E-3      117.98        0.72551       163.30         
933.9100      0.51703       -75.13        1.191E-3      112.87        1.089E-3      117.16        0.72436       163.04         
936.9000      0.50878       -74.34        1.311E-3      110.03        1.32E-3       114.17        0.72332       162.81         
939.8900      0.49997       -73.46        1.419E-3      107.84        1.336E-3      106.04        0.72236       162.61         
942.8800      0.49092       -72.50        1.462E-3      105.11        1.46E-3       99.34         0.72171       162.43         
945.8700      0.48184       -71.45        1.478E-3      97.00         1.468E-3      94.27         0.72101       162.29         
948.8600      0.47296       -70.34        1.514E-3      92.46         1.612E-3      90.68         0.72043       162.18         
951.8500      0.46455       -69.19        1.584E-3      87.25         1.495E-3      86.85         0.7194        162.11         
954.8400      0.45683       -67.98        1.576E-3      82.24         1.575E-3      84.10         0.71794       162.07         
957.8300      0.45005       -66.70        1.718E-3      74.77         1.636E-3      79.34         0.7161        162.05         
960.8200      0.44441       -65.38        1.695E-3      72.97         1.592E-3      72.08         0.71377       162.03         
963.8100      0.43994       -64.04        1.691E-3      67.10         1.682E-3      65.86         0.71111       162.00         
966.8000      0.43664       -62.67        1.718E-3      62.17         1.763E-3      63.30         0.70822       161.93         
969.7900      0.43428       -61.32        1.732E-3      59.97         1.787E-3      60.00         0.70509       161.84         
972.7800      0.43306       -59.91        1.78E-3       50.89         1.678E-3      53.57         0.70162       161.71         
975.7700      0.4327        -58.51        1.777E-3      45.97         1.70E-3       45.25         0.69794       161.54         
978.7600      0.43327       -57.11        1.706E-3      39.37         1.725E-3      40.29         0.69441       161.34         
981.7500      0.43484       -55.74        1.793E-3      38.65         1.653E-3      35.99         0.69115       161.10         
984.7400      0.43696       -54.45        1.534E-3      30.66         1.597E-3      30.49         0.68807       160.84         
987.7300      0.44          -53.20        1.654E-3      28.62         1.645E-3      33.21         0.68517       160.57         
990.7200      0.44291       -52.03        1.566E-3      23.58         1.66E-3       24.69         0.68233       160.27         
993.7100      0.4459        -50.92        1.633E-3      21.83         1.593E-3      19.29         0.67973       159.98         
996.7000      0.44879       -49.84        1.595E-3      19.64         1.49E-3       16.93         0.67752       159.68         
999.6900      0.4516        -48.85        1.603E-3      13.33         1.547E-3      14.13         0.67569       159.41         
1002.6800     0.45459       -47.94        1.565E-3      7.89          1.626E-3      8.68          0.67419       159.14         
1005.6700     0.45749       -47.12        1.605E-3      7.20          1.65E-3       4.45          0.673         158.90         
1008.6600     0.46066       -46.45        1.545E-3      4.61          1.592E-3      2.84          0.67192       158.69         
1011.6500     0.46383       -45.94        1.546E-3      -3.88         1.57E-3       -0.74         0.6709        158.54         
1014.6400     0.46685       -45.56        1.518E-3      -7.03         1.517E-3      -7.08         0.66965       158.44         
1017.6300     0.46957       -45.35        1.621E-3      -10.07        1.441E-3      -7.34         0.66825       158.40         
1020.6200     0.47167       -45.29        1.516E-3      -13.61        1.46E-3       -13.65        0.66657       158.38         
1023.6100     0.47347       -45.35        1.562E-3      -17.15        1.401E-3      -14.52        0.66459       158.39         
1026.6000     0.47468       -45.51        1.481E-3      -17.08        1.593E-3      -18.80        0.6625        158.42         
1029.5900     0.47545       -45.81        1.568E-3      -25.07        1.579E-3      -20.45        0.66015       158.45         
1032.5800     0.47522       -46.15        1.532E-3      -21.72        1.585E-3      -20.67        0.6574        158.49         
1035.5700     0.47396       -46.63        1.625E-3      -30.44        1.554E-3      -28.81        0.65445       158.52         
1038.5600     0.47157       -47.19        1.677E-3      -28.80        1.656E-3      -29.64        0.65113       158.53         
1041.5500     0.46627       -47.94        1.617E-3      -32.77        1.686E-3      -30.60        0.64814       158.53         
1044.5400     0.45442       -48.78        1.677E-3      -36.06        1.629E-3      -35.88        0.64507       158.52         
1047.5300     0.43326       -48.16        1.716E-3      -41.88        1.818E-3      -40.79        0.64167       158.47         
1050.5200     0.42652       -45.77        1.811E-3      -50.60        1.747E-3      -49.28        0.63859       158.41         
1053.5100     0.42876       -44.80        1.804E-3      -56.18        1.674E-3      -51.37        0.63537       158.32         
1056.5000     0.42601       -44.56        1.802E-3      -58.41        1.709E-3      -58.02        0.63255       158.23         
1059.4900     0.41963       -44.22        1.725E-3      -61.00        1.719E-3      -55.47        0.62983       158.13         
1062.4800     0.4115        -43.69        1.614E-3      -65.19        1.798E-3      -68.05        0.62771       158.03         
1065.4700     0.4026        -42.98        1.733E-3      -71.53        1.792E-3      -72.57        0.62551       157.94         
1068.4600     0.39326       -42.08        1.825E-3      -76.37        1.697E-3      -75.69        0.62377       157.87         
1071.4500     0.38406       -40.95        1.774E-3      -80.91        1.822E-3      -78.74        0.62234       157.83         
1074.4400     0.37544       -39.65        1.823E-3      -88.59        1.829E-3      -86.01        0.62087       157.84         
1077.4300     0.36788       -38.15        1.779E-3      -95.10        1.853E-3      -93.26        0.61939       157.88         
1080.4200     0.36175       -36.59        1.756E-3      -99.46        1.793E-3      -98.98        0.61773       157.97         
1083.4100     0.35713       -34.96        1.738E-3      -106.25       1.706E-3      -105.00       0.61619       158.09         
1086.4000     0.35409       -33.33        1.674E-3      -114.27       1.795E-3      -107.82       0.61455       158.22         
1089.3900     0.35261       -31.78        1.686E-3      -113.85       1.643E-3      -116.49       0.61254       158.36         
1092.3800     0.35201       -30.31        1.748E-3      -123.69       1.659E-3      -121.88       0.61043       158.53         
1095.3700     0.35243       -28.93        1.694E-3      -126.46       1.651E-3      -126.32       0.60804       158.71         
1098.3600     0.35339       -27.59        1.626E-3      -131.06       1.586E-3      -134.12       0.60511       158.88         
1101.3500     0.35483       -26.33        1.533E-3      -142.51       1.587E-3      -138.56       0.60201       159.05         
1104.3400     0.35684       -25.16        1.598E-3      -147.48       1.573E-3      -150.02       0.59871       159.17         
1107.3300     0.35864       -24.01        1.466E-3      -159.03       1.54E-3       -155.72       0.59514       159.26         
1110.3200     0.36079       -22.93        1.429E-3      -159.90       1.569E-3      -160.93       0.59127       159.31         
1113.3100     0.3625        -21.88        1.415E-3      -166.27       1.448E-3      -162.86       0.58752       159.30         
1116.3000     0.36384       -20.84        1.505E-3      -170.75       1.441E-3      -174.00       0.58384       159.24         
1119.2900     0.36485       -19.76        1.36E-3       -177.31       1.455E-3      178.24        0.58017       159.15         
1122.2800     0.36562       -18.68        1.414E-3      173.47        1.303E-3      175.45        0.57696       159.02         
1125.2700     0.36622       -17.56        1.347E-3      168.82        1.363E-3      168.45        0.57416       158.85         
1128.2600     0.36667       -16.41        1.247E-3      160.01        1.294E-3      157.62        0.57178       158.65         
1131.2500     0.3671        -15.31        1.338E-3      151.59        1.199E-3      148.83        0.5696        158.43         
1134.2400     0.36798       -14.20        1.169E-3      144.80        1.197E-3      150.00        0.5681        158.24         
1137.2300     0.36885       -13.18        1.224E-3      141.46        1.266E-3      138.83        0.56695       158.09         
1140.2200     0.36992       -12.22        1.174E-3      133.94        1.154E-3      132.00        0.56605       157.95         
1143.2100     0.37107       -11.26        1.285E-3      125.52        1.189E-3      119.57        0.56536       157.88         
1146.2000     0.3724        -10.38        1.14E-3       115.50        1.126E-3      115.99        0.56524       157.84         
1149.1900     0.37402       -9.54         1.117E-3      107.37        1.141E-3      105.01        0.56515       157.86         
1152.1800     0.37591       -8.67         1.14E-3       98.02         1.192E-3      102.90        0.56511       157.95         
1155.1700     0.37846       -7.90         1.161E-3      93.30         1.061E-3      84.71         0.56454       158.10         
1158.1600     0.38134       -7.15         1.052E-3      82.58         1.051E-3      78.81         0.56401       158.31         
1161.1500     0.38482       -6.46         1.177E-3      76.54         1.062E-3      76.47         0.56299       158.58         
1164.1400     0.38854       -5.84         1.123E-3      66.92         1.094E-3      65.78         0.56172       158.81         
1167.1300     0.39263       -5.24         1.189E-3      55.47         1.049E-3      62.87         0.56017       159.09         
1170.1200     0.39674       -4.74         1.135E-3      48.29         1.212E-3      54.88         0.5581        159.33         
1173.1100     0.40068       -4.23         1.235E-3      48.76         1.192E-3      42.83         0.5556        159.57         
1176.1000     0.40485       -3.78         1.239E-3      34.55         1.158E-3      32.58         0.55274       159.78         
1179.0900     0.40861       -3.41         1.132E-3      29.26         1.13E-3       27.18         0.54989       159.97         
1182.0800     0.41197       -3.09         1.172E-3      19.46         1.132E-3      26.09         0.54694       160.07         
1185.0700     0.41485       -2.81         1.221E-3      20.27         1.14E-3       15.66         0.54373       160.12         
1188.0600     0.41718       -2.59         1.129E-3      8.04          1.233E-3      9.12          0.54063       160.10         
1191.0500     0.41903       -2.39         1.218E-3      -0.48         1.202E-3      3.81          0.53791       160.01         
1194.0400     0.42027       -2.24         1.16E-3       -4.94         1.298E-3      -7.32         0.53529       159.88         
1197.0300     0.42094       -2.10         1.24E-3       -7.83         1.267E-3      -8.07         0.5331        159.70         
1200.0200     0.42099       -2.04         1.27E-3       -17.93        1.231E-3      -17.26        0.53146       159.50         
1203.0100     0.42038       -2.02         1.257E-3      -19.68        1.279E-3      -22.37        0.53037       159.29         
1206.0000     0.41896       -2.07         1.31E-3       -30.59        1.33E-3       -26.46        0.52985       159.11         
1208.9900     0.41677       -2.12         1.453E-3      -35.05        1.352E-3      -34.48        0.52992       158.94         
1211.9800     0.41394       -2.19         1.431E-3      -41.33        1.46E-3       -37.22        0.53063       158.84         
1214.9700     0.41023       -2.22         1.474E-3      -48.18        1.453E-3      -45.91        0.53129       158.81         
1217.9600     0.40589       -2.21         1.523E-3      -49.50        1.533E-3      -54.64        0.53219       158.88         
1220.9500     0.40094       -2.11         1.479E-3      -56.47        1.525E-3      -55.97        0.5331        158.99         
1223.9400     0.39565       -1.91         1.646E-3      -58.00        1.506E-3      -59.46        0.53407       159.17         
1226.9300     0.38973       -1.61         1.65E-3       -65.79        1.687E-3      -63.10        0.53478       159.42         
1229.9200     0.38337       -1.18         1.693E-3      -70.48        1.649E-3      -68.64        0.5354        159.75         
1232.9100     0.37675       -0.60         1.743E-3      -75.22        1.701E-3      -72.71        0.53545       160.11         
1235.9000     0.3696        0.20          1.763E-3      -83.50        1.807E-3      -80.31        0.53495       160.50         
1238.8900     0.36255       1.25          1.727E-3      -86.24        1.75E-3       -86.31        0.53414       160.93         
1241.8800     0.35601       2.53          1.835E-3      -92.92        1.845E-3      -90.78        0.53258       161.34         
1244.8700     0.35039       4.01          1.892E-3      -97.34        1.817E-3      -96.08        0.53066       161.73         
1247.8600     0.34572       5.70          1.838E-3      -98.85        1.832E-3      -100.46       0.52814       162.06         
1250.8500     0.34225       7.58          1.87E-3       -107.51       1.84E-3       -107.35       0.52533       162.32         
1253.8400     0.34009       9.54          1.886E-3      -110.07       1.787E-3      -110.46       0.5221        162.48         
1256.8300     0.33928       11.51         1.895E-3      -116.71       1.805E-3      -112.67       0.51871       162.57         
1259.8200     0.33993       13.45         1.859E-3      -115.86       1.869E-3      -114.97       0.51567       162.58         
1262.8100     0.34159       15.28         1.936E-3      -121.73       1.866E-3      -120.28       0.51272       162.53         
1265.8000     0.34455       17.00         1.909E-3      -123.97       1.95E-3       -124.47       0.5102        162.37         
1268.7900     0.34844       18.56         1.949E-3      -128.04       1.874E-3      -127.03       0.50832       162.15         
1271.7800     0.35307       19.99         1.958E-3      -130.50       1.911E-3      -132.18       0.50704       161.87         
1274.7700     0.35806       21.20         1.973E-3      -135.18       1.902E-3      -132.48       0.50629       161.59         
1277.7600     0.36321       22.28         1.942E-3      -136.80       1.968E-3      -136.18       0.50608       161.34         
1280.7500     0.36854       23.26         2.079E-3      -141.76       1.984E-3      -141.56       0.50632       161.08         
1283.7400     0.37357       24.13         2.113E-3      -144.59       2.06E-3       -144.14       0.50707       160.89         
1286.7300     0.37867       24.93         2.186E-3      -144.61       2.084E-3      -148.76       0.5085        160.76         
1289.7200     0.38359       25.66         2.143E-3      -150.81       2.155E-3      -151.53       0.51028       160.72         
1292.7100     0.38831       26.32         2.219E-3      -153.21       2.185E-3      -153.20       0.51204       160.78         
1295.7000     0.39281       26.95         2.298E-3      -158.29       2.24E-3       -157.37       0.51354       160.91         
1298.6900     0.39743       27.56         2.326E-3      -160.66       2.275E-3      -160.81       0.51512       161.15         
1301.6800     0.40202       28.10         2.352E-3      -165.06       2.376E-3      -164.20       0.51608       161.47         
1304.6700     0.4064        28.62         2.405E-3      -166.92       2.325E-3      -168.57       0.51668       161.84         
1307.6600     0.41071       29.09         2.473E-3      -170.30       2.402E-3      -169.65       0.51652       162.25         
1310.6500     0.41455       29.56         2.509E-3      -171.12       2.493E-3      -173.22       0.5157        162.67         
1313.6400     0.41787       29.97         2.685E-3      -178.24       2.649E-3      -177.10       0.51441       163.06         
1316.6300     0.42116       30.40         2.667E-3      179.77        2.604E-3      178.76        0.51261       163.42         
1319.6200     0.4241        30.80         2.714E-3      176.93        2.644E-3      174.42        0.51025       163.75         
1322.6100     0.42689       31.25         2.855E-3      172.14        2.737E-3      173.67        0.50757       164.02         
1325.6000     0.42975       31.71         2.78E-3       167.83        2.776E-3      168.46        0.50465       164.17         
1328.5900     0.43273       32.13         2.892E-3      165.30        2.816E-3      164.34        0.50175       164.21         
1331.5800     0.43574       32.52         2.957E-3      162.13        2.977E-3      162.57        0.49905       164.14         
1334.5700     0.4382        32.84         3.098E-3      158.90        3.02E-3       158.48        0.4966        164.02         
1337.5600     0.43988       33.21         3.117E-3      153.73        3.164E-3      152.92        0.49437       163.80         
1340.5500     0.44091       33.64         3.181E-3      149.94        3.132E-3      150.50        0.49276       163.55         
1343.5400     0.44225       34.19         3.202E-3      145.88        3.205E-3      146.20        0.49187       163.23         
1346.5300     0.44405       34.73         3.273E-3      141.39        3.28E-3       140.73        0.49161       162.92         
1349.5200     0.44592       35.26         3.36E-3       137.36        3.297E-3      135.77        0.49225       162.61         
1352.5100     0.44775       35.75         3.428E-3      132.23        3.401E-3      132.09        0.49349       162.35         
1355.5000     0.44943       36.24         3.493E-3      128.72        3.46E-3       128.86        0.49515       162.16         
1358.4900     0.45111       36.70         3.469E-3      125.33        3.527E-3      124.88        0.49704       162.07         
1361.4800     0.45266       37.17         3.566E-3      120.62        3.54E-3       120.58        0.4993        162.07         
1364.4700     0.45427       37.64         3.561E-3      117.50        3.638E-3      116.96        0.50118       162.18         
1367.4600     0.45581       38.11         3.609E-3      112.65        3.588E-3      112.87        0.50331       162.37         
1370.4500     0.45743       38.57         3.672E-3      109.90        3.639E-3      108.26        0.50472       162.63         
1373.4400     0.45926       39.01         3.723E-3      105.21        3.702E-3      103.92        0.5057        162.97         
1376.4300     0.46113       39.44         3.722E-3      101.05        3.725E-3      99.38         0.50626       163.34         
1379.4200     0.46323       39.87         3.828E-3      95.50         3.715E-3      96.24         0.50612       163.77         
1382.4100     0.46566       40.29         3.804E-3      92.29         3.775E-3      91.39         0.50532       164.19         
1385.4000     0.46787       40.68         3.789E-3      88.22         3.812E-3      87.06         0.50406       164.59         
1388.3900     0.47006       41.07         3.798E-3      82.82         3.722E-3      83.13         0.50224       164.92         
1391.3800     0.47221       41.48         3.80E-3       80.26         3.843E-3      79.16         0.50004       165.19         
1394.3700     0.47457       41.92         3.878E-3      74.92         3.793E-3      74.67         0.49754       165.35         
1397.3600     0.47765       42.32         3.792E-3      70.76         3.745E-3      71.12         0.49498       165.46         
1400.3500     0.48086       42.53         3.725E-3      65.89         3.757E-3      67.01         0.49229       165.47         
1403.3400     0.48266       42.58         3.705E-3      64.62         3.621E-3      64.10         0.48988       165.39         
1406.3300     0.48252       42.65         3.748E-3      60.45         3.648E-3      61.24         0.48823       165.20         
1409.3200     0.48001       42.82         3.748E-3      58.43         3.777E-3      59.26         0.48691       164.95         
1412.3100     0.4775        43.35         3.804E-3      54.30         3.854E-3      55.81         0.48637       164.63         
1415.3000     0.47692       43.93         3.793E-3      49.80         3.895E-3      51.21         0.48644       164.33         
1418.2900     0.47681       44.43         3.912E-3      46.01         3.936E-3      47.85         0.48709       164.03         
1421.2800     0.47623       44.84         3.879E-3      41.55         3.908E-3      42.81         0.48841       163.79         
1424.2700     0.4752        45.27         3.872E-3      38.20         3.919E-3      37.83         0.4902        163.61         
1427.2600     0.47387       45.72         3.863E-3      33.67         3.924E-3      34.40         0.49217       163.50         
1430.2500     0.47287       46.21         3.894E-3      29.95         3.901E-3      30.78         0.49422       163.49         
1433.2400     0.47212       46.72         3.881E-3      25.67         3.808E-3      27.83         0.49626       163.54         
1436.2300     0.47149       47.25         3.863E-3      23.43         3.887E-3      23.97         0.49802       163.70         
1439.2200     0.47107       47.77         3.792E-3      18.51         3.841E-3      19.43         0.49953       163.95         
1442.2100     0.47078       48.33         3.802E-3      14.53         3.825E-3      15.97         0.50067       164.28         
1445.2000     0.4707        48.92         3.793E-3      12.01         3.777E-3      13.99         0.50114       164.66         
1448.1900     0.47062       49.55         3.785E-3      9.01          3.786E-3      9.39          0.50103       165.02         
1451.1800     0.47068       50.22         3.75E-3       4.40          3.72E-3       5.60          0.50033       165.39         
1454.1700     0.4709        50.89         3.654E-3      1.33          3.815E-3      2.61          0.49889       165.73         
1457.1600     0.47133       51.60         3.741E-3      -1.43         3.728E-3      -0.44         0.49682       166.03         
1460.1500     0.4715        52.31         3.73E-3       -5.00         3.665E-3      -4.17         0.4944        166.26         
1463.1400     0.47164       53.05         3.718E-3      -7.17         3.713E-3      -6.59         0.4919        166.41         
1466.1300     0.47149       53.83         3.738E-3      -10.83        3.702E-3      -10.96        0.4893        166.45         
1469.1200     0.4715        54.66         3.676E-3      -14.80        3.70E-3       -13.25        0.48689       166.37         
1472.1100     0.47184       55.50         3.739E-3      -18.15        3.695E-3      -17.31        0.4848        166.20         
1475.1000     0.47212       56.32         3.668E-3      -21.73        3.629E-3      -20.99        0.48306       165.93         
1478.0900     0.47254       57.11         3.643E-3      -24.56        3.571E-3      -23.48        0.48171       165.59         
1481.0800     0.47325       57.88         3.658E-3      -28.10        3.596E-3      -26.58        0.48112       165.24         
1484.0700     0.47398       58.63         3.543E-3      -30.35        3.499E-3      -29.29        0.48129       164.86         
1487.0600     0.47519       59.36         3.556E-3      -34.30        3.499E-3      -32.12        0.4821        164.49         
1490.0500     0.47679       60.07         3.533E-3      -36.18        3.572E-3      -35.22        0.48354       164.16         
1493.0400     0.47883       60.73         3.592E-3      -39.47        3.529E-3      -39.14        0.4855        163.90         
1496.0300     0.48115       61.34         3.541E-3      -41.43        3.548E-3      -41.39        0.48779       163.71         
1499.0200     0.48373       61.90         3.507E-3      -46.12        3.479E-3      -43.55        0.49026       163.62         
1502.0100     0.48646       62.46         3.485E-3      -47.54        3.464E-3      -46.61        0.49247       163.71         
1505.0000     0.48936       63.00         3.493E-3      -51.31        3.43E-3       -48.65        0.4946        163.85         
1507.9900     0.49258       63.52         3.54E-3       -53.68        3.529E-3      -52.34        0.49653       164.08         
1510.9800     0.49561       64.02         3.503E-3      -55.52        3.485E-3      -55.40        0.49773       164.37         
1513.9700     0.49866       64.53         3.589E-3      -58.53        3.429E-3      -57.70        0.49838       164.72         
1516.9600     0.50166       65.06         3.574E-3      -61.21        3.556E-3      -60.79        0.49848       165.13         
1519.9500     0.50444       65.56         3.494E-3      -63.63        3.589E-3      -63.65        0.49793       165.56         
1522.9400     0.50714       66.07         3.616E-3      -67.36        3.527E-3      -66.83        0.49678       165.95         
1525.9300     0.50935       66.56         3.562E-3      -69.54        3.566E-3      -69.59        0.49516       166.31         
1528.9200     0.51128       67.02         3.688E-3      -73.28        3.65E-3       -71.36        0.49308       166.59         
1531.9100     0.51268       67.46         3.629E-3      -76.36        3.592E-3      -75.35        0.49073       166.79         
1534.9000     0.51352       67.87         3.741E-3      -77.81        3.647E-3      -77.15        0.4881        166.88         
1537.8900     0.51437       68.27         3.71E-3       -81.76        3.645E-3      -81.78        0.48549       166.90         
1540.8800     0.51494       68.66         3.738E-3      -83.85        3.748E-3      -82.80        0.48316       166.82         
1543.8700     0.51559       69.04         3.769E-3      -86.70        3.718E-3      -87.94        0.48122       166.65         
1546.8600     0.51604       69.40         3.835E-3      -91.13        3.782E-3      -89.73        0.47989       166.37         
1549.8500     0.51652       69.71         3.856E-3      -93.99        3.748E-3      -94.06        0.47909       166.04         
1552.8400     0.51713       70.01         3.855E-3      -97.16        3.745E-3      -96.89        0.47881       165.69         
1555.8300     0.51764       70.30         3.824E-3      -100.66       3.763E-3      -100.50       0.47908       165.35         
1558.8200     0.51819       70.58         3.893E-3      -103.74       3.891E-3      -103.44       0.48          165.04         
1561.8100     0.51899       70.88         3.917E-3      -107.49       3.831E-3      -106.63       0.48141       164.79         
1564.8000     0.5198        71.17         3.977E-3      -109.97       3.815E-3      -110.23       0.48289       164.59         
1567.7900     0.52083       71.47         3.863E-3      -114.76       3.901E-3      -113.52       0.48496       164.49         
1570.7800     0.52163       71.77         3.859E-3      -117.91       3.908E-3      -117.17       0.48662       164.47         
1573.7700     0.52226       72.10         3.86E-3       -120.74       3.892E-3      -120.24       0.48847       164.55         
1576.7600     0.52262       72.47         3.835E-3      -125.10       3.876E-3      -123.80       0.48993       164.71         
1579.7500     0.52267       72.90         3.99E-3       -127.58       3.887E-3      -128.10       0.49091       164.96         
1582.7400     0.52249       73.34         3.962E-3      -130.83       3.876E-3      -130.08       0.49168       165.28         
1585.7300     0.52203       73.80         3.894E-3      -134.38       3.844E-3      -133.35       0.49185       165.61         
1588.7200     0.52114       74.26         3.786E-3      -137.66       3.898E-3      -137.61       0.49144       165.98         
1591.7100     0.51996       74.70         3.777E-3      -139.76       3.895E-3      -140.06       0.49049       166.30         
1594.7000     0.51834       75.13         3.879E-3      -144.20       3.892E-3      -143.59       0.48904       166.61         
1597.6900     0.51657       75.56         3.719E-3      -147.73       3.91E-3       -146.31       0.48701       166.88         
1600.6800     0.51462       75.98         3.756E-3      -150.30       3.859E-3      -150.23       0.48474       167.08         
1603.6700     0.51254       76.39         3.809E-3      -152.65       3.861E-3      -152.88       0.48246       167.21         
1606.6600     0.51047       76.78         3.877E-3      -155.72       3.849E-3      -155.77       0.48013       167.21         
1609.6500     0.50836       77.15         3.808E-3      -158.89       3.858E-3      -158.93       0.47808       167.14         
1612.6400     0.5062        77.50         3.932E-3      -162.63       3.867E-3      -161.34       0.47611       166.97         
1615.6300     0.5045        77.86         3.852E-3      -165.18       3.894E-3      -164.85       0.47465       166.74         
1618.6200     0.50276       78.21         3.918E-3      -168.32       3.83E-3       -167.78       0.47352       166.45         
1621.6100     0.50139       78.52         3.86E-3       -171.37       3.907E-3      -172.00       0.4729        166.16         
1624.6000     0.49996       78.86         3.90E-3       -174.87       3.887E-3      -174.95       0.473         165.84         
1627.5900     0.49848       79.20         3.79E-3       -178.55       3.818E-3      -178.14       0.47357       165.56         
1630.5800     0.49732       79.57         3.879E-3      178.33        3.902E-3      178.41        0.47462       165.30         
1633.5700     0.49597       79.99         3.928E-3      175.39        3.918E-3      175.82        0.47585       165.12         
1636.5600     0.49471       80.43         3.85E-3       171.69        3.901E-3      172.28        0.47731       165.02         
1639.5500     0.49328       80.87         3.858E-3      169.81        3.811E-3      168.62        0.47892       165.03         
1642.5400     0.49133       81.30         3.857E-3      165.72        3.842E-3      166.89        0.48059       165.11         
1645.5300     0.4888        81.73         3.817E-3      162.60        3.878E-3      162.71        0.48214       165.27         
1648.5200     0.48565       82.18         3.801E-3      159.67        3.819E-3      160.40        0.48317       165.51         
1651.5100     0.48185       82.63         3.842E-3      156.97        3.877E-3      158.04        0.48359       165.80         
1654.5000     0.47745       83.08         3.921E-3      152.97        3.823E-3      154.33        0.48351       166.13         
1657.4900     0.47286       83.54         3.83E-3       149.89        3.838E-3      151.22        0.48305       166.49         
1660.4800     0.46786       83.98         3.775E-3      146.75        3.826E-3      147.20        0.48196       166.87         
1663.4700     0.46254       84.39         3.821E-3      143.11        3.828E-3      145.59        0.48035       167.20         
1666.4600     0.45701       84.79         3.813E-3      140.56        3.925E-3      142.01        0.47835       167.49         
1669.4500     0.45126       85.20         3.845E-3      137.29        3.876E-3      138.56        0.47607       167.70         
1672.4400     0.44552       85.62         3.883E-3      133.69        3.852E-3      134.55        0.47366       167.79         
1675.4300     0.43984       86.04         3.828E-3      130.60        3.866E-3      132.05        0.47105       167.81         
1678.4200     0.43436       86.49         3.87E-3       127.76        3.852E-3      128.00        0.46848       167.76         
1681.4100     0.42887       86.97         3.845E-3      124.95        3.878E-3      125.05        0.46608       167.60         
1684.4000     0.42364       87.49         3.855E-3      120.73        3.853E-3      122.28        0.46419       167.35         
1687.3900     0.41831       88.05         3.826E-3      118.37        3.878E-3      118.02        0.46276       167.03         
1690.3800     0.41265       88.63         3.816E-3      114.48        3.799E-3      115.02        0.46208       166.67         
1693.3700     0.40623       89.32         3.833E-3      112.08        3.821E-3      112.25        0.46167       166.29         
1696.3600     0.39866       90.16         3.881E-3      107.95        3.789E-3      109.48        0.46197       165.93         
1699.3500     0.3896        91.31         3.748E-3      105.19        3.841E-3      105.67        0.46296       165.60         
1702.3400     0.37961       93.05         3.796E-3      102.58        3.773E-3      102.68        0.46434       165.34         
1705.3300     0.37151       95.55         3.693E-3      100.00        3.737E-3      99.34         0.46604       165.17         
1708.3200     0.36884       98.57         3.70E-3       96.52         3.75E-3       97.99         0.468         165.11         
1711.3100     0.37242       101.32        3.688E-3      93.45         3.704E-3      94.38         0.46999       165.12         
1714.3000     0.37888       103.35        3.741E-3      91.18         3.663E-3      91.76         0.47183       165.25         
1717.2900     0.38536       104.74        3.708E-3      87.47         3.744E-3      88.69         0.47347       165.46         
1720.2800     0.39022       105.69        3.727E-3      84.71         3.669E-3      84.48         0.47475       165.79         
1723.2700     0.39357       106.41        3.655E-3      81.44         3.742E-3      82.13         0.47565       166.19         
1726.2600     0.39571       106.97        3.69E-3       78.25         3.683E-3      78.51         0.4761        166.63         
1729.2500     0.39676       107.46        3.661E-3      73.39         3.662E-3      76.62         0.47571       167.10         
1732.2400     0.39706       107.88        3.718E-3      71.99         3.686E-3      72.08         0.47496       167.55         
1735.2300     0.39721       108.26        3.609E-3      69.05         3.675E-3      69.46         0.47352       167.99         
1738.2200     0.39722       108.61        3.57E-3       66.39         3.671E-3      67.07         0.47147       168.37         
1741.2100     0.39711       108.92        3.612E-3      63.51         3.616E-3      63.68         0.46892       168.71         
1744.2000     0.39703       109.23        3.627E-3      59.76         3.596E-3      59.98         0.46622       168.94         
1747.1900     0.39696       109.55        3.574E-3      56.10         3.64E-3       57.27         0.46346       169.05         
1750.1800     0.39667       109.87        3.633E-3      53.84         3.586E-3      55.92         0.46044       169.06         
1753.1700     0.39635       110.24        3.742E-3      51.08         3.631E-3      50.99         0.4578        168.97         
1756.1600     0.39589       110.66        3.588E-3      47.35         3.598E-3      48.45         0.45537       168.78         
1759.1500     0.39513       111.16        3.578E-3      45.46         3.607E-3      45.91         0.45342       168.52         
1762.1400     0.39401       111.74        3.647E-3      40.92         3.518E-3      42.80         0.45187       168.18         
1765.1300     0.39282       112.39        3.675E-3      38.68         3.596E-3      39.18         0.45123       167.81         
1768.1200     0.39143       113.03        3.642E-3      34.77         3.517E-3      35.77         0.451         167.43         
1771.1100     0.38979       113.65        3.573E-3      33.31         3.606E-3      32.14         0.45153       167.08         
1774.1000     0.38735       114.20        3.576E-3      28.18         3.49E-3       29.36         0.45236       166.77         
1777.0900     0.38384       114.76        3.545E-3      26.80         3.567E-3      26.45         0.45385       166.54         
1780.0800     0.37989       115.30        3.513E-3      22.89         3.575E-3      22.73         0.45565       166.41         
1783.0700     0.37551       115.83        3.517E-3      19.99         3.451E-3      20.33         0.45763       166.39         
1786.0600     0.37087       116.30        3.509E-3      16.45         3.473E-3      17.57         0.4596        166.46         
1789.0500     0.36591       116.74        3.527E-3      12.41         3.447E-3      14.19         0.46153       166.63         
1792.0400     0.36056       117.08        3.475E-3      9.63          3.408E-3      10.04         0.463         166.88         
1795.0300     0.35535       117.41        3.452E-3      6.70          3.383E-3      7.15          0.46395       167.19         
1798.0200     0.35014       117.70        3.40E-3       3.07          3.406E-3      5.05          0.4644        167.57         
1801.0100     0.34498       118.00        3.303E-3      1.16          3.373E-3      1.73          0.46428       167.97         
1804.0000     0.33994       118.30        3.407E-3      -1.24         3.36E-3       -1.81         0.46353       168.35         
1806.9900     0.33529       118.62        3.344E-3      -5.20         3.352E-3      -3.97         0.46244       168.72         
1809.9800     0.33061       118.97        3.333E-3      -9.77         3.383E-3      -7.71         0.46074       169.04         
1812.9700     0.32613       119.36        3.301E-3      -9.78         3.256E-3      -11.00        0.45869       169.29         
1815.9600     0.32149       119.85        3.255E-3      -12.60        3.25E-3       -14.30        0.45638       169.46         
1818.9500     0.31687       120.42        3.25E-3       -17.93        3.28E-3       -16.49        0.45406       169.51         
1821.9400     0.31202       121.10        3.22E-3       -20.00        3.242E-3      -18.36        0.45172       169.49         
1824.9300     0.30672       121.85        3.223E-3      -23.10        3.285E-3      -21.82        0.44961       169.34         
1827.9200     0.30108       122.68        3.228E-3      -26.21        3.184E-3      -24.86        0.44801       169.12         
1830.9100     0.29489       123.64        3.20E-3       -27.96        3.198E-3      -27.63        0.44688       168.84         
1833.9000     0.28833       124.66        3.159E-3      -33.03        3.188E-3      -30.99        0.44633       168.53         
1836.8900     0.28142       125.76        3.164E-3      -33.57        3.139E-3      -34.78        0.44655       168.21         
1839.8800     0.27437       126.95        3.13E-3       -37.93        3.084E-3      -35.18        0.44744       167.93         
1842.8700     0.26716       128.09        3.139E-3      -40.49        3.237E-3      -38.53        0.44886       167.67         
1845.8600     0.25968       129.27        3.153E-3      -43.24        3.047E-3      -43.22        0.45075       167.53         
1848.8500     0.25205       130.44        3.168E-3      -45.43        3.082E-3      -44.50        0.45304       167.45         
1851.8400     0.24451       131.65        3.104E-3      -47.55        3.106E-3      -48.16        0.45543       167.49         
1854.8300     0.23723       132.84        3.157E-3      -52.77        3.079E-3      -51.16        0.45757       167.64         
1857.8200     0.22997       134.09        3.047E-3      -54.91        3.105E-3      -54.02        0.4595        167.91         
1860.8100     0.22318       135.39        3.139E-3      -56.91        3.042E-3      -56.65        0.46125       168.27         
1863.8000     0.21688       136.71        3.102E-3      -60.07        3.166E-3      -58.41        0.46239       168.70         
1866.7900     0.21088       138.13        3.186E-3      -63.14        3.091E-3      -61.94        0.46292       169.19         
1869.7800     0.20539       139.65        3.124E-3      -65.80        3.176E-3      -66.16        0.46263       169.70         
1872.7700     0.20028       141.32        3.089E-3      -69.87        3.166E-3      -67.16        0.46181       170.19         
1875.7600     0.19571       143.15        3.126E-3      -72.64        3.121E-3      -71.06        0.46023       170.68         
1878.7500     0.19144       145.15        3.173E-3      -74.09        3.112E-3      -73.83        0.45791       171.09         
1881.7400     0.18747       147.37        3.114E-3      -77.62        3.142E-3      -76.14        0.45533       171.42         
1884.7300     0.18388       149.78        3.129E-3      -80.48        3.178E-3      -80.52        0.45236       171.61         
1887.7200     0.18068       152.39        3.169E-3      -82.90        3.157E-3      -82.73        0.44924       171.71         
1890.7100     0.17767       155.13        3.118E-3      -87.92        3.147E-3      -86.36        0.44619       171.65         
1893.7000     0.17493       158.05        3.125E-3      -91.90        3.191E-3      -89.61        0.44338       171.46         
1896.6900     0.17241       161.13        3.074E-3      -93.78        3.147E-3      -93.76        0.44094       171.18         
1899.6800     0.17034       164.31        3.105E-3      -97.24        3.12E-3       -97.49        0.4392        170.79         
1902.6700     0.16866       167.57        3.05E-3       -100.32       3.053E-3      -99.25        0.43841       170.34         
1905.6600     0.16767       170.75        3.077E-3      -103.79       3.141E-3      -102.99       0.43838       169.85         
1908.6500     0.16713       173.82        3.165E-3      -106.20       3.046E-3      -107.74       0.43934       169.36         
1911.6400     0.16657       176.74        3.104E-3      -109.95       3.091E-3      -111.57       0.44108       168.93         
1914.6300     0.16635       179.42        3.119E-3      -112.25       3.02E-3       -113.83       0.44358       168.61         
1917.6200     0.16621       -178.04       3.035E-3      -115.35       3.068E-3      -116.32       0.44647       168.39         
1920.6100     0.16622       -175.65       2.897E-3      -118.66       3.078E-3      -119.56       0.44971       168.36         
1923.6000     0.16653       -173.48       2.95E-3       -122.02       2.978E-3      -124.06       0.45292       168.46         
1926.5900     0.16703       -171.42       3.042E-3      -125.94       3.084E-3      -126.29       0.45594       168.70         
1929.5800     0.16768       -169.48       2.908E-3      -128.87       2.946E-3      -129.18       0.45863       169.07         
1932.5700     0.16838       -167.70       2.948E-3      -132.63       2.915E-3      -131.43       0.46049       169.54         
1935.5600     0.16905       -165.93       2.882E-3      -136.34       2.853E-3      -135.15       0.4616        170.09         
1938.5500     0.16985       -164.23       2.852E-3      -139.27       2.887E-3      -137.42       0.46196       170.69         
1941.5400     0.17053       -162.52       2.826E-3      -141.61       2.895E-3      -140.24       0.46131       171.30         
1944.5300     0.17131       -160.72       2.806E-3      -144.82       2.837E-3      -144.76       0.46007       171.88         
1947.5200     0.17204       -158.90       2.856E-3      -146.14       2.796E-3      -146.44       0.45801       172.40         
1950.5100     0.17272       -156.92       2.775E-3      -151.24       2.783E-3      -150.89       0.45529       172.83         
1953.5000     0.17328       -154.92       2.80E-3       -155.22       2.786E-3      -153.74       0.45212       173.14         
1956.4900     0.17387       -152.78       2.72E-3       -157.45       2.791E-3      -157.05       0.4486        173.34         
1959.4800     0.17448       -150.57       2.783E-3      -160.92       2.823E-3      -160.56       0.44515       173.36         
1962.4700     0.17508       -148.27       2.696E-3      -164.94       2.765E-3      -163.72       0.44191       173.23         
1965.4600     0.17555       -145.95       2.756E-3      -168.38       2.714E-3      -168.68       0.43928       172.93         
1968.4500     0.17602       -143.63       2.719E-3      -170.49       2.711E-3      -170.74       0.43748       172.52         
1971.4400     0.17627       -141.30       2.683E-3      -175.15       2.744E-3      -172.58       0.43646       172.02         
1974.4300     0.17657       -139.00       2.691E-3      -176.38       2.644E-3      -175.08       0.43651       171.48         
1977.4200     0.17703       -136.72       2.675E-3      -176.94       2.563E-3      -179.92       0.43767       170.97         
1980.4100     0.17735       -134.40       2.538E-3      175.68        2.576E-3      178.23        0.43969       170.54         
1983.4000     0.17777       -132.11       2.533E-3      174.21        2.591E-3      173.84        0.4425        170.20         
1986.3900     0.1786        -129.81       2.458E-3      172.33        2.531E-3      171.33        0.4458        169.99         
1989.3800     0.1796        -127.60       2.53E-3       167.15        2.505E-3      168.51        0.44944       169.95         
1992.3700     0.18091       -125.40       2.459E-3      164.89        2.515E-3      164.58        0.45295       170.05         
1995.3600     0.18246       -123.18       2.422E-3      159.62        2.371E-3      162.44        0.45633       170.32         
1998.3500     0.18426       -121.02       2.429E-3      157.46        2.427E-3      158.10        0.45916       170.73         
2001.3400     0.18633       -118.85       2.298E-3      155.41        2.415E-3      155.05        0.46144       171.25         
2004.3300     0.18883       -116.73       2.244E-3      154.17        2.339E-3      153.95        0.46299       171.87         
2007.3200     0.1918        -114.60       2.295E-3      147.67        2.231E-3      149.93        0.46348       172.54         
2010.3100     0.19516       -112.47       2.281E-3      146.41        2.263E-3      145.63        0.46313       173.24         
2013.3000     0.19892       -110.38       2.069E-3      143.39        2.193E-3      145.25        0.46178       173.91         
2016.2900     0.20309       -108.28       2.235E-3      139.04        2.166E-3      141.41        0.45948       174.52         
2019.2800     0.20775       -106.27       2.061E-3      139.38        2.152E-3      141.26        0.45635       175.02         
2022.2700     0.21269       -104.28       2.156E-3      135.74        2.156E-3      135.49        0.45259       175.39         
2025.2600     0.2178        -102.38       2.11E-3       130.60        2.066E-3      133.23        0.44866       175.55         
2028.2500     0.22325       -100.53       2.047E-3      130.02        2.089E-3      128.25        0.4447        175.55         
2031.2400     0.22907       -98.80        2.009E-3      127.97        1.996E-3      128.90        0.44119       175.36         
2034.2300     0.2352        -97.14        1.949E-3      124.24        1.979E-3      125.69        0.43826       174.98         
2037.2200     0.24159       -95.58        1.979E-3      121.76        2.025E-3      121.59        0.43607       174.49         
2040.2100     0.24852       -94.17        1.985E-3      117.36        1.958E-3      120.73        0.43496       173.89         
2043.2000     0.25543       -92.97        1.895E-3      118.15        1.918E-3      119.08        0.43475       173.24         
2046.1900     0.2624        -91.91        1.959E-3      114.18        1.948E-3      112.09        0.43573       172.57         
2049.1800     0.2692        -91.00        1.935E-3      109.30        1.924E-3      113.19        0.43763       171.96         
2052.1700     0.27581       -90.20        1.909E-3      108.53        1.878E-3      110.52        0.4403        171.45         
2055.1600     0.28205       -89.45        1.88E-3       107.06        1.943E-3      104.45        0.44384       171.06         
2058.1500     0.28808       -88.74        1.895E-3      103.14        1.811E-3      100.95        0.44786       170.84         
2061.1400     0.29392       -88.10        1.928E-3      99.81         1.913E-3      100.62        0.45187       170.79         
2064.1300     0.29966       -87.47        1.778E-3      96.84         1.877E-3      95.82         0.45605       170.93         
2067.1200     0.30505       -86.86        1.799E-3      94.21         1.784E-3      96.54         0.45966       171.24         
2070.1100     0.31019       -86.29        1.873E-3      93.05         1.838E-3      90.46         0.46275       171.71         
2073.1000     0.31521       -85.70        1.809E-3      88.68         1.802E-3      88.51         0.46486       172.26         
2076.0900     0.31982       -85.15        1.711E-3      84.35         1.745E-3      86.11         0.466         172.91         
2079.0800     0.32429       -84.60        1.777E-3      81.76         1.80E-3       85.58         0.46627       173.59         
2082.0700     0.32838       -84.08        1.648E-3      82.44         1.724E-3      82.06         0.46548       174.24         
2085.0600     0.33207       -83.53        1.74E-3       77.74         1.813E-3      78.27         0.46389       174.83         
2088.0500     0.33545       -83.02        1.651E-3      74.16         1.757E-3      73.92         0.46142       175.32         
2091.0400     0.33873       -82.48        1.743E-3      73.31         1.716E-3      73.10         0.45849       175.68         
2094.0300     0.34158       -81.92        1.83E-3       70.18         1.686E-3      67.30         0.45527       175.90         
2097.0200     0.34472       -81.36        1.685E-3      68.30         1.691E-3      70.10         0.4522        175.94         
2100.0100     0.34751       -80.79        1.664E-3      60.76         1.617E-3      64.12         0.44897       175.82         
2103.0000     0.35031       -80.21        1.786E-3      61.35         1.576E-3      58.05         0.44641       175.51         
2105.9900     0.35308       -79.62        1.614E-3      56.95         1.521E-3      56.63         0.44457       175.10         
2108.9800     0.35597       -78.95        1.747E-3      54.85         1.614E-3      52.36         0.44354       174.55         
2111.9700     0.35901       -78.25        1.569E-3      50.37         1.622E-3      50.57         0.44359       173.95         
2114.9600     0.36224       -77.53        1.602E-3      48.62         1.535E-3      51.70         0.44449       173.33         
2117.9500     0.36564       -76.76        1.514E-3      46.94         1.56E-3       47.24         0.44661       172.77         
2120.9400     0.36953       -75.94        1.493E-3      39.50         1.456E-3      42.10         0.44968       172.30         
2123.9300     0.37358       -75.11        1.379E-3      41.35         1.558E-3      37.40         0.45339       171.96         
2126.9200     0.37835       -74.29        1.376E-3      37.58         1.318E-3      36.54         0.45768       171.80         
2129.9100     0.38341       -73.57        1.422E-3      35.63         1.421E-3      35.43         0.46194       171.83         
2132.9000     0.38838       -72.94        1.401E-3      29.87         1.355E-3      27.29         0.46593       172.02         
2135.8900     0.39312       -72.45        1.331E-3      27.42         1.323E-3      31.95         0.46954       172.40         
2138.8800     0.39648       -72.05        1.352E-3      24.45         1.443E-3      29.47         0.47255       172.90         
2141.8700     0.39909       -71.60        1.311E-3      22.07         1.303E-3      22.79         0.47481       173.52         
2144.8600     0.40119       -71.11        1.26E-3       22.44         1.272E-3      19.30         0.47601       174.21         
2147.8500     0.40326       -70.59        1.341E-3      19.85         1.208E-3      18.82         0.47634       174.92         
2150.8400     0.4055        -70.08        1.22E-3       14.12         1.215E-3      14.85         0.47579       175.64         
2153.8300     0.40794       -69.61        1.107E-3      9.80          1.213E-3      10.80         0.47415       176.31         
2156.8200     0.41038       -69.18        1.173E-3      9.79          1.15E-3       11.84         0.4719        176.87         
2159.8100     0.41309       -68.80        1.212E-3      3.92          1.108E-3      10.00         0.46908       177.34         
2162.8000     0.41613       -68.49        1.16E-3       4.90          1.132E-3      4.55          0.46566       177.66         
2165.7900     0.41928       -68.22        1.141E-3      -0.17         1.117E-3      -0.01         0.46218       177.81         
2168.7800     0.42269       -67.96        1.007E-3      0.29          1.066E-3      5.61          0.45859       177.79         
2171.7700     0.42635       -67.73        1.095E-3      0.86          1.177E-3      0.79          0.45526       177.58         
2174.7600     0.43          -67.49        1.105E-3      -4.17         1.013E-3      -3.44         0.45245       177.21         
2177.7500     0.43364       -67.28        9.63E-4       -6.79         1.047E-3      -7.93         0.45038       176.71         
2180.7400     0.43703       -67.02        9.928E-4      -3.52         1.018E-3      -10.02        0.44932       176.13         
2183.7300     0.44025       -66.77        9.774E-4      -2.91         9.429E-4      -9.93         0.44932       175.51         
2186.7200     0.44327       -66.50        9.34E-4       -12.15        1.022E-3      -7.09         0.45026       174.89         
2189.7100     0.44589       -66.21        9.532E-4      -10.32        8.938E-4      -11.79        0.45219       174.31         
2192.7000     0.44794       -65.89        8.974E-4      -13.03        1.071E-3      -16.09        0.45481       173.85         
2195.6900     0.44971       -65.60        8.985E-4      -11.09        8.947E-4      -21.23        0.45816       173.53         
2198.6800     0.45083       -65.28        9.221E-4      -17.28        9.069E-4      -13.38        0.46169       173.38         
2201.6700     0.45143       -64.99        8.062E-4      -19.62        9.008E-4      -16.55        0.46534       173.38         
2204.6600     0.45145       -64.73        9.46E-4       -28.20        9.227E-4      -19.02        0.46882       173.55         
2207.6500     0.45109       -64.49        9.054E-4      -22.04        9.114E-4      -19.77        0.47175       173.86         
2210.6400     0.45082       -64.32        8.373E-4      -22.57        9.264E-4      -21.55        0.47442       174.28         
2213.6300     0.4499        -64.22        8.573E-4      -23.08        7.959E-4      -27.59        0.47605       174.78         
2216.6200     0.44893       -64.13        8.093E-4      -24.34        8.20E-4       -22.63        0.47717       175.34         
2219.6100     0.4481        -64.11        7.379E-4      -27.20        9.198E-4      -32.66        0.47732       175.93         
2222.6000     0.44733       -64.14        7.701E-4      -32.50        9.621E-4      -26.98        0.4767        176.48         
2225.5900     0.44661       -64.15        8.519E-4      -27.86        8.79E-4       -28.04        0.47525       176.99         
2228.5800     0.44617       -64.21        9.167E-4      -30.58        8.707E-4      -41.21        0.47332       177.40         
2231.5700     0.44597       -64.25        9.083E-4      -25.22        9.845E-4      -28.35        0.47069       177.72         
2234.5600     0.44567       -64.25        8.246E-4      -34.25        8.89E-4       -37.24        0.46783       177.88         
2237.5500     0.44529       -64.22        8.818E-4      -32.84        9.765E-4      -39.31        0.46484       177.89         
2240.5400     0.44486       -64.13        8.956E-4      -38.16        8.926E-4      -33.10        0.46193       177.73         
2243.5300     0.44409       -63.99        7.80E-4       -41.02        9.217E-4      -39.98        0.45936       177.44         
2246.5200     0.44302       -63.78        8.702E-4      -45.00        9.235E-4      -46.28        0.45731       177.00         
2249.5100     0.44152       -63.53        9.144E-4      -40.58        9.962E-4      -40.18        0.4562        176.47         
2252.5000     0.43952       -63.23        9.567E-4      -48.21        7.89E-4       -40.97        0.45594       175.87         
2255.4900     0.43697       -62.89        9.108E-4      -51.50        9.369E-4      -44.70        0.45674       175.26         
2258.4800     0.43381       -62.52        8.484E-4      -49.04        8.683E-4      -48.30        0.45842       174.70         
2261.4700     0.43019       -62.17        9.434E-4      -56.48        9.254E-4      -53.14        0.4609        174.22         
2264.4600     0.42586       -61.82        9.414E-4      -53.92        8.112E-4      -57.46        0.464         173.82         
2267.4500     0.42112       -61.51        9.384E-4      -56.22        7.738E-4      -56.40        0.46756       173.58         
2270.4400     0.41607       -61.19        8.769E-4      -61.82        8.442E-4      -52.61        0.47113       173.51         
2273.4300     0.41087       -60.93        8.722E-4      -66.09        9.256E-4      -63.27        0.47492       173.56         
2276.4200     0.40587       -60.72        9.438E-4      -66.03        9.445E-4      -61.49        0.47843       173.75         
2279.4100     0.40109       -60.55        9.459E-4      -68.68        9.949E-4      -66.15        0.48154       174.10         
2282.4000     0.39648       -60.42        8.763E-4      -74.81        8.615E-4      -68.83        0.48414       174.51         
2285.3900     0.39242       -60.31        8.756E-4      -74.73        9.956E-4      -66.96        0.48614       175.05         
2288.3800     0.38873       -60.16        9.462E-4      -74.20        9.702E-4      -67.60        0.48722       175.66         
2291.3700     0.38524       -59.97        8.991E-4      -81.51        9.639E-4      -75.37        0.48751       176.25         
2294.3600     0.38218       -59.74        9.537E-4      -76.92        9.831E-4      -76.11        0.48688       176.84         
2297.3500     0.37925       -59.44        8.739E-4      -81.58        1.00E-3       -80.73        0.48539       177.37         
2300.3400     0.37655       -58.97        1.081E-3      -78.27        9.613E-4      -76.52        0.48404       177.83         
2303.3300     0.37366       -58.49        1.006E-3      -87.47        9.077E-4      -87.79        0.4816        178.13         
2306.3200     0.37084       -57.87        1.001E-3      -91.01        9.862E-4      -91.99        0.47863       178.30         
2309.3100     0.36806       -57.19        9.512E-4      -91.60        9.849E-4      -96.59        0.47549       178.30         
2312.3000     0.36505       -56.42        9.569E-4      -97.18        9.007E-4      -94.65        0.47261       178.17         
2315.2900     0.36184       -55.59        1.03E-3       -96.65        8.797E-4      -97.75        0.47008       177.88         
2318.2800     0.35831       -54.72        1.006E-3      -98.28        1.058E-3      -98.45        0.4681        177.48         
2321.2700     0.35448       -53.87        1.053E-3      -101.70       9.551E-4      -103.45       0.46697       177.00         
2324.2600     0.35036       -53.00        9.978E-4      -109.16       1.002E-3      -108.16       0.46658       176.47         
2327.2500     0.3462        -52.14        1.025E-3      -112.12       8.944E-4      -108.23       0.46708       175.90         
2330.2400     0.34223       -51.35        1.037E-3      -108.04       1.065E-3      -109.82       0.46841       175.36         
2333.2300     0.3384        -50.64        1.076E-3      -111.28       1.073E-3      -123.25       0.47045       174.88         
2336.2200     0.33513       -50.01        1.10E-3       -119.84       1.066E-3      -117.84       0.47321       174.48         
2339.2100     0.33224       -49.47        1.039E-3      -116.05       1.116E-3      -119.75       0.4766        174.23         
2342.2000     0.33002       -49.00        9.856E-4      -125.49       1.096E-3      -112.82       0.48017       174.09         
2345.1900     0.32834       -48.58        1.007E-3      -123.99       1.02E-3       -119.09       0.48401       174.12         
2348.1800     0.32738       -48.22        1.125E-3      -131.49       1.135E-3      -125.54       0.48758       174.30         
2351.1700     0.32672       -47.85        1.077E-3      -135.32       1.03E-3       -135.77       0.49081       174.63         
2354.1600     0.32674       -47.53        9.863E-4      -130.58       1.05E-3       -137.05       0.4933        175.05         
2357.1500     0.32714       -47.18        1.087E-3      -132.22       9.676E-4      -136.11       0.49502       175.58         
2360.1400     0.32778       -46.85        1.104E-3      -143.84       1.058E-3      -142.19       0.49607       176.12         
2363.1300     0.32867       -46.46        9.623E-4      -145.06       9.136E-4      -141.64       0.49596       176.67         
2366.1200     0.32972       -46.04        1.025E-3      -152.68       9.89E-4       -148.26       0.49528       177.20         
2369.1100     0.33058       -45.64        9.847E-4      -149.22       1.099E-3      -154.58       0.49408       177.65         
2372.1000     0.33101       -45.18        9.422E-4      -151.34       9.072E-4      -155.38       0.4919        178.03         
2375.0900     0.33108       -44.75        1.007E-3      -155.02       8.744E-4      -149.81       0.4896        178.28         
2378.0800     0.33053       -44.34        1.04E-3       -159.32       9.205E-4      -157.65       0.48698       178.42         
2381.0700     0.32935       -43.95        1.036E-3      -160.73       1.017E-3      -158.38       0.48429       178.42         
2384.0600     0.32766       -43.65        9.481E-4      -168.51       9.657E-4      -158.38       0.4817        178.28         
2387.0500     0.32548       -43.42        1.03E-3       -166.35       9.361E-4      -164.31       0.4794        178.01         
2390.0400     0.32305       -43.29        9.10E-4       -169.31       9.702E-4      -172.57       0.47765       177.59         
2393.0300     0.32033       -43.34        9.488E-4      -165.77       9.987E-4      -168.17       0.47683       177.10         
2396.0200     0.31757       -43.47        9.506E-4      -171.28       9.821E-4      -166.63       0.47665       176.55         
2399.0100     0.31468       -43.70        9.455E-4      -172.47       1.00E-3       -173.21       0.47772       176.00         
2402.0000     0.31187       -43.97        8.969E-4      -179.97       9.048E-4      179.35        0.47965       175.48         
2404.9900     0.30932       -44.34        9.974E-4      -174.53       9.828E-4      172.67        0.48249       175.06         
2407.9800     0.3069        -44.76        9.314E-4      172.87        8.463E-4      167.44        0.48597       174.77         
2410.9700     0.30474       -45.18        9.842E-4      164.86        8.419E-4      176.28        0.48976       174.66         
2413.9600     0.30296       -45.62        8.113E-4      171.79        7.10E-4       163.58        0.49352       174.67         
2416.9500     0.30117       -46.03        8.267E-4      167.47        9.382E-4      163.01        0.49714       174.86         
2419.9400     0.2997        -46.37        9.291E-4      162.54        8.956E-4      163.80        0.50042       175.20         
2422.9300     0.29806       -46.65        7.744E-4      160.16        9.049E-4      161.86        0.50284       175.61         
2425.9200     0.29632       -46.87        8.91E-4       156.97        8.837E-4      154.35        0.50476       176.14         
2428.9100     0.29414       -47.03        8.071E-4      148.60        8.208E-4      152.23        0.50555       176.71         
2431.9000     0.29147       -47.17        7.603E-4      154.40        7.751E-4      143.87        0.5057        177.32         
2434.8900     0.28797       -47.25        7.663E-4      151.69        8.54E-4       146.34        0.50496       177.90         
2437.8800     0.28375       -47.37        9.425E-4      146.53        7.851E-4      152.75        0.50335       178.43         
2440.8700     0.27894       -47.51        9.125E-4      151.50        7.659E-4      145.90        0.50094       178.87         
2443.8600     0.27345       -47.66        8.292E-4      142.63        8.899E-4      142.98        0.49799       179.20         
2446.8500     0.26758       -47.86        6.852E-4      141.59        7.882E-4      157.26        0.49457       179.37         
2449.8400     0.26139       -48.17        8.158E-4      139.05        8.063E-4      141.43        0.49081       179.37         
2452.8300     0.25505       -48.54        7.834E-4      134.48        8.551E-4      139.79        0.48728       179.17         
2455.8200     0.24875       -48.98        8.153E-4      125.41        7.577E-4      137.67        0.48426       178.79         
2458.8100     0.24252       -49.51        7.345E-4      137.29        8.86E-4       135.41        0.48159       178.25         
2461.8000     0.23665       -50.07        6.602E-4      136.57        8.622E-4      133.11        0.48013       177.60         
2464.7900     0.23108       -50.67        8.205E-4      131.47        7.336E-4      131.68        0.47973       176.88         
2467.7800     0.22595       -51.26        7.507E-4      121.93        7.653E-4      132.32        0.48053       176.17         
2470.7700     0.22137       -51.75        6.556E-4      130.78        7.796E-4      123.48        0.48255       175.48         
2473.7600     0.21724       -52.22        6.619E-4      108.67        7.841E-4      117.56        0.48533       174.89         
2476.7500     0.21352       -52.53        7.746E-4      121.03        9.006E-4      113.29        0.48863       174.42         
2479.7400     0.20997       -52.76        8.038E-4      118.06        7.505E-4      110.01        0.49267       174.13         
2482.7300     0.2064        -52.90        8.302E-4      108.98        7.708E-4      112.80        0.49702       173.98         
2485.7200     0.20284       -52.92        8.733E-4      114.03        7.861E-4      113.52        0.50121       174.00         
2488.7100     0.19848       -52.91        7.806E-4      114.24        7.317E-4      102.61        0.50524       174.19         
2491.7000     0.19324       -52.74        8.439E-4      105.95        8.689E-4      107.43        0.50871       174.55         
2494.6900     0.18746       -52.45        7.232E-4      109.44        8.279E-4      107.35        0.51155       175.02         
2497.6800     0.18038       -51.93        7.931E-4      101.56        8.217E-4      97.29         0.51357       175.60         
2500.6700     0.1736        -51.09        7.376E-4      95.09         6.96E-4       92.87         0.51481       176.24         
2503.6600     0.16707       -50.23        6.758E-4      90.85         7.14E-4       92.36         0.51498       176.89         
2506.6500     0.1608        -49.42        7.819E-4      96.19         7.806E-4      97.70         0.51394       177.50         
2509.6400     0.15469       -48.71        7.516E-4      78.97         8.718E-4      89.59         0.51194       178.03         
2512.6300     0.14899       -48.03        7.979E-4      84.29         7.173E-4      83.34         0.50932       178.45         
2515.6200     0.14371       -47.42        7.04E-4       80.68         8.002E-4      80.45         0.50607       178.72         
2518.6100     0.13897       -47.01        7.27E-4       78.24         8.543E-4      84.11         0.50258       178.80         
2521.6000     0.13502       -46.64        8.202E-4      80.33         8.582E-4      76.00         0.49903       178.72         
2524.5900     0.13174       -46.30        7.015E-4      74.75         7.638E-4      75.96         0.49594       178.44         
2527.5800     0.12904       -45.99        8.845E-4      73.42         7.343E-4      76.37         0.49323       178.00         
2530.5700     0.12709       -45.57        7.312E-4      69.56         7.747E-4      72.99         0.49142       177.42         
2533.5600     0.12572       -44.99        7.167E-4      69.68         7.681E-4      64.76         0.4905        176.79         
2536.5500     0.12499       -44.24        7.799E-4      65.84         7.056E-4      57.98         0.49076       176.10         
2539.5400     0.12454       -43.24        7.225E-4      64.61         7.29E-4       62.27         0.49206       175.42         
2542.5300     0.12436       -42.06        7.426E-4      56.07         6.814E-4      63.27         0.49443       174.80         
2545.5200     0.124         -40.70        7.057E-4      54.31         6.698E-4      53.07         0.49764       174.32         
2548.5100     0.12368       -39.24        6.673E-4      50.78         7.606E-4      60.21         0.50149       173.95         
2551.5000     0.1232        -37.66        6.531E-4      52.47         7.491E-4      42.43         0.50577       173.78         
2554.4900     0.12256       -36.11        7.507E-4      45.49         7.085E-4      49.02         0.51005       173.80         
2557.4800     0.1216        -34.67        7.455E-4      46.13         6.87E-4       52.24         0.51428       174.00         
2560.4700     0.12037       -33.25        6.932E-4      55.88         7.471E-4      48.17         0.51801       174.37         
2563.4600     0.11881       -32.20        6.801E-4      40.63         6.646E-4      43.05         0.52091       174.88         
2566.4500     0.11723       -31.38        7.075E-4      43.93         5.733E-4      38.16         0.52285       175.48         
2569.4400     0.11529       -30.93        6.701E-4      39.89         7.47E-4       44.01         0.52363       176.14         
2572.4300     0.11344       -30.72        7.167E-4      34.65         7.017E-4      41.00         0.52337       176.81         
2575.4200     0.11165       -30.93        7.673E-4      34.35         6.634E-4      38.02         0.52215       177.40         
2578.4100     0.11021       -31.41        8.154E-4      27.75         6.362E-4      34.99         0.51999       177.93         
2581.4000     0.10916       -32.17        7.368E-4      28.51         6.842E-4      27.41         0.51696       178.33         
2584.3900     0.10853       -33.04        7.624E-4      28.62         6.736E-4      32.19         0.51353       178.56         
2587.3800     0.1083        -33.98        7.884E-4      19.64         7.191E-4      20.54         0.50983       178.61         
2590.3700     0.10852       -34.74        6.886E-4      16.08         6.538E-4      21.72         0.50616       178.49         
2593.3600     0.10932       -35.36        7.224E-4      23.73         6.588E-4      17.98         0.50294       178.16         
2596.3500     0.11049       -35.80        6.864E-4      3.98          6.299E-4      17.50         0.50037       177.68         
2599.3400     0.11179       -36.11        6.439E-4      10.89         6.548E-4      11.77         0.4986        177.09         
2602.3300     0.11297       -36.24        6.356E-4      8.31          7.33E-4       9.05          0.49799       176.40         
2605.3200     0.11369       -36.37        6.267E-4      2.04          7.433E-4      3.42          0.4986        175.66         
2608.3100     0.11412       -36.26        7.518E-4      2.02          6.34E-4       7.75          0.50033       174.95         
2611.3000     0.11406       -36.15        6.882E-4      -7.09         6.486E-4      3.03          0.50295       174.34         
2614.2900     0.11328       -36.13        6.653E-4      -5.16         6.903E-4      -8.30         0.50688       173.88         
2617.2800     0.11199       -36.07        5.996E-4      1.67          5.478E-4      -4.76         0.51112       173.57         
2620.2700     0.11032       -36.23        7.339E-4      -8.73         6.782E-4      -4.42         0.51582       173.47         
2623.2600     0.10816       -36.53        7.191E-4      -12.61        6.564E-4      -12.83        0.52042       173.58         
2626.2500     0.10576       -37.23        6.676E-4      -16.65        6.864E-4      -7.26         0.52481       173.85         
2629.2400     0.10315       -38.10        6.348E-4      -18.95        7.031E-4      -15.80        0.52856       174.29         
2632.2300     0.10046       -39.26        6.225E-4      -17.85        5.611E-4      -14.45        0.53121       174.85         
2635.2200     0.09774       -40.67        6.566E-4      -22.08        6.904E-4      -29.91        0.53297       175.51         
2638.2100     0.09578       -42.30        7.023E-4      -34.90        7.629E-4      -26.68        0.53369       176.21         
2641.2000     0.09404       -44.03        5.872E-4      -33.92        6.146E-4      -35.88        0.53312       176.89         
2644.1900     0.09265       -45.77        7.063E-4      -34.12        6.672E-4      -26.96        0.53158       177.55         
2647.1800     0.09175       -47.48        7.374E-4      -36.90        6.495E-4      -36.24        0.52914       178.08         
2650.1700     0.0911        -49.08        6.492E-4      -41.82        5.419E-4      -37.17        0.52592       178.50         
2653.1600     0.0905        -50.34        6.01E-4       -43.23        6.767E-4      -41.17        0.52226       178.73         
2656.1500     0.08995       -51.35        6.718E-4      -42.44        5.921E-4      -47.92        0.51828       178.81         
2659.1400     0.08922       -52.13        5.209E-4      -56.71        5.924E-4      -45.19        0.51436       178.66         
2662.1300     0.08809       -52.61        4.941E-4      -47.62        5.981E-4      -42.02        0.51077       178.37         
2665.1200     0.08668       -52.84        5.681E-4      -59.70        6.629E-4      -53.97        0.50772       177.86         
2668.1100     0.08463       -52.96        4.69E-4       -50.19        6.053E-4      -59.34        0.50586       177.23         
2671.1000     0.08203       -52.96        5.265E-4      -68.34        6.208E-4      -43.39        0.50495       176.53         
2674.0900     0.07905       -52.89        5.945E-4      -53.94        6.382E-4      -58.14        0.50518       175.77         
2677.0800     0.07566       -52.88        6.124E-4      -62.83        5.223E-4      -63.71        0.50662       175.08         
2680.0700     0.0718        -52.95        5.136E-4      -63.71        5.156E-4      -72.69        0.50934       174.45         
2683.0600     0.06774       -53.17        5.21E-4       -72.00        5.191E-4      -61.45        0.51288       173.98         
2686.0500     0.06374       -53.93        3.474E-4      -65.20        4.722E-4      -65.66        0.51705       173.66         
2689.0400     0.05959       -54.80        4.462E-4      -74.27        4.263E-4      -75.33        0.52142       173.54         
2692.0300     0.05531       -55.90        4.906E-4      -77.66        5.075E-4      -79.55        0.52571       173.62         
2695.0200     0.05138       -57.34        5.294E-4      -83.38        4.428E-4      -81.39        0.52952       173.87         
2698.0100     0.04773       -58.89        4.358E-4      -69.29        4.079E-4      -77.54        0.53272       174.25         
2701.0000     0.04447       -60.25        5.128E-4      -86.38        4.179E-4      -98.98        0.53484       174.76         
2703.9900     0.04144       -61.69        3.819E-4      -79.54        5.033E-4      -89.00        0.53627       175.33         
2706.9800     0.03871       -62.79        4.873E-4      -84.32        4.543E-4      -92.98        0.53639       175.93         
2709.9700     0.03582       -63.57        3.935E-4      -87.22        4.824E-4      -90.89        0.53572       176.51         
2712.9600     0.03285       -63.72        4.247E-4      -75.83        4.455E-4      -90.51        0.53414       177.03         
2715.9500     0.02982       -62.49        4.469E-4      -97.45        4.255E-4      -89.96        0.53169       177.46         
2718.9400     0.0265        -59.98        4.583E-4      -97.74        4.885E-4      -93.73        0.52856       177.73         
2721.9300     0.02292       -55.72        3.559E-4      -97.76        5.138E-4      -98.08        0.52504       177.86         
2724.9200     0.01938       -48.33        4.049E-4      -87.93        3.15E-4       -91.31        0.52125       177.80         
2727.9100     0.01625       -37.19        2.752E-4      -95.01        4.397E-4      -95.41        0.51755       177.55         
2730.9000     0.014         -20.26        3.675E-4      -95.32        3.576E-4      -98.69        0.51439       177.12         
2733.8900     0.01335       1.75          4.413E-4      -107.27       4.072E-4      -113.39       0.51213       176.53         
2736.8800     0.0147        22.73         3.915E-4      -93.50        4.565E-4      -108.30       0.51101       175.83         
2739.8700     0.01737       37.83         4.367E-4      -105.94       4.112E-4      -114.25       0.51107       175.08         
2742.8600     0.02063       47.90         3.676E-4      -110.08       3.594E-4      -109.42       0.51239       174.33         
2745.8500     0.02407       55.59         3.025E-4      -115.81       3.381E-4      -107.12       0.51504       173.65         
2748.8400     0.02776       61.28         3.59E-4       -116.04       4.471E-4      -116.96       0.5186        173.09         
2751.8300     0.03148       65.05         3.359E-4      -129.94       3.772E-4      -123.24       0.5229        172.68         
2754.8200     0.03494       67.59         3.194E-4      -120.80       3.278E-4      -110.50       0.52764       172.46         
2757.8100     0.03843       69.63         3.863E-4      -131.31       4.14E-4       -125.22       0.53231       172.44         
2760.8000     0.04208       71.00         3.825E-4      -134.63       3.979E-4      -118.74       0.5369        172.61         
2763.7900     0.04587       71.97         3.566E-4      -132.41       3.355E-4      -114.96       0.54105       172.94         
2766.7800     0.04979       72.24         3.835E-4      -113.01       4.09E-4       -127.03       0.54447       173.41         
2769.7700     0.05378       72.00         4.174E-4      -128.37       4.056E-4      -135.30       0.54702       174.00         
2772.7600     0.05812       71.34         4.089E-4      -145.60       3.244E-4      -139.77       0.54843       174.66         
2775.7500     0.06253       70.62         3.396E-4      -139.24       2.837E-4      -128.31       0.5489        175.37         
2778.7400     0.06712       69.75         3.32E-4       -123.81       3.465E-4      -141.58       0.54822       176.04         
2781.7300     0.07159       68.81         2.981E-4      -144.32       2.852E-4      -142.10       0.5463        176.69         
2784.7200     0.07608       68.13         2.745E-4      -139.14       3.786E-4      -129.00       0.54346       177.23         
2787.7100     0.08061       67.52         2.114E-4      -177.67       3.046E-4      -156.44       0.53989       177.61         
2790.7000     0.08521       67.14         2.868E-4      -134.97       3.653E-4      -138.64       0.53568       177.84         
2793.6900     0.08989       66.87         2.981E-4      -143.20       4.059E-4      -148.31       0.53118       177.88         
2796.6800     0.09461       66.53         3.419E-4      -151.38       3.622E-4      -145.79       0.52697       177.71         
2799.6700     0.09892       66.23         3.49E-4       -157.63       4.385E-4      -145.76       0.52323       177.35         
2802.6600     0.10314       65.90         3.649E-4      -165.86       3.446E-4      -133.85       0.52006       176.83         
2805.6500     0.10693       65.68         3.405E-4      -152.81       2.455E-4      -152.86       0.51815       176.18         
2808.6400     0.11068       65.42         4.058E-4      -167.13       3.078E-4      -167.92       0.51741       175.46         
2811.6300     0.114         65.14         3.082E-4      -164.82       3.279E-4      -148.56       0.51778       174.71         
2814.6200     0.11731       64.92         2.844E-4      -160.46       3.481E-4      -173.35       0.51923       174.02         
2817.6100     0.1205        64.62         2.355E-4      -170.44       3.391E-4      -146.89       0.5218        173.39         
2820.6000     0.12359       64.24         2.482E-4      -166.97       2.668E-4      -161.45       0.52506       172.89         
2823.5900     0.12672       63.86         2.773E-4      175.17        3.506E-4      -142.60       0.52901       172.53         
2826.5800     0.12959       63.52         2.221E-4      -165.90       3.848E-4      -171.76       0.53346       172.35         
2829.5700     0.1325        63.13         2.905E-4      179.83        2.677E-4      172.33        0.53755       172.36         
2832.5600     0.13545       62.75         2.512E-4      176.60        2.919E-4      -173.78       0.54154       172.53         
2835.5500     0.13826       62.63         1.471E-4      173.73        3.645E-4      -174.27       0.54503       172.86         
2838.5400     0.14132       62.46         2.418E-4      166.26        3.227E-4      166.98        0.54776       173.31         
2841.5300     0.14442       62.41         2.262E-4      -175.79       1.723E-4      168.44        0.54956       173.86         
2844.5200     0.14761       62.40         3.166E-4      173.66        2.721E-4      163.86        0.55024       174.45         
2847.5100     0.15083       62.44         2.175E-4      174.11        3.472E-4      173.69        0.54987       175.06         
2850.5000     0.15371       62.47         3.214E-4      176.88        3.649E-4      158.19        0.54846       175.60         
2853.4900     0.1561        62.53         2.219E-4      154.15        2.571E-4      157.72        0.54617       176.06         
2856.4800     0.15821       62.67         1.686E-4      174.55        2.107E-4      148.92        0.54333       176.42         
2859.4700     0.15986       62.86         2.406E-4      167.70        2.985E-4      139.40        0.54002       176.63         
2862.4600     0.16138       63.19         2.79E-4       170.87        2.896E-4      166.52        0.5365        176.69         
2865.4500     0.16293       63.56         2.23E-4       166.65        3.539E-4      177.24        0.533         176.58         
2868.4400     0.16432       63.97         2.56E-4       170.96        2.097E-4      174.18        0.52982       176.30         
2871.4300     0.16567       64.38         1.695E-4      165.84        2.073E-4      -179.51       0.52742       175.87         
2874.4200     0.16716       64.77         2.628E-4      173.61        3.101E-4      148.25        0.52566       175.32         
2877.4100     0.16897       65.15         2.679E-4      171.62        2.134E-4      -175.66       0.5245        174.70         
2880.4000     0.17069       65.55         1.885E-4      -177.14       1.369E-4      173.78        0.52472       174.02         
2883.3900     0.17227       66.03         2.297E-4      -176.38       2.603E-4      149.09        0.52564       173.35         
2886.3800     0.17414       66.66         2.739E-4      -173.32       2.723E-4      -179.09       0.52777       172.75         
2889.3700     0.17636       67.35         1.774E-4      168.75        2.31E-4       165.54        0.53059       172.20         
2892.3600     0.17904       68.12         1.996E-4      146.42        1.975E-4      159.68        0.53441       171.80         
2895.3500     0.18215       69.03         2.663E-4      146.54        1.76E-4       -174.75       0.53833       171.56         
2898.3400     0.18561       69.92         1.917E-4      -168.64       1.348E-4      -178.88       0.54231       171.49         
2901.3300     0.18899       70.85         2.964E-4      145.49        1.935E-4      156.54        0.54628       171.57         
2904.3200     0.19259       71.85         2.939E-4      169.30        2.73E-4       149.65        0.54948       171.80         
2907.3100     0.19636       72.96         3.096E-4      161.03        1.685E-4      160.41        0.55204       172.14         
2910.3000     0.20013       73.97         3.562E-4      149.43        2.792E-4      150.98        0.55411       172.59         
2913.2900     0.204         74.96         2.841E-4      162.87        3.361E-4      172.57        0.55516       173.07         
2916.2800     0.20785       75.81         3.164E-4      149.16        2.842E-4      145.26        0.55536       173.58         
2919.2700     0.21176       76.56         3.477E-4      163.40        1.761E-4      160.13        0.55452       174.08         
2922.2600     0.21547       77.23         3.402E-4      171.22        3.738E-4      159.61        0.55354       174.55         
2925.2500     0.21889       77.80         3.137E-4      156.11        3.749E-4      136.21        0.55161       174.92         
2928.2400     0.22239       78.34         3.196E-4      151.60        3.698E-4      147.53        0.54937       175.20         
2931.2300     0.2262        78.84         3.077E-4      164.59        4.174E-4      156.17        0.54643       175.34         
2934.2200     0.23023       79.21         3.665E-4      153.94        2.774E-4      149.64        0.54352       175.34         
2937.2100     0.23474       79.55         3.645E-4      132.98        3.371E-4      147.52        0.54064       175.18         
2940.2000     0.23958       79.81         3.232E-4      131.83        2.31E-4       136.58        0.53813       174.89         
2943.1900     0.24469       79.97         3.977E-4      133.32        3.071E-4      149.64        0.53622       174.48         
2946.1800     0.24997       80.12         3.753E-4      140.35        3.978E-4      130.98        0.53517       173.95         
2949.1700     0.25538       80.35         3.817E-4      147.98        2.874E-4      130.33        0.53498       173.36         
2952.1600     0.26112       80.63         3.784E-4      144.46        3.846E-4      128.28        0.53577       172.77         
2955.1500     0.26711       80.91         3.644E-4      131.64        4.225E-4      123.27        0.53738       172.22         
2958.1400     0.27315       81.23         4.329E-4      113.42        4.233E-4      119.57        0.53973       171.73         
2961.1300     0.27915       81.55         4.36E-4       107.80        3.918E-4      134.89        0.54299       171.35         
2964.1200     0.28478       81.88         3.53E-4       105.00        3.621E-4      123.74        0.5464        171.10         
2967.1100     0.28991       82.27         3.54E-4       97.41         4.034E-4      124.57        0.55012       171.02         
2970.1000     0.29457       82.60         4.798E-4      100.17        3.804E-4      112.83        0.5536        171.07         
2973.0900     0.29877       82.98         3.961E-4      100.77        3.727E-4      97.59         0.55688       171.27         
2976.0800     0.30251       83.30         4.838E-4      99.70         4.401E-4      102.05        0.55958       171.62         
2979.0700     0.30585       83.63         4.583E-4      118.88        3.596E-4      107.18        0.56188       172.06         
2982.0600     0.30885       83.88         4.031E-4      100.29        4.418E-4      109.41        0.56346       172.61         
2985.0500     0.31178       84.06         4.111E-4      102.13        3.659E-4      83.00         0.5639        173.19         
2988.0400     0.31467       84.17         4.01E-4       89.39         3.576E-4      88.75         0.56356       173.77         
2991.0300     0.31735       84.16         4.405E-4      100.56        4.709E-4      80.55         0.56228       174.32         
2994.0200     0.32014       84.12         4.211E-4      85.51         3.712E-4      103.26        0.56023       174.78         
2997.0100     0.32302       84.03         3.578E-4      95.22         4.076E-4      90.41         0.55741       175.13         
3000.0000     0.32587       83.97         3.736E-4      85.21         3.528E-4      77.42         0.5538        175.29         
