!    08/05/2026   14:18:39 
! Ref Plane: 0.000 mm
# MHZ S MA R  50
!
10.0000       0.99777       -178.87       1.789E-4      -59.78        2.117E-5      -21.63        0.80182       -2.47          
12.9900       0.99871       -178.57       4.424E-5      144.62        2.31E-5       104.71        0.80008       -2.78          
15.9800       0.99962       -178.28       1.627E-4      7.08          1.131E-4      73.38         0.79812       -3.56          
18.9700       1.0005        -177.99       1.752E-4      36.63         1.659E-4      37.35         0.79037       -4.11          
21.9600       1.00138       -177.69       1.173E-4      18.37         2.084E-4      6.91          0.78604       -3.97          
24.9500       1.00215       -177.39       1.73E-4       -28.06        9.593E-5      26.03         0.79627       -4.18          
27.9400       1.00275       -177.10       7.678E-5      -169.70       9.306E-5      -0.58         0.80335       -5.32          
30.9300       1.00307       -176.81       8.898E-5      -7.18         7.238E-5      -37.55        0.8024        -6.49          
33.9200       1.00324       -176.52       1.813E-5      -116.54       3.71E-5       -10.83        0.80046       -7.45          
36.9100       1.003         -176.22       9.91E-5       -29.56        5.953E-5      -49.93        0.79889       -8.33          
39.9000       1.0025        -175.94       3.21E-5       -70.57        6.953E-5      4.00          0.79725       -9.23          
42.8900       1.00205       -175.65       1.561E-5      -158.89       1.17E-4       43.02         0.79505       -10.10         
45.8800       1.00141       -175.37       1.529E-4      24.34         1.166E-4      64.65         0.79187       -10.90         
48.8700       1.00062       -175.04       2.474E-4      21.43         1.718E-4      3.67          0.7871        -11.50         
51.8600       0.99972       -174.80       8.023E-5      -19.48        1.056E-4      -5.75         0.78174       -11.98         
54.8500       1.00028       -174.60       5.69E-5       -90.83        6.836E-5      34.13         0.78352       -11.98         
57.8400       0.99886       -174.22       1.018E-4      -118.77       7.902E-5      -23.08        0.78897       -12.54         
60.8300       0.9987        -173.93       5.904E-5      -48.02        7.379E-5      -167.66       0.79042       -13.27         
63.8200       0.99864       -173.63       9.442E-5      -142.82       5.006E-5      -16.77        0.78965       -13.94         
66.8100       0.99892       -173.32       7.852E-5      -48.87        4.629E-5      90.92         0.78765       -14.58         
69.8000       0.99961       -173.01       2.627E-5      166.08        6.244E-5      -72.02        0.78453       -15.20         
72.7900       1.00048       -172.70       1.271E-4      162.24        3.646E-5      -6.48         0.77878       -15.75         
75.7800       1.00127       -172.37       1.282E-5      -101.50       2.082E-5      -85.58        0.77233       -15.86         
78.7700       1.00217       -172.03       1.001E-4      92.00         4.077E-5      161.13        0.77629       -15.96         
81.7600       1.00306       -171.71       1.37E-4       123.98        1.06E-4       73.07         0.7784        -16.74         
84.7500       1.00389       -171.41       9.618E-5      94.09         1.48E-4       81.76         0.7757        -17.55         
87.7400       1.00457       -171.11       1.673E-4      65.43         1.499E-4      16.08         0.77166       -18.27         
90.7300       1.00517       -170.81       1.377E-4      12.33         1.811E-4      17.92         0.76654       -18.97         
93.7200       1.00596       -170.45       1.743E-4      5.99          1.879E-4      15.82         0.76092       -19.52         
96.7100       1.00561       -170.20       1.339E-4      -13.57        8.621E-5      17.20         0.75527       -19.92         
99.7000       1.00549       -169.91       8.82E-5       -57.50        4.334E-5      -16.52        0.75347       -20.01         
102.6900      1.00478       -169.63       1.039E-4      -150.10       3.464E-5      -167.98       0.75858       -20.31         
105.6800      1.00421       -169.36       7.493E-5      162.54        8.195E-5      176.86        0.76463       -21.09         
108.6700      1.00346       -169.09       3.06E-5       -159.86       8.612E-5      108.19        0.76776       -22.06         
111.6600      1.00263       -168.81       1.797E-5      71.08         6.865E-5      139.64        0.7689        -23.03         
114.6500      1.00161       -168.50       8.62E-5       92.40         3.266E-5      99.54         0.76885       -23.93         
117.6400      1.00083       -168.23       1.035E-4      74.05         1.432E-4      107.67        0.76793       -24.75         
120.6300      1.00046       -167.94       6.566E-5      37.90         2.149E-5      64.76         0.76687       -25.44         
123.6200      1.00031       -167.64       4.855E-5      79.24         5.545E-5      -117.48       0.76564       -26.07         
126.6100      1.00003       -167.32       3.597E-5      -34.54        8.262E-5      11.91         0.76441       -26.64         
129.6000      1.00018       -166.99       3.833E-5      -157.91       8.087E-5      -104.59       0.76313       -27.16         
132.5900      1.00033       -166.67       7.073E-6      42.33         6.456E-5      -117.58       0.76205       -27.65         
135.5800      1.00092       -166.33       6.641E-5      161.60        1.266E-4      160.50        0.76105       -28.13         
138.5700      1.0015        -166.01       9.339E-5      151.47        9.614E-5      135.75        0.76001       -28.62         
141.5600      1.00243       -165.71       4.039E-5      156.80        1.036E-4      154.05        0.75857       -29.09         
144.5500      1.00356       -165.42       5.04E-5       128.53        1.515E-4      137.30        0.7568        -29.59         
147.5400      1.00467       -165.10       1.503E-4      151.09        5.936E-5      136.35        0.75462       -30.12         
150.5300      1.00561       -164.79       1.012E-4      130.91        1.453E-4      130.36        0.75185       -30.69         
153.5200      1.00632       -164.47       2.073E-4      101.90        1.113E-4      109.04        0.74857       -31.28         
156.5100      1.00656       -164.16       1.874E-4      90.58         1.734E-4      77.90         0.74503       -31.88         
159.5000      1.00685       -163.87       1.874E-4      87.59         2.255E-4      95.95         0.74139       -32.49         
162.4900      1.00673       -163.61       1.91E-4       88.48         1.813E-4      68.73         0.73769       -33.08         
165.4800      1.0063        -163.34       2.087E-4      60.64         1.26E-4       48.67         0.73455       -33.68         
168.4700      1.00564       -163.05       2.756E-4      64.85         2.457E-4      45.56         0.73194       -34.24         
171.4600      1.00494       -162.77       1.335E-4      38.38         1.376E-4      31.96         0.73038       -34.76         
174.4500      1.00421       -162.48       1.701E-4      46.17         1.602E-4      23.59         0.73041       -35.30         
177.4400      1.00306       -162.19       8.324E-5      27.06         1.004E-4      23.71         0.73117       -35.90         
180.4300      1.00201       -161.91       1.833E-4      27.85         1.487E-4      22.65         0.73188       -36.55         
183.4200      1.00091       -161.61       8.209E-5      33.00         1.405E-4      34.25         0.73194       -37.24         
186.4100      1.00005       -161.32       9.081E-5      56.57         9.414E-5      54.48         0.7315        -37.88         
189.4000      0.99936       -161.02       4.642E-5      71.99         1.577E-4      58.88         0.7311        -38.47         
192.3900      0.99894       -160.71       1.824E-4      42.19         2.038E-4      28.75         0.73095       -39.03         
195.3800      0.99925       -160.43       1.493E-4      28.00         2.042E-4      7.39          0.73058       -39.57         
198.3700      0.9999        -160.13       2.045E-4      18.57         1.829E-4      20.19         0.73016       -40.08         
201.3600      1.00086       -159.83       1.924E-4      17.45         1.881E-4      -7.34         0.72961       -40.56         
204.3500      1.00207       -159.51       1.805E-4      -9.52         1.723E-4      -7.55         0.7285        -41.01         
207.3400      1.00314       -159.16       2.122E-4      -27.26        1.633E-4      3.25          0.72694       -41.47         
210.3300      1.00446       -158.82       1.887E-4      -5.65         1.996E-4      -25.74        0.72493       -41.96         
213.3200      1.00507       -158.50       2.444E-4      -25.83        2.71E-4       -17.16        0.7229        -42.49         
216.3100      1.00578       -158.19       1.983E-4      -34.99        2.516E-4      -39.15        0.72082       -43.04         
219.3000      1.00648       -157.91       3.104E-4      -67.29        3.803E-4      -65.42        0.71853       -43.61         
222.2900      1.00708       -157.60       2.87E-4       -82.23        3.607E-4      -67.36        0.71621       -44.24         
225.2800      1.00768       -157.25       2.145E-4      -94.80        3.322E-4      -65.34        0.71608       -44.54         
228.2700      1.00746       -156.90       2.49E-4       -91.27        1.715E-4      -104.20       0.71403       -45.24         
231.2600      1.00661       -156.59       1.797E-4      -99.75        2.20E-4       -86.92        0.71197       -45.99         
234.2500      1.00557       -156.28       1.882E-4      -96.45        2.098E-4      -80.05        0.70946       -46.77         
237.2400      1.00435       -155.98       1.506E-4      -102.40       1.549E-4      -87.10        0.70693       -47.57         
240.2300      1.00269       -155.69       2.051E-4      -78.91        1.095E-4      -72.90        0.7046        -48.37         
243.2200      1.00126       -155.40       1.612E-4      -93.23        2.354E-4      -101.67       0.70234       -49.18         
246.2100      1.00002       -155.12       1.984E-4      -130.00       1.694E-4      -132.79       0.70001       -49.98         
249.2000      0.99914       -154.83       1.716E-4      -119.24       1.948E-4      -133.23       0.69779       -50.75         
252.1900      0.99886       -154.55       1.696E-4      -129.52       2.471E-4      -116.68       0.69563       -51.46         
255.1800      0.99858       -154.27       1.868E-4      -112.10       1.848E-4      -126.00       0.6935        -52.13         
258.1700      0.99902       -153.97       1.575E-4      -155.01       1.967E-4      -120.08       0.6914        -52.73         
261.1600      0.99966       -153.65       1.37E-4       -127.39       1.261E-4      -108.56       0.68895       -53.25         
264.1500      1.00054       -153.32       1.311E-4      -116.78       1.367E-4      -126.15       0.68632       -53.71         
267.1400      1.00133       -153.00       2.068E-4      -121.84       1.094E-4      -77.10        0.68352       -54.14         
270.1300      1.00232       -152.71       2.081E-4      -112.23       2.279E-4      -108.52       0.68089       -54.54         
273.1200      1.00418       -152.43       2.00E-4       -115.21       1.492E-4      -124.54       0.67839       -54.94         
276.1100      1.00612       -152.12       2.405E-4      -135.11       2.711E-4      -117.20       0.67618       -55.33         
279.1000      1.00775       -151.78       2.476E-4      -129.93       3.014E-4      -140.02       0.67409       -55.71         
282.0900      1.00837       -151.40       2.822E-4      -140.80       2.857E-4      -125.46       0.67198       -56.10         
285.0800      1.0082        -151.03       2.533E-4      -147.57       2.161E-4      -139.32       0.66992       -56.54         
288.0700      1.00784       -150.65       3.227E-4      -138.48       3.124E-4      -150.77       0.6673        -57.02         
291.0600      1.007         -150.31       2.638E-4      -151.25       2.997E-4      -158.04       0.66474       -57.56         
294.0500      1.0059        -150.00       2.789E-4      -150.94       3.452E-4      -149.86       0.66205       -58.14         
297.0400      1.00441       -149.68       4.196E-4      -155.63       3.208E-4      -156.36       0.65927       -58.77         
300.0300      1.00279       -149.37       3.001E-4      -163.28       3.754E-4      -162.76       0.65663       -59.41         
303.0200      1.00133       -149.07       3.394E-4      -171.64       2.997E-4      -156.51       0.65406       -60.09         
306.0100      0.99983       -148.78       3.793E-4      -178.51       3.572E-4      -156.57       0.65157       -60.79         
309.0000      0.99875       -148.49       2.975E-4      179.48        2.937E-4      -178.55       0.6493        -61.48         
311.9900      0.99782       -148.22       3.137E-4      173.15        2.731E-4      179.79        0.64716       -62.14         
314.9800      0.99698       -147.92       3.773E-4      -179.46       3.566E-4      172.05        0.64514       -62.78         
317.9700      0.99643       -147.64       3.315E-4      167.26        3.913E-4      153.34        0.64296       -63.38         
320.9600      0.99632       -147.36       3.014E-4      158.31        3.354E-4      160.56        0.64094       -63.96         
323.9500      0.99693       -147.08       2.483E-4      158.26        4.366E-4      160.12        0.639         -64.49         
326.9400      0.99835       -146.79       2.814E-4      147.29        2.818E-4      163.53        0.63702       -65.00         
329.9300      1.00026       -146.48       2.70E-4       141.71        2.586E-4      151.52        0.63519       -65.48         
332.9200      1.00218       -146.12       2.111E-4      148.04        3.945E-4      145.92        0.63365       -65.92         
335.9100      1.00394       -145.72       2.529E-4      132.73        2.599E-4      132.31        0.63255       -66.32         
338.9000      1.00522       -145.30       3.606E-4      123.98        2.427E-4      103.28        0.63133       -66.70         
341.8900      1.00594       -144.89       2.572E-4      133.35        2.071E-4      121.78        0.63012       -67.08         
344.8800      1.00635       -144.50       2.936E-4      92.32         1.854E-4      97.56         0.62833       -67.47         
347.8700      1.00646       -144.14       1.093E-4      81.43         8.748E-5      44.56         0.62671       -67.85         
350.8600      1.00623       -143.78       6.642E-5      -111.58       1.697E-5      122.35        0.62534       -68.31         
353.8500      1.0059        -143.43       4.018E-5      120.06        7.594E-5      8.26          0.62391       -68.83         
356.8400      1.00487       -143.10       1.175E-4      169.63        8.359E-5      -136.42       0.62246       -69.39         
359.8300      1.00369       -142.78       7.346E-5      -165.53       1.034E-4      149.64        0.62092       -70.01         
362.8200      1.00233       -142.47       1.103E-4      156.77        1.644E-4      108.35        0.61953       -70.66         
365.8100      1.00088       -142.17       1.65E-4       148.60        1.482E-4      138.48        0.61822       -71.34         
368.8000      0.99894       -141.89       1.914E-4      111.79        1.371E-4      129.29        0.61681       -72.06         
371.7900      0.99724       -141.64       1.427E-4      68.23         2.747E-4      96.09         0.61528       -72.79         
374.7800      0.99638       -141.39       1.179E-4      33.21         1.601E-4      74.40         0.61377       -73.55         
377.7700      0.99576       -141.16       2.067E-4      30.39         1.871E-4      33.03         0.61221       -74.33         
380.7600      0.99631       -140.88       1.838E-4      21.07         1.604E-4      16.06         0.61109       -75.12         
383.7500      0.99696       -140.58       1.317E-4      -26.49        1.108E-4      -20.81        0.60994       -75.92         
386.7400      0.99808       -140.27       2.611E-4      -57.14        1.784E-4      -57.66        0.60883       -76.69         
389.7300      0.9994        -139.92       2.233E-4      -85.08        1.277E-4      -117.16       0.60783       -77.42         
392.7200      1.00051       -139.52       1.696E-4      -82.26        2.577E-4      -92.28        0.60676       -78.13         
395.7100      1.00121       -139.12       2.817E-4      -122.76       3.119E-4      -147.59       0.60561       -78.77         
398.7000      1.00185       -138.72       2.058E-4      -137.55       1.655E-4      -114.22       0.60423       -79.35         
401.6900      1.00239       -138.34       1.703E-4      -168.04       1.604E-4      -160.43       0.6026        -79.91         
404.6800      1.0031        -137.95       2.029E-4      166.19        2.66E-4       -176.32       0.60053       -80.43         
407.6700      1.00376       -137.55       2.001E-4      165.13        1.437E-4      -173.65       0.59827       -80.96         
410.6600      1.00422       -137.16       1.654E-4      153.66        2.106E-4      127.15        0.5956        -81.45         
413.6500      1.00408       -136.79       1.642E-4      170.74        2.935E-4      148.78        0.593         -81.95         
416.6400      1.0032        -136.43       1.851E-4      162.96        1.083E-4      124.67        0.59041       -82.44         
419.6300      1.00181       -136.10       2.839E-4      141.52        2.716E-4      131.54        0.58791       -82.95         
422.6200      0.9997        -135.78       2.859E-4      150.28        3.083E-4      149.18        0.58517       -83.46         
425.6100      0.99769       -135.50       3.189E-4      137.38        2.617E-4      135.20        0.58226       -84.03         
428.6000      0.9959        -135.24       3.006E-4      125.81        3.207E-4      111.37        0.57887       -84.63         
431.5900      0.99459       -134.98       3.212E-4      125.92        3.698E-4      118.35        0.57528       -85.28         
434.5800      0.99423       -134.72       2.915E-4      103.51        3.532E-4      135.77        0.57155       -86.00         
437.5700      0.99422       -134.44       3.562E-4      103.32        3.964E-4      87.13         0.56763       -86.75         
440.5600      0.9942        -134.15       3.781E-4      103.24        3.615E-4      124.60        0.56416       -87.53         
443.5500      0.99429       -133.84       4.063E-4      93.00         3.373E-4      103.74        0.5609        -88.32         
446.5400      0.99431       -133.50       4.908E-4      84.66         4.236E-4      95.22         0.55797       -89.09         
449.5300      0.99451       -133.16       4.581E-4      85.01         5.267E-4      96.60         0.55529       -89.83         
452.5200      0.99467       -132.81       5.075E-4      82.42         4.67E-4       80.69         0.55271       -90.54         
455.5100      0.99507       -132.45       5.789E-4      78.96         6.634E-4      73.92         0.55046       -91.21         
458.5000      0.99575       -132.09       5.644E-4      73.85         6.174E-4      69.70         0.54829       -91.83         
461.4900      0.99693       -131.70       6.835E-4      58.85         6.617E-4      61.31         0.54603       -92.39         
464.4800      0.99833       -131.29       7.494E-4      57.54         7.152E-4      58.98         0.5441        -92.92         
467.4700      0.99921       -130.85       6.76E-4       45.45         7.829E-4      43.47         0.54214       -93.43         
470.4600      0.99944       -130.42       6.569E-4      50.70         7.632E-4      50.44         0.54027       -93.88         
473.4500      0.99898       -130.00       7.102E-4      36.01         6.384E-4      44.35         0.53861       -94.29         
476.4400      0.99831       -129.63       6.855E-4      29.66         7.655E-4      36.48         0.53689       -94.65         
479.4300      0.99773       -129.30       6.826E-4      22.39         7.55E-4       25.67         0.53505       -94.98         
482.4200      0.99697       -129.01       7.264E-4      18.34         6.702E-4      16.10         0.53278       -95.28         
485.4100      0.9965        -128.73       7.168E-4      17.40         6.372E-4      13.01         0.53005       -95.59         
488.4000      0.99614       -128.45       7.342E-4      11.47         6.771E-4      10.21         0.52692       -95.95         
491.3900      0.99591       -128.17       6.847E-4      7.06          7.341E-4      9.84          0.52342       -96.36         
494.3800      0.99538       -127.88       6.795E-4      1.40          6.721E-4      -8.50         0.51963       -96.83         
497.3700      0.99442       -127.57       6.353E-4      -8.07         7.139E-4      -6.19         0.51587       -97.39         
500.3600      0.99321       -127.27       6.459E-4      -9.66         6.389E-4      -19.76        0.51216       -98.01         
503.3500      0.99199       -126.97       6.245E-4      -16.24        6.979E-4      -22.66        0.50863       -98.69         
506.3400      0.99071       -126.68       6.07E-4       -26.26        6.742E-4      -16.93        0.50512       -99.43         
509.3300      0.98985       -126.38       6.379E-4      -32.05        6.795E-4      -24.90        0.50165       -100.21        
512.3200      0.98951       -126.06       5.601E-4      -29.79        6.811E-4      -23.79        0.4985        -101.04        
515.3100      0.98971       -125.72       6.443E-4      -38.06        6.438E-4      -34.32        0.49556       -101.93        
518.3000      0.99018       -125.33       5.993E-4      -38.32        6.234E-4      -40.66        0.49289       -102.83        
521.2900      0.99036       -124.92       6.546E-4      -46.16        6.833E-4      -54.10        0.49086       -103.76        
524.2800      0.99017       -124.49       5.896E-4      -50.81        5.928E-4      -48.08        0.48938       -104.71        
527.2700      0.98998       -124.08       5.892E-4      -56.31        6.656E-4      -43.55        0.48843       -105.65        
530.2600      0.98967       -123.70       6.002E-4      -57.93        6.579E-4      -49.94        0.4881        -106.52        
533.2500      0.98994       -123.34       6.045E-4      -59.07        5.225E-4      -55.41        0.48811       -107.32        
536.2400      0.99026       -123.01       5.909E-4      -62.93        6.846E-4      -52.28        0.48847       -108.05        
539.2300      0.991         -122.69       6.228E-4      -64.61        5.578E-4      -68.51        0.48873       -108.70        
542.2200      0.9918        -122.38       6.071E-4      -64.73        5.868E-4      -67.22        0.48886       -109.28        
545.2100      0.99228       -122.05       6.532E-4      -72.55        5.998E-4      -67.83        0.48875       -109.81        
548.2000      0.99239       -121.72       6.658E-4      -74.91        6.89E-4       -83.79        0.48825       -110.31        
551.1900      0.9919        -121.40       6.494E-4      -74.65        6.87E-4       -83.95        0.48746       -110.79        
554.1800      0.99045       -121.07       6.937E-4      -80.71        6.815E-4      -78.60        0.48638       -111.25        
557.1700      0.98861       -120.76       7.615E-4      -87.03        8.782E-4      -88.16        0.48511       -111.69        
560.1600      0.98642       -120.48       7.926E-4      -91.32        7.502E-4      -95.98        0.48342       -112.12        
563.1500      0.98423       -120.20       7.659E-4      -103.81       7.98E-4       -102.21       0.48147       -112.54        
566.1400      0.98265       -119.89       8.246E-4      -111.38       8.275E-4      -103.63       0.47909       -112.96        
569.1300      0.98131       -119.54       8.065E-4      -118.57       9.722E-4      -108.59       0.47634       -113.43        
572.1200      0.98033       -119.17       8.412E-4      -126.17       8.198E-4      -124.18       0.47338       -113.94        
575.1100      0.97964       -118.79       7.891E-4      -136.91       8.978E-4      -129.12       0.47014       -114.51        
578.1000      0.979         -118.42       7.622E-4      -133.11       7.599E-4      -142.89       0.46689       -115.13        
581.0900      0.97818       -118.07       7.452E-4      -148.83       7.652E-4      -147.40       0.46405       -115.81        
584.0800      0.97761       -117.75       7.233E-4      -150.91       6.644E-4      -146.86       0.46136       -116.53        
587.0700      0.97774       -117.46       7.116E-4      -164.31       6.548E-4      -164.06       0.45911       -117.28        
590.0600      0.97832       -117.17       6.613E-4      -164.52       7.409E-4      -166.93       0.45721       -118.00        
593.0500      0.97933       -116.87       6.789E-4      -169.83       7.772E-4      -166.93       0.45558       -118.72        
596.0400      0.98064       -116.56       7.996E-4      -175.93       7.24E-4       -171.67       0.45424       -119.40        
599.0300      0.98225       -116.21       6.955E-4      -177.96       7.871E-4      175.28        0.45303       -120.07        
602.0200      0.98324       -115.86       7.262E-4      169.31        7.765E-4      175.34        0.45194       -120.70        
605.0100      0.98377       -115.51       8.589E-4      167.01        8.509E-4      168.53        0.45095       -121.29        
608.0000      0.98376       -115.17       8.816E-4      158.94        9.445E-4      162.90        0.44997       -121.88        
610.9900      0.9831        -114.86       9.799E-4      151.40        8.272E-4      155.67        0.44906       -122.43        
613.9800      0.98178       -114.58       9.759E-4      145.18        1.038E-3      150.01        0.44812       -122.93        
616.9700      0.98034       -114.32       1.004E-3      136.66        1.072E-3      138.27        0.44712       -123.41        
619.9600      0.97858       -114.07       1.063E-3      127.51        1.012E-3      135.10        0.4459        -123.85        
622.9500      0.97654       -113.81       1.141E-3      119.30        1.056E-3      123.30        0.44427       -124.26        
625.9400      0.97406       -113.54       1.077E-3      112.82        1.043E-3      114.59        0.44225       -124.69        
628.9300      0.97137       -113.28       1.189E-3      99.10         9.82E-4       102.97        0.43972       -125.14        
631.9200      0.96818       -113.04       1.076E-3      95.81         1.131E-3      95.06         0.437         -125.61        
634.9100      0.9649        -112.81       1.141E-3      84.51         1.087E-3      93.00         0.43402       -126.14        
637.9000      0.9618        -112.62       1.029E-3      78.88         9.889E-4      84.12         0.43105       -126.72        
640.8900      0.95927       -112.43       1.026E-3      74.74         1.08E-3       76.03         0.42823       -127.34        
643.8800      0.95756       -112.25       1.022E-3      64.56         1.004E-3      59.79         0.42548       -128.01        
646.8700      0.95618       -112.04       9.786E-4      63.56         1.02E-3       59.41         0.42288       -128.72        
649.8600      0.95541       -111.83       1.077E-3      55.98         1.144E-3      61.75         0.42045       -129.45        
652.8500      0.95427       -111.58       1.164E-3      45.98         1.175E-3      47.51         0.41837       -130.17        
655.8400      0.95347       -111.28       1.177E-3      34.22         1.154E-3      36.74         0.41655       -130.92        
658.8300      0.95259       -110.96       1.105E-3      29.98         1.06E-3       26.29         0.41497       -131.67        
661.8200      0.95151       -110.64       1.069E-3      20.69         1.095E-3      19.35         0.41383       -132.40        
664.8100      0.9502        -110.32       1.076E-3      13.46         1.027E-3      10.30         0.41282       -133.12        
667.8000      0.94835       -110.00       1.151E-3      6.06          9.738E-4      2.54          0.41213       -133.81        
670.7900      0.9463        -109.67       1.114E-3      0.21          1.152E-3      -3.02         0.41159       -134.47        
673.7800      0.94387       -109.32       1.181E-3      -7.31         1.145E-3      -9.08         0.41121       -135.07        
676.7700      0.94098       -108.96       1.162E-3      -21.74        1.161E-3      -18.88        0.41084       -135.61        
679.7600      0.93784       -108.58       1.207E-3      -25.01        1.158E-3      -30.08        0.41019       -136.09        
682.7500      0.93463       -108.21       1.209E-3      -36.33        1.174E-3      -35.23        0.40919       -136.56        
685.7400      0.93176       -107.87       1.113E-3      -44.10        1.193E-3      -45.51        0.40799       -137.01        
688.7300      0.93049       -107.64       1.006E-3      -45.71        1.01E-3       -48.31        0.40641       -137.47        
691.7200      0.92653       -107.83       1.269E-3      -34.94        1.253E-3      -34.64        0.40457       -137.94        
694.7100      0.91568       -107.70       1.70E-3       -52.53        1.633E-3      -51.00        0.40241       -138.45        
697.7000      0.90959       -107.35       1.745E-3      -65.48        1.82E-3       -67.68        0.39999       -139.00        
700.6900      0.90582       -107.05       1.763E-3      -78.23        1.793E-3      -74.59        0.39756       -139.59        
703.6800      0.90308       -106.79       1.752E-3      -89.04        1.726E-3      -89.80        0.39495       -140.23        
706.6700      0.901         -106.54       1.747E-3      -99.91        1.733E-3      -100.02       0.39231       -140.92        
709.6600      0.89932       -106.30       1.758E-3      -106.09       1.74E-3       -109.77       0.38972       -141.65        
712.6500      0.8977        -106.08       1.758E-3      -113.99       1.606E-3      -115.88       0.38737       -142.42        
715.6400      0.89631       -105.89       1.714E-3      -121.19       1.704E-3      -122.41       0.3852        -143.21        
718.6300      0.89499       -105.68       1.674E-3      -128.02       1.69E-3       -128.22       0.38357       -144.05        
721.6200      0.89372       -105.47       1.667E-3      -138.12       1.65E-3       -140.25       0.38231       -144.91        
724.6100      0.89203       -105.25       1.617E-3      -142.79       1.603E-3      -142.08       0.38155       -145.73        
727.6000      0.88988       -105.00       1.608E-3      -150.19       1.591E-3      -147.86       0.38125       -146.52        
730.5900      0.88671       -104.75       1.537E-3      -157.96       1.577E-3      -155.85       0.38127       -147.25        
733.5800      0.88274       -104.52       1.55E-3       -160.21       1.532E-3      -162.54       0.38152       -147.91        
736.5700      0.87727       -104.26       1.472E-3      -166.50       1.51E-3       -163.98       0.38187       -148.47        
739.5600      0.87076       -104.01       1.445E-3      -167.90       1.394E-3      -171.00       0.38212       -149.00        
742.5500      0.86319       -103.77       1.357E-3      -173.55       1.371E-3      -175.71       0.38229       -149.44        
745.5400      0.85489       -103.54       1.38E-3       -175.80       1.499E-3      -173.77       0.38215       -149.84        
748.5300      0.84581       -103.30       1.356E-3      -179.03       1.389E-3      176.15        0.38179       -150.19        
751.5200      0.83715       -103.02       1.467E-3      175.36        1.41E-3       176.33        0.38108       -150.51        
754.5100      0.82838       -102.70       1.546E-3      170.53        1.631E-3      168.57        0.38003       -150.80        
757.5000      0.82051       -102.42       1.632E-3      164.17        1.643E-3      163.58        0.37858       -151.10        
760.4900      0.8117        -102.22       1.627E-3      156.68        1.651E-3      156.91        0.37662       -151.43        
763.4800      0.80165       -101.89       1.575E-3      150.57        1.626E-3      151.69        0.37424       -151.81        
766.4700      0.79276       -101.45       1.687E-3      145.20        1.707E-3      143.84        0.37136       -152.24        
769.4600      0.78554       -100.97       1.756E-3      139.01        1.687E-3      140.99        0.36836       -152.76        
772.4500      0.78006       -100.44       1.818E-3      132.56        1.781E-3      131.19        0.3653        -153.36        
775.4400      0.77602       -99.89        1.799E-3      125.73        1.87E-3       122.87        0.3623        -154.05        
778.4300      0.77316       -99.33        1.863E-3      117.65        1.908E-3      116.20        0.35956       -154.84        
781.4200      0.77123       -98.78        1.911E-3      110.30        1.895E-3      111.55        0.35735       -155.69        
784.4100      0.76954       -98.23        2.012E-3      101.86        1.985E-3      103.58        0.3554        -156.59        
787.4000      0.76777       -97.69        2.039E-3      94.34         1.982E-3      93.59         0.35398       -157.50        
790.3900      0.76551       -97.21        2.013E-3      86.48         1.989E-3      87.80         0.35298       -158.40        
793.3800      0.76283       -96.75        1.968E-3      79.74         1.94E-3       83.19         0.35238       -159.30        
796.3700      0.75951       -96.32        2.033E-3      73.45         1.93E-3       73.94         0.35231       -160.15        
799.3600      0.75578       -95.92        2.008E-3      65.88         2.027E-3      66.10         0.35258       -160.96        
802.3500      0.75135       -95.55        2.015E-3      57.84         1.949E-3      57.25         0.35299       -161.68        
805.3400      0.74623       -95.20        2.116E-3      52.18         2.096E-3      51.40         0.35372       -162.34        
808.3300      0.74016       -94.87        2.031E-3      44.17         2.027E-3      44.30         0.35454       -162.87        
811.3200      0.73305       -94.55        2.058E-3      37.44         2.055E-3      35.83         0.35522       -163.33        
814.3100      0.72535       -94.26        2.072E-3      27.98         2.103E-3      25.39         0.35574       -163.70        
817.3000      0.71705       -93.99        2.073E-3      19.03         2.062E-3      19.61         0.3557        -164.00        
820.2900      0.70839       -93.74        2.144E-3      10.19         2.038E-3      11.00         0.35525       -164.26        
823.2800      0.69951       -93.51        2.058E-3      1.78          2.172E-3      3.69          0.35416       -164.52        
826.2700      0.69078       -93.25        2.039E-3      -7.85         2.127E-3      -8.29         0.35251       -164.79        
829.2600      0.68188       -92.94        2.082E-3      -17.78        2.118E-3      -16.45        0.35051       -165.10        
832.2500      0.67311       -92.52        2.049E-3      -28.51        2.086E-3      -24.98        0.34823       -165.46        
835.2400      0.66468       -92.00        2.018E-3      -39.33        2.042E-3      -36.46        0.34565       -165.88        
838.2300      0.65663       -91.35        2.012E-3      -49.50        2.021E-3      -47.95        0.34297       -166.41        
841.2200      0.64948       -90.53        2.009E-3      -59.19        2.065E-3      -58.17        0.34017       -167.01        
844.2100      0.64333       -89.62        2.019E-3      -69.06        1.924E-3      -67.84        0.33747       -167.68        
847.2000      0.63891       -88.60        1.927E-3      -80.41        2.007E-3      -80.22        0.3348        -168.42        
850.1900      0.63631       -87.54        1.956E-3      -92.84        2.093E-3      -97.28        0.33237       -169.23        
853.1800      0.63577       -86.49        1.917E-3      -104.17       1.94E-3       -105.01       0.33038       -170.10        
856.1700      0.63652       -85.51        1.927E-3      -113.13       1.896E-3      -115.48       0.32897       -171.04        
859.1600      0.63795       -84.61        1.948E-3      -123.62       1.902E-3      -123.15       0.32801       -171.97        
862.1500      0.63935       -83.84        1.899E-3      -135.20       1.926E-3      -134.65       0.32772       -172.88        
865.1400      0.64015       -83.21        1.787E-3      -147.75       1.817E-3      -145.49       0.32798       -173.73        
868.1300      0.63988       -82.71        1.787E-3      -157.95       1.866E-3      -158.40       0.32865       -174.48        
871.1200      0.63803       -82.36        1.693E-3      -165.68       1.842E-3      -168.63       0.32964       -175.13        
874.1100      0.6348        -82.07        1.783E-3      -176.83       1.71E-3       -177.64       0.33085       -175.69        
877.1000      0.63034       -81.88        1.655E-3      171.95        1.797E-3      174.01        0.33182       -176.12        
880.0900      0.6248        -81.74        1.677E-3      162.61        1.619E-3      165.93        0.33259       -176.48        
883.0800      0.61853       -81.58        1.572E-3      154.04        1.667E-3      154.27        0.33317       -176.79        
886.0700      0.61168       -81.42        1.638E-3      144.71        1.678E-3      144.72        0.33346       -177.02        
889.0600      0.6047        -81.23        1.577E-3      133.46        1.657E-3      134.17        0.33351       -177.23        
892.0500      0.59745       -81.02        1.585E-3      127.18        1.584E-3      129.31        0.33314       -177.40        
895.0400      0.59023       -80.80        1.636E-3      117.61        1.672E-3      116.75        0.33242       -177.55        
898.0300      0.58331       -80.56        1.605E-3      113.20        1.668E-3      112.83        0.33135       -177.74        
901.0200      0.57674       -80.28        1.639E-3      99.49         1.654E-3      98.90         0.3299        -177.96        
904.0100      0.57063       -79.96        1.634E-3      93.79         1.677E-3      95.87         0.32802       -178.22        
907.0000      0.56506       -79.56        1.67E-3       86.99         1.691E-3      85.53         0.32599       -178.56        
909.9900      0.55981       -79.10        1.664E-3      81.79         1.768E-3      82.95         0.32389       -178.98        
912.9800      0.55469       -78.55        1.689E-3      75.52         1.80E-3       76.21         0.3218        -179.51        
915.9700      0.54942       -77.97        1.734E-3      69.22         1.831E-3      67.65         0.32004       179.87         
918.9600      0.54381       -77.32        1.904E-3      62.08         1.925E-3      63.85         0.31851       179.17         
921.9500      0.53698       -76.63        2.024E-3      58.57         2.035E-3      59.31         0.31762       178.42         
924.9400      0.5283        -75.88        2.192E-3      50.17         2.242E-3      53.55         0.31711       177.70         
927.9300      0.51784       -74.80        2.288E-3      40.63         2.189E-3      43.44         0.31712       176.98         
930.9200      0.50906       -73.25        2.311E-3      32.65         2.313E-3      31.40         0.31742       176.27         
933.9100      0.50462       -71.67        2.327E-3      25.20         2.283E-3      23.67         0.31817       175.59         
936.9000      0.5018        -70.34        2.259E-3      19.12         2.155E-3      21.19         0.319         174.98         
939.8900      0.49875       -69.18        2.19E-3       15.31         2.231E-3      13.93         0.31999       174.42         
942.8800      0.49544       -68.15        2.25E-3       10.05         2.201E-3      12.00         0.32106       173.93         
945.8700      0.49174       -67.20        2.199E-3      6.14          2.315E-3      8.47          0.32224       173.51         
948.8600      0.48791       -66.31        2.272E-3      2.28          2.331E-3      2.72          0.32337       173.19         
951.8500      0.48446       -65.50        2.367E-3      -1.85         2.384E-3      -2.47         0.32438       172.90         
954.8400      0.48133       -64.76        2.457E-3      -4.42         2.381E-3      -6.12         0.32505       172.66         
957.8300      0.47885       -64.07        2.56E-3       -11.36        2.389E-3      -11.00        0.32528       172.47         
960.8200      0.47699       -63.40        2.63E-3       -16.03        2.591E-3      -16.61        0.32522       172.31         
963.8100      0.47587       -62.75        2.63E-3       -21.45        2.615E-3      -18.76        0.32452       172.10         
966.8000      0.47551       -62.12        2.698E-3      -27.11        2.646E-3      -24.83        0.32357       171.89         
969.7900      0.47568       -61.49        2.778E-3      -32.23        2.801E-3      -30.57        0.32222       171.60         
972.7800      0.47638       -60.87        2.949E-3      -38.45        2.949E-3      -39.57        0.32076       171.24         
975.7700      0.47743       -60.22        3.057E-3      -43.79        3.052E-3      -44.74        0.31929       170.80         
978.7600      0.47823       -59.58        3.055E-3      -48.56        3.195E-3      -49.90        0.31767       170.29         
981.7500      0.47919       -58.93        3.166E-3      -58.20        3.356E-3      -56.83        0.31636       169.71         
984.7400      0.4797        -58.28        3.31E-3       -66.02        3.254E-3      -62.65        0.31525       169.06         
987.7300      0.48001       -57.61        3.383E-3      -69.15        3.351E-3      -69.55        0.31438       168.41         
990.7200      0.47955       -56.96        3.454E-3      -75.10        3.426E-3      -75.50        0.31384       167.68         
993.7100      0.47827       -56.32        3.539E-3      -84.66        3.506E-3      -83.04        0.31366       166.93         
996.7000      0.47622       -55.69        3.656E-3      -89.79        3.716E-3      -91.44        0.31376       166.20         
999.6900      0.47312       -55.07        3.693E-3      -95.06        3.633E-3      -97.46        0.31439       165.48         
1002.6800     0.46925       -54.51        3.858E-3      -102.25       3.879E-3      -101.66       0.31535       164.81         
1005.6700     0.46477       -53.95        3.854E-3      -109.56       3.84E-3       -107.47       0.31658       164.18         
1008.6600     0.45988       -53.46        4.002E-3      -116.63       3.901E-3      -115.25       0.31816       163.65         
1011.6500     0.45477       -53.03        4.008E-3      -122.45       4.029E-3      -122.01       0.31983       163.18         
1014.6400     0.44971       -52.62        4.16E-3       -128.78       4.16E-3       -127.26       0.32145       162.78         
1017.6300     0.44473       -52.26        4.267E-3      -135.49       4.243E-3      -135.17       0.32301       162.47         
1020.6200     0.43997       -51.95        4.295E-3      -142.02       4.415E-3      -140.97       0.32429       162.22         
1023.6100     0.43562       -51.67        4.379E-3      -149.33       4.366E-3      -150.17       0.32537       162.00         
1026.6000     0.43177       -51.42        4.573E-3      -155.80       4.362E-3      -155.31       0.3262        161.82         
1029.5900     0.42834       -51.18        4.459E-3      -161.72       4.36E-3       -161.69       0.32678       161.65         
1032.5800     0.42511       -50.95        4.507E-3      -167.91       4.454E-3      -168.54       0.32698       161.45         
1035.5700     0.42195       -50.77        4.596E-3      -176.50       4.543E-3      -174.28       0.32717       161.24         
1038.5600     0.41852       -50.64        4.459E-3      176.80        4.495E-3      176.51        0.32698       161.00         
1041.5500     0.41304       -50.68        4.50E-3       171.81        4.458E-3      172.59        0.32678       160.74         
1044.5400     0.40174       -50.68        4.46E-3       165.61        4.648E-3      165.50        0.32657       160.44         
1047.5300     0.3842        -49.13        4.544E-3      159.86        4.439E-3      160.32        0.32621       160.05         
1050.5200     0.37932       -45.91        4.571E-3      154.55        4.533E-3      153.42        0.32602       159.67         
1053.5100     0.38326       -44.09        4.614E-3      146.88        4.656E-3      145.97        0.32593       159.22         
1056.5000     0.38307       -43.17        4.56E-3       139.74        4.577E-3      140.59        0.32603       158.73         
1059.4900     0.37873       -42.26        4.555E-3      134.17        4.704E-3      131.75        0.32636       158.25         
1062.4800     0.37224       -41.20        4.537E-3      126.60        4.555E-3      127.90        0.32707       157.73         
1065.4700     0.36429       -39.94        4.664E-3      120.78        4.592E-3      122.25        0.32786       157.26         
1068.4600     0.35575       -38.49        4.661E-3      115.32        4.679E-3      115.89        0.32904       156.82         
1071.4500     0.3472        -36.81        4.568E-3      108.41        4.54E-3       107.95        0.33027       156.41         
1074.4400     0.33907       -34.90        4.574E-3      102.88        4.603E-3      101.80        0.33176       156.07         
1077.4300     0.33225       -32.80        4.693E-3      96.50         4.591E-3      95.42         0.33321       155.78         
1080.4200     0.32712       -30.56        4.723E-3      88.82         4.761E-3      90.19         0.33448       155.53         
1083.4100     0.32434       -28.27        4.741E-3      82.59         4.753E-3      83.26         0.33569       155.36         
1086.4000     0.32407       -26.01        4.855E-3      76.35         4.851E-3      75.55         0.3366        155.19         
1089.3900     0.32632       -23.90        4.821E-3      67.97         4.897E-3      69.15         0.33728       155.07         
1092.3800     0.33083       -22.00        4.793E-3      60.72         4.792E-3      61.27         0.3376        154.96         
1095.3700     0.33698       -20.31        4.883E-3      53.08         4.866E-3      54.16         0.33763       154.86         
1098.3600     0.34451       -18.86        4.938E-3      47.90         4.992E-3      46.79         0.33721       154.69         
1101.3500     0.35337       -17.67        5.004E-3      39.47         5.083E-3      38.63         0.33649       154.54         
1104.3400     0.36266       -16.66        4.953E-3      32.38         4.992E-3      32.22         0.33555       154.34         
1107.3300     0.37229       -15.79        4.918E-3      24.42         4.949E-3      25.30         0.33438       154.07         
1110.3200     0.38172       -15.03        4.941E-3      18.96         4.941E-3      18.23         0.33296       153.70         
1113.3100     0.3911        -14.40        5.016E-3      11.52         4.868E-3      10.54         0.3317        153.26         
1116.3000     0.39979       -13.86        5.068E-3      3.32          4.866E-3      4.11          0.33056       152.75         
1119.2900     0.40741       -13.40        4.902E-3      -3.35         4.914E-3      -2.26         0.32934       152.14         
1122.2800     0.41419       -12.99        5.051E-3      -11.26        4.88E-3       -9.97         0.3288        151.48         
1125.2700     0.41959       -12.63        4.925E-3      -16.43        4.76E-3       -15.56        0.32853       150.76         
1128.2600     0.42371       -12.31        4.738E-3      -24.18        4.784E-3      -23.36        0.32881       150.05         
1131.2500     0.42668       -12.11        4.766E-3      -31.18        4.901E-3      -30.86        0.32956       149.30         
1134.2400     0.4286        -11.94        4.77E-3       -38.82        4.792E-3      -38.68        0.33078       148.61         
1137.2300     0.42943       -11.85        4.67E-3       -46.13        4.752E-3      -46.03        0.3325        147.98         
1140.2200     0.42977       -11.82        4.576E-3      -54.59        4.608E-3      -53.12        0.3345        147.37         
1143.2100     0.42914       -11.85        4.488E-3      -60.77        4.412E-3      -60.01        0.33681       146.86         
1146.2000     0.42819       -11.94        4.261E-3      -67.40        4.493E-3      -67.72        0.33938       146.45         
1149.1900     0.42687       -12.09        4.29E-3       -75.81        4.284E-3      -74.54        0.34191       146.11         
1152.1800     0.42573       -12.25        4.162E-3      -81.35        4.068E-3      -83.31        0.34443       145.88         
1155.1700     0.42438       -12.44        3.987E-3      -90.22        4.067E-3      -88.97        0.34655       145.70         
1158.1600     0.42313       -12.63        4.026E-3      -95.32        3.911E-3      -95.72        0.34854       145.59         
1161.1500     0.42228       -12.78        3.907E-3      -103.02       3.811E-3      -102.14       0.35002       145.50         
1164.1400     0.42143       -12.87        3.856E-3      -109.60       3.739E-3      -108.96       0.35109       145.46         
1167.1300     0.42092       -12.90        3.714E-3      -118.85       3.549E-3      -118.99       0.35168       145.38         
1170.1200     0.42044       -12.87        3.492E-3      -124.11       3.546E-3      -123.31       0.35188       145.30         
1173.1100     0.41965       -12.75        3.526E-3      -130.58       3.483E-3      -129.43       0.3517        145.15         
1176.1000     0.41872       -12.56        3.371E-3      -137.37       3.454E-3      -135.58       0.35116       144.95         
1179.0900     0.41719       -12.28        3.172E-3      -145.01       3.244E-3      -144.51       0.35031       144.65         
1182.0800     0.41504       -11.95        3.213E-3      -149.86       3.083E-3      -150.75       0.34945       144.22         
1185.0700     0.41227       -11.54        3.066E-3      -155.92       3.072E-3      -155.18       0.34858       143.73         
1188.0600     0.40859       -11.07        2.972E-3      -161.84       2.987E-3      -162.70       0.34791       143.13         
1191.0500     0.40421       -10.54        2.921E-3      -169.86       2.902E-3      -169.80       0.34761       142.48         
1194.0400     0.39908       -9.96         2.824E-3      -174.76       2.68E-3       -175.79       0.34777       141.72         
1197.0300     0.39317       -9.32         2.602E-3      -178.65       2.658E-3      179.78        0.34851       140.94         
1200.0200     0.38662       -8.66         2.448E-3      175.60        2.531E-3      177.40        0.34973       140.17         
1203.0100     0.37977       -7.96         2.384E-3      170.12        2.374E-3      171.46        0.35162       139.41         
1206.0000     0.37242       -7.21         2.294E-3      166.95        2.315E-3      167.61        0.35404       138.69         
1208.9900     0.36543       -6.42         2.14E-3       164.25        2.117E-3      165.55        0.35689       138.07         
1211.9800     0.35855       -5.58         2.01E-3       160.25        2.025E-3      157.94        0.3601        137.53         
1214.9700     0.35204       -4.68         1.908E-3      156.94        2.017E-3      157.58        0.36356       137.12         
1217.9600     0.34618       -3.70         1.862E-3      153.37        1.887E-3      153.07        0.36676       136.80         
1220.9500     0.34113       -2.60         1.777E-3      150.81        1.712E-3      150.01        0.36997       136.61         
1223.9400     0.33688       -1.39         1.58E-3       144.47        1.677E-3      148.08        0.37291       136.48         
1226.9300     0.3335        -0.04         1.582E-3      142.33        1.534E-3      143.34        0.3752        136.46         
1229.9200     0.33112       1.41          1.616E-3      142.44        1.484E-3      142.83        0.37733       136.49         
1232.9100     0.32997       2.98          1.375E-3      137.65        1.486E-3      137.37        0.37855       136.55         
1235.9000     0.32979       4.67          1.351E-3      138.19        1.392E-3      140.51        0.37906       136.61         
1238.8900     0.33058       6.43          1.377E-3      133.83        1.308E-3      134.60        0.37894       136.64         
1241.8800     0.33234       8.28          1.237E-3      134.21        1.247E-3      133.85        0.37825       136.63         
1244.8700     0.3351        10.14         1.164E-3      132.50        1.241E-3      129.18        0.37707       136.54         
1247.8600     0.33853       12.02         1.21E-3       129.10        1.181E-3      127.88        0.37539       136.34         
1250.8500     0.34248       13.89         1.225E-3      125.97        1.172E-3      127.18        0.37366       136.00         
1253.8400     0.34709       15.72         1.076E-3      117.52        1.22E-3       122.45        0.37171       135.57         
1256.8300     0.35214       17.44         9.922E-4      122.21        1.087E-3      122.19        0.37011       135.00         
1259.8200     0.35765       19.04         8.755E-4      123.64        1.01E-3       121.91        0.36879       134.30         
1262.8100     0.36308       20.45         9.04E-4       119.19        9.259E-4      122.33        0.368         133.55         
1265.8000     0.36876       21.68         9.53E-4       117.05        8.472E-4      113.97        0.36779       132.71         
1268.7900     0.37441       22.73         9.47E-4       123.68        9.20E-4       118.24        0.36847       131.83         
1271.7800     0.38003       23.60         9.969E-4      128.89        9.648E-4      123.70        0.36982       130.97         
1274.7700     0.38554       24.28         8.536E-4      124.23        9.795E-4      122.19        0.37186       130.17         
1277.7600     0.39077       24.81         1.055E-3      124.80        9.78E-4       129.12        0.37452       129.45         
1280.7500     0.39582       25.19         1.092E-3      127.56        1.041E-3      126.90        0.37775       128.82         
1283.7400     0.40079       25.47         1.111E-3      126.06        1.119E-3      128.83        0.38107       128.32         
1286.7300     0.40563       25.63         1.141E-3      124.50        1.241E-3      123.05        0.38465       127.95         
1289.7200     0.41014       25.76         1.402E-3      126.25        1.402E-3      122.96        0.38811       127.71         
1292.7100     0.41458       25.82         1.476E-3      124.61        1.468E-3      125.55        0.39117       127.59         
1295.7000     0.41906       25.90         1.597E-3      121.21        1.551E-3      119.91        0.39359       127.54         
1298.6900     0.42342       25.96         1.867E-3      117.66        1.721E-3      120.48        0.39564       127.59         
1301.6800     0.4278        26.05         1.908E-3      113.60        1.916E-3      116.62        0.39689       127.69         
1304.6700     0.43209       26.18         2.049E-3      108.51        2.093E-3      109.18        0.39758       127.78         
1307.6600     0.43614       26.32         2.256E-3      106.44        2.21E-3       106.10        0.3975        127.86         
1310.6500     0.43966       26.53         2.385E-3      99.99         2.384E-3      101.87        0.39663       127.88         
1313.6400     0.44252       26.76         2.644E-3      95.67         2.445E-3      98.09         0.39548       127.84         
1316.6300     0.44504       27.00         2.64E-3       93.03         2.606E-3      93.00         0.3938        127.69         
1319.6200     0.44669       27.27         2.882E-3      88.71         2.763E-3      87.37         0.39186       127.39         
1322.6100     0.4478        27.57         2.885E-3      82.88         2.951E-3      82.30         0.39004       126.98         
1325.6000     0.44811       27.88         3.118E-3      77.22         3.08E-3       78.63         0.38837       126.43         
1328.5900     0.44779       28.20         3.297E-3      72.70         3.232E-3      72.39         0.38712       125.78         
1331.5800     0.44685       28.47         3.31E-3       66.86         3.377E-3      67.47         0.38641       125.04         
1334.5700     0.44491       28.68         3.488E-3      62.54         3.565E-3      62.56         0.38633       124.23         
1337.5600     0.44123       28.90         3.682E-3      57.26         3.685E-3      56.75         0.3872        123.40         
1340.5500     0.43647       29.35         3.719E-3      48.67         3.715E-3      50.97         0.3888        122.58         
1343.5400     0.43307       29.96         3.706E-3      43.87         3.785E-3      46.55         0.39117       121.80         
1346.5300     0.43057       30.52         3.824E-3      39.31         3.88E-3       39.97         0.39426       121.13         
1349.5200     0.42836       31.02         3.874E-3      34.26         3.847E-3      35.61         0.39765       120.56         
1352.5100     0.42638       31.50         3.96E-3       30.07         3.882E-3      30.76         0.40137       120.11         
1355.5000     0.42487       32.01         3.988E-3      27.18         4.048E-3      25.16         0.40519       119.78         
1358.4900     0.42371       32.52         4.002E-3      20.73         4.056E-3      21.13         0.40845       119.61         
1361.4800     0.42287       33.10         4.098E-3      17.22         4.027E-3      16.52         0.41177       119.53         
1364.4700     0.42249       33.70         4.138E-3      11.32         4.075E-3      10.87         0.41433       119.54         
1367.4600     0.42242       34.36         4.154E-3      5.81          4.157E-3      6.14          0.41644       119.63         
1370.4500     0.42258       35.10         4.272E-3      1.59          4.188E-3      1.89          0.41747       119.74         
1373.4400     0.42327       35.89         4.285E-3      -3.10         4.236E-3      -4.47         0.41801       119.86         
1376.4300     0.42405       36.74         4.319E-3      -7.94         4.362E-3      -8.49         0.4177        119.94         
1379.4200     0.42528       37.68         4.333E-3      -12.76        4.331E-3      -13.02        0.41693       119.96         
1382.4100     0.42645       38.66         4.462E-3      -17.95        4.388E-3      -19.07        0.41563       119.92         
1385.4000     0.42769       39.70         4.473E-3      -23.76        4.432E-3      -23.79        0.41391       119.76         
1388.3900     0.42931       40.78         4.476E-3      -27.60        4.506E-3      -28.79        0.412         119.48         
1391.3800     0.43107       41.91         4.50E-3       -33.92        4.512E-3      -33.77        0.41018       119.08         
1394.3700     0.43341       43.05         4.496E-3      -38.91        4.459E-3      -37.67        0.40879       118.57         
1397.3600     0.4368        44.11         4.461E-3      -44.38        4.461E-3      -42.82        0.40779       117.93         
1400.3500     0.441         44.92         4.557E-3      -46.11        4.464E-3      -47.30        0.40735       117.23         
1403.3400     0.44385       45.40         4.582E-3      -51.56        4.478E-3      -51.95        0.40764       116.50         
1406.3300     0.4446        45.85         4.572E-3      -55.04        4.611E-3      -54.57        0.40882       115.74         
1409.3200     0.4439        46.36         4.638E-3      -60.60        4.661E-3      -59.84        0.41061       115.00         
1412.3100     0.44342       47.07         4.713E-3      -65.99        4.658E-3      -65.15        0.41311       114.32         
1415.3000     0.4445        47.83         4.838E-3      -69.37        4.654E-3      -70.09        0.41606       113.73         
1418.2900     0.44656       48.48         4.643E-3      -74.74        4.675E-3      -74.29        0.41944       113.27         
1421.2800     0.44884       49.02         4.672E-3      -79.04        4.663E-3      -79.60        0.42276       112.92         
1424.2700     0.45123       49.52         4.746E-3      -84.51        4.728E-3      -83.87        0.42609       112.66         
1427.2600     0.45389       50.03         4.632E-3      -89.19        4.69E-3       -88.15        0.42902       112.54         
1430.2500     0.45705       50.55         4.66E-3       -93.15        4.657E-3      -92.05        0.43153       112.52         
1433.2400     0.46106       51.12         4.738E-3      -97.45        4.651E-3      -97.13        0.43342       112.56         
1436.2300     0.46539       51.69         4.618E-3      -102.05       4.536E-3      -102.27       0.43462       112.64         
1439.2200     0.47013       52.26         4.554E-3      -105.85       4.518E-3      -106.86       0.43536       112.74         
1442.2100     0.47527       52.84         4.54E-3       -111.38       4.495E-3      -111.26       0.43514       112.83         
1445.2000     0.48056       53.42         4.473E-3      -115.59       4.401E-3      -115.14       0.4345        112.86         
1448.1900     0.48564       54.00         4.389E-3      -120.42       4.354E-3      -119.06       0.43307       112.82         
1451.1800     0.49052       54.57         4.277E-3      -124.64       4.305E-3      -124.60       0.43147       112.71         
1454.1700     0.49516       55.13         4.213E-3      -127.93       4.185E-3      -127.60       0.42962       112.46         
1457.1600     0.49933       55.65         4.034E-3      -132.26       4.039E-3      -132.04       0.42781       112.11         
1460.1500     0.50284       56.13         4.022E-3      -136.04       4.04E-3       -136.25       0.42627       111.63         
1463.1400     0.50587       56.55         3.989E-3      -139.84       3.899E-3      -139.65       0.42501       111.05         
1466.1300     0.50806       56.95         3.844E-3      -144.28       3.845E-3      -143.47       0.42466       110.38         
1469.1200     0.50967       57.31         3.773E-3      -148.58       3.747E-3      -148.19       0.42477       109.64         
1472.1100     0.51086       57.63         3.657E-3      -150.47       3.621E-3      -149.77       0.42571       108.89         
1475.1000     0.51144       57.86         3.611E-3      -153.40       3.608E-3      -154.51       0.42747       108.14         
1478.0900     0.51172       58.06         3.655E-3      -156.86       3.527E-3      -155.86       0.42984       107.45         
1481.0800     0.51177       58.23         3.429E-3      -160.65       3.365E-3      -160.14       0.43292       106.85         
1484.0700     0.51196       58.36         3.369E-3      -163.81       3.448E-3      -163.50       0.43632       106.33         
1487.0600     0.51233       58.51         3.346E-3      -166.53       3.385E-3      -164.90       0.43988       105.94         
1490.0500     0.51291       58.63         3.368E-3      -168.50       3.363E-3      -168.55       0.44357       105.67         
1493.0400     0.51382       58.76         3.26E-3       -172.71       3.34E-3       -169.89       0.44701       105.52         
1496.0300     0.51473       58.87         3.294E-3      -174.03       3.254E-3      -174.07       0.45022       105.46         
1499.0200     0.51566       59.04         3.20E-3       -177.81       3.247E-3      -175.89       0.45276       105.46         
1502.0100     0.5167        59.26         3.243E-3      -179.52       3.263E-3      -178.12       0.45428       105.61         
1505.0000     0.51793       59.53         3.252E-3      177.57        3.309E-3      177.84        0.45555       105.74         
1507.9900     0.51896       59.86         3.30E-3       175.98        3.282E-3      176.70        0.45596       105.91         
1510.9800     0.51978       60.24         3.24E-3       171.01        3.373E-3      172.63        0.45572       106.04         
1513.9700     0.52028       60.67         3.265E-3      169.67        3.394E-3      170.52        0.45491       106.14         
1516.9600     0.52026       61.15         3.436E-3      167.11        3.313E-3      167.25        0.45341       106.17         
1519.9500     0.51947       61.67         3.417E-3      163.79        3.432E-3      164.86        0.45199       106.10         
1522.9400     0.51845       62.23         3.416E-3      161.97        3.414E-3      162.40        0.45          105.92         
1525.9300     0.51681       62.81         3.44E-3       159.47        3.463E-3      158.46        0.44828       105.62         
1528.9200     0.51454       63.39         3.465E-3      155.11        3.461E-3      155.77        0.44667       105.21         
1531.9100     0.51195       63.94         3.511E-3      152.14        3.562E-3      151.72        0.44552       104.70         
1534.9000     0.50902       64.47         3.485E-3      148.71        3.594E-3      150.14        0.44499       104.13         
1537.8900     0.50599       64.97         3.454E-3      146.06        3.564E-3      145.81        0.44502       103.49         
1540.8800     0.50302       65.46         3.542E-3      142.84        3.642E-3      143.42        0.44577       102.84         
1543.8700     0.50025       65.95         3.609E-3      140.30        3.64E-3       140.76        0.44717       102.18         
1546.8600     0.49781       66.42         3.631E-3      137.17        3.602E-3      136.48        0.44921       101.54         
1549.8500     0.49567       66.87         3.653E-3      133.51        3.657E-3      133.65        0.45171       101.00         
1552.8400     0.49428       67.32         3.534E-3      129.33        3.664E-3      130.91        0.4545        100.53         
1555.8300     0.49332       67.77         3.705E-3      127.36        3.614E-3      126.79        0.4577        100.17         
1558.8200     0.49299       68.23         3.585E-3      121.74        3.631E-3      125.08        0.4607        99.92          
1561.8100     0.49332       68.73         3.689E-3      121.56        3.589E-3      120.33        0.46365       99.76          
1564.8000     0.49412       69.24         3.578E-3      118.55        3.649E-3      116.86        0.46603       99.68          
1567.7900     0.4953        69.80         3.655E-3      114.10        3.644E-3      115.17        0.46804       99.68          
1570.7800     0.49666       70.38         3.621E-3      110.57        3.606E-3      111.61        0.46958       99.76          
1573.7700     0.49795       71.00         3.63E-3       107.95        3.727E-3      108.42        0.47046       99.86          
1576.7600     0.49912       71.66         3.652E-3      105.24        3.617E-3      106.00        0.47083       99.97          
1579.7500     0.4999        72.39         3.544E-3      102.70        3.642E-3      102.89        0.47058       100.06         
1582.7400     0.50018       73.10         3.682E-3      100.55        3.668E-3      99.32         0.47009       100.11         
1585.7300     0.50002       73.83         3.673E-3      97.42         3.834E-3      96.58         0.46889       100.07         
1588.7200     0.49926       74.55         3.724E-3      93.72         3.746E-3      93.69         0.46761       99.96          
1591.7100     0.49795       75.27         3.80E-3       92.56         3.797E-3      91.65         0.46623       99.78          
1594.7000     0.49623       75.96         3.822E-3      88.23         3.791E-3      89.69         0.46506       99.50          
1597.6900     0.49433       76.62         3.774E-3      84.76         3.893E-3      85.47         0.46385       99.11          
1600.6800     0.49229       77.24         3.907E-3      81.26         3.883E-3      83.81         0.46321       98.67          
1603.6700     0.49014       77.82         3.925E-3      80.34         3.942E-3      80.52         0.46288       98.15          
1606.6600     0.48816       78.36         3.992E-3      76.40         3.926E-3      76.59         0.4632        97.57          
1609.6500     0.48643       78.86         4.05E-3       73.69         3.929E-3      73.49         0.46405       97.01          
1612.6400     0.48499       79.32         4.057E-3      70.92         4.027E-3      70.47         0.46556       96.44          
1615.6300     0.48411       79.78         4.134E-3      67.85         4.179E-3      69.16         0.46749       95.88          
1618.6200     0.48384       80.20         4.101E-3      63.20         4.244E-3      64.19         0.46998       95.42          
1621.6100     0.48419       80.61         4.241E-3      61.70         4.298E-3      61.52         0.47252       95.01          
1624.6000     0.48501       81.02         4.418E-3      57.23         4.382E-3      58.70         0.47517       94.68          
1627.5900     0.48616       81.43         4.466E-3      55.44         4.494E-3      53.85         0.47786       94.45          
1630.5800     0.4878        81.87         4.547E-3      51.12         4.581E-3      50.83         0.48035       94.31          
1633.5700     0.48945       82.35         4.608E-3      47.56         4.642E-3      47.15         0.48277       94.26          
1636.5600     0.49113       82.84         4.665E-3      43.90         4.797E-3      43.68         0.48442       94.27          
1639.5500     0.49256       83.36         4.771E-3      40.52         4.806E-3      39.88         0.48576       94.32          
1642.5400     0.49333       83.89         4.92E-3       35.64         4.865E-3      36.93         0.48671       94.39          
1645.5300     0.49375       84.41         4.913E-3      33.15         4.914E-3      31.76         0.48693       94.46          
1648.5200     0.4935        84.96         5.096E-3      27.35         4.992E-3      28.72         0.48669       94.51          
1651.5100     0.49233       85.46         5.149E-3      25.02         5.091E-3      24.32         0.48596       94.53          
1654.5000     0.49058       85.93         5.275E-3      20.58         5.15E-3       20.71         0.48496       94.49          
1657.4900     0.4882        86.35         5.301E-3      17.57         5.27E-3       16.88         0.48369       94.36          
1660.4800     0.4852        86.71         5.39E-3       11.87         5.326E-3      12.38         0.4824        94.15          
1663.4700     0.48155       87.02         5.291E-3      9.14          5.481E-3      8.18          0.48118       93.85          
1666.4600     0.47768       87.26         5.505E-3      4.46          5.527E-3      4.26          0.48022       93.45          
1669.4500     0.47344       87.44         5.584E-3      0.11          5.647E-3      0.29          0.4795        92.98          
1672.4400     0.46935       87.57         5.553E-3      -4.66         5.637E-3      -3.55         0.47939       92.43          
1675.4300     0.46518       87.64         5.651E-3      -7.66         5.638E-3      -7.78         0.47981       91.85          
1678.4200     0.46107       87.66         5.742E-3      -12.90        5.778E-3      -12.34        0.48068       91.25          
1681.4100     0.45693       87.65         5.737E-3      -17.23        5.717E-3      -16.71        0.48227       90.68          
1684.4000     0.45271       87.64         5.805E-3      -22.06        5.858E-3      -20.60        0.48429       90.11          
1687.3900     0.44816       87.65         5.843E-3      -26.72        5.716E-3      -25.91        0.48688       89.60          
1690.3800     0.44311       87.69         5.85E-3       -31.08        5.856E-3      -31.12        0.48968       89.19          
1693.3700     0.4369        87.79         5.789E-3      -36.11        5.74E-3       -35.59        0.49264       88.86          
1696.3600     0.42907       88.09         5.882E-3      -41.06        5.757E-3      -39.19        0.4956        88.64          
1699.3500     0.4193        88.70         5.839E-3      -45.62        5.745E-3      -45.08        0.49862       88.50          
1702.3400     0.40816       89.90         5.753E-3      -49.06        5.716E-3      -48.28        0.50123       88.46          
1705.3300     0.3985        91.84         5.752E-3      -53.25        5.677E-3      -52.75        0.50348       88.50          
1708.3200     0.39353       94.27         5.707E-3      -57.74        5.656E-3      -57.26        0.50523       88.61          
1711.3100     0.39365       96.54         5.663E-3      -61.83        5.657E-3      -61.70        0.50636       88.74          
1714.3000     0.39601       98.27         5.663E-3      -65.88        5.673E-3      -66.04        0.50687       88.90          
1717.2900     0.3978        99.51         5.661E-3      -70.41        5.716E-3      -70.27        0.50676       89.07          
1720.2800     0.39799       100.45        5.627E-3      -75.93        5.653E-3      -74.18        0.50623       89.20          
1723.2700     0.3965        101.20        5.536E-3      -80.10        5.645E-3      -80.04        0.5052        89.26          
1726.2600     0.39401       101.91        5.552E-3      -84.11        5.498E-3      -84.19        0.50363       89.25          
1729.2500     0.39051       102.55        5.472E-3      -88.57        5.464E-3      -87.75        0.50205       89.15          
1732.2400     0.38649       103.16        5.448E-3      -93.21        5.438E-3      -93.91        0.50017       88.95          
1735.2300     0.38244       103.76        5.374E-3      -98.48        5.402E-3      -97.21        0.49866       88.66          
1738.2200     0.37846       104.33        5.26E-3       -102.91       5.322E-3      -100.76       0.49703       88.26          
1741.2100     0.37491       104.92        5.274E-3      -105.74       5.252E-3      -105.74       0.49582       87.76          
1744.2000     0.37186       105.54        5.078E-3      -109.94       5.108E-3      -109.56       0.49521       87.20          
1747.1900     0.36942       106.19        5.062E-3      -114.83       4.968E-3      -114.77       0.49509       86.56          
1750.1800     0.36735       106.89        4.986E-3      -118.12       4.88E-3       -118.81       0.49561       85.92          
1753.1700     0.36594       107.64        4.786E-3      -122.71       4.787E-3      -122.59       0.49674       85.28          
1756.1600     0.36479       108.49        4.765E-3      -127.10       4.746E-3      -126.90       0.49873       84.68          
1759.1500     0.36403       109.45        4.594E-3      -131.19       4.602E-3      -129.71       0.50107       84.15          
1762.1400     0.36342       110.51        4.446E-3      -134.30       4.501E-3      -134.15       0.50382       83.66          
1765.1300     0.36335       111.67        4.401E-3      -137.76       4.371E-3      -137.50       0.50688       83.29          
1768.1200     0.36339       112.84        4.237E-3      -140.89       4.326E-3      -141.24       0.51          83.00          
1771.1100     0.36382       113.98        4.208E-3      -144.12       4.233E-3      -144.23       0.51283       82.83          
1774.1000     0.36353       114.98        3.97E-3       -148.27       4.153E-3      -147.31       0.51549       82.76          
1777.0900     0.36222       115.99        3.946E-3      -151.13       3.975E-3      -151.26       0.51782       82.77          
1780.0800     0.36026       116.95        3.823E-3      -154.87       3.853E-3      -153.92       0.51971       82.84          
1783.0700     0.35794       117.88        3.705E-3      -157.62       3.82E-3       -158.22       0.52116       82.95          
1786.0600     0.35524       118.70        3.752E-3      -161.65       3.643E-3      -159.85       0.52198       83.07          
1789.0500     0.35208       119.44        3.519E-3      -165.00       3.586E-3      -164.31       0.52199       83.19          
1792.0400     0.34866       120.06        3.456E-3      -168.38       3.535E-3      -166.15       0.52174       83.28          
1795.0300     0.3451        120.59        3.437E-3      -169.88       3.454E-3      -169.08       0.52092       83.30          
1798.0200     0.34155       120.98        3.382E-3      -173.44       3.292E-3      -172.46       0.51978       83.28          
1801.0100     0.33802       121.28        3.33E-3       -175.29       3.33E-3       -173.78       0.51822       83.16          
1804.0000     0.33473       121.52        3.216E-3      -177.84       3.231E-3      -177.45       0.51694       82.96          
1806.9900     0.33148       121.66        3.187E-3      178.94        3.122E-3      178.84        0.51567       82.65          
1809.9800     0.32837       121.78        3.144E-3      177.49        3.119E-3      177.47        0.51467       82.27          
1812.9700     0.3255        121.90        3.115E-3      175.12        3.049E-3      176.32        0.51416       81.80          
1815.9600     0.32238       122.04        2.998E-3      172.76        3.008E-3      173.18        0.51423       81.30          
1818.9500     0.31907       122.26        3.042E-3      169.05        3.071E-3      170.65        0.51475       80.77          
1821.9400     0.3155        122.59        2.946E-3      166.58        3.08E-3       168.53        0.51597       80.23          
1824.9300     0.31146       122.98        3.012E-3      164.72        2.972E-3      165.17        0.51773       79.73          
1827.9200     0.30703       123.51        2.877E-3      161.63        2.998E-3      164.33        0.52003       79.28          
1830.9100     0.30178       124.16        2.842E-3      160.60        2.983E-3      161.23        0.52251       78.92          
1833.9000     0.29601       124.92        2.907E-3      159.11        2.941E-3      160.15        0.52531       78.64          
1836.8900     0.28939       125.77        2.844E-3      154.55        2.91E-3       156.77        0.5282        78.46          
1839.8800     0.28241       126.73        2.853E-3      152.10        2.896E-3      154.04        0.5309        78.37          
1842.8700     0.2746        127.73        2.852E-3      150.88        2.879E-3      152.50        0.53324       78.36          
1845.8600     0.26625       128.79        2.913E-3      147.23        2.941E-3      148.52        0.53523       78.43          
1848.8500     0.25742       129.92        2.885E-3      145.93        2.914E-3      145.94        0.53632       78.57          
1851.8400     0.24839       131.12        2.892E-3      143.37        2.929E-3      142.31        0.53709       78.72          
1854.8300     0.23929       132.36        2.937E-3      142.48        2.883E-3      139.82        0.53711       78.90          
1857.8200     0.23035       133.69        2.917E-3      138.05        2.898E-3      138.44        0.53641       79.04          
1860.8100     0.22175       135.10        2.932E-3      135.34        2.949E-3      135.74        0.5351        79.13          
1863.8000     0.21357       136.55        2.992E-3      132.82        2.941E-3      132.09        0.53347       79.15          
1866.7900     0.20591       138.18        2.975E-3      128.60        2.992E-3      128.36        0.53143       79.07          
1869.7800     0.19906       139.92        2.961E-3      126.40        2.981E-3      126.32        0.52916       78.90          
1872.7700     0.19296       141.81        3.008E-3      122.54        3.046E-3      123.98        0.52708       78.59          
1875.7600     0.18768       143.94        3.005E-3      119.04        2.988E-3      119.97        0.52519       78.22          
1878.7500     0.18331       146.21        3.05E-3       115.55        2.988E-3      117.34        0.52381       77.71          
1881.7400     0.17976       148.70        2.971E-3      112.31        2.992E-3      114.36        0.52313       77.13          
1884.7300     0.17716       151.39        2.978E-3      109.52        3.033E-3      109.58        0.52292       76.49          
1887.7200     0.17519       154.26        2.993E-3      106.01        3.113E-3      106.61        0.52366       75.82          
1890.7100     0.17407       157.26        3.071E-3      103.92        3.005E-3      104.44        0.52533       75.17          
1893.7000     0.17358       160.38        3.058E-3      101.06        2.982E-3      100.40        0.5276        74.59          
1896.6900     0.17362       163.52        2.995E-3      97.81         3.009E-3      97.25         0.53064       74.06          
1899.6800     0.17399       166.69        3.081E-3      92.64         2.965E-3      94.70         0.53403       73.66          
1902.6700     0.17489       169.80        2.949E-3      87.73         3.055E-3      88.96         0.53779       73.38          
1905.6600     0.17601       172.78        3.062E-3      87.13         2.986E-3      85.65         0.54139       73.21          
1908.6500     0.17709       175.61        2.98E-3       82.03         3.023E-3      81.48         0.54474       73.19          
1911.6400     0.17797       178.27        2.93E-3       79.24         2.976E-3      80.12         0.54755       73.27          
1914.6300     0.17889       -179.27       2.974E-3      75.48         2.907E-3      75.56         0.54982       73.44          
1917.6200     0.1796        -176.97       2.885E-3      71.60         2.946E-3      71.66         0.55134       73.67          
1920.6100     0.17997       -174.91       2.959E-3      67.95         2.921E-3      70.29         0.55182       73.94          
1923.6000     0.1803        -173.04       2.932E-3      64.26         2.91E-3       65.53         0.55175       74.21          
1926.5900     0.18037       -171.32       2.884E-3      61.84         2.922E-3      63.19         0.55074       74.46          
1929.5800     0.18013       -169.77       2.864E-3      58.60         2.893E-3      60.16         0.54902       74.66          
1932.5700     0.17991       -168.27       2.85E-3       53.84         2.825E-3      55.62         0.54675       74.76          
1935.5600     0.17949       -166.92       2.80E-3       50.60         2.79E-3       51.54         0.54402       74.75          
1938.5500     0.17911       -165.62       2.791E-3      47.81         2.831E-3      47.27         0.54129       74.62          
1941.5400     0.17872       -164.33       2.773E-3      42.52         2.80E-3       44.78         0.53862       74.34          
1944.5300     0.17847       -163.07       2.83E-3       39.94         2.789E-3      42.24         0.53611       73.92          
1947.5200     0.17826       -161.74       2.684E-3      36.59         2.677E-3      37.95         0.53418       73.38          
1950.5100     0.17809       -160.29       2.751E-3      33.19         2.737E-3      34.76         0.53318       72.76          
1953.5000     0.17777       -158.82       2.693E-3      30.89         2.711E-3      31.01         0.533         72.07          
1956.4900     0.17741       -157.17       2.644E-3      27.19         2.597E-3      26.64         0.5339        71.36          
1959.4800     0.17702       -155.41       2.578E-3      23.37         2.538E-3      23.63         0.53571       70.68          
1962.4700     0.17654       -153.44       2.537E-3      19.96         2.624E-3      21.73         0.53829       70.07          
1965.4600     0.17582       -151.31       2.478E-3      15.62         2.44E-3       18.06         0.5413        69.53          
1968.4500     0.175         -149.02       2.432E-3      13.33         2.496E-3      12.27         0.54485       69.13          
1971.4400     0.17401       -146.58       2.488E-3      9.68          2.426E-3      11.42         0.54858       68.86          
1974.4300     0.17294       -144.00       2.402E-3      7.43          2.37E-3       5.84          0.55201       68.73          
1977.4200     0.17199       -141.32       2.39E-3       4.32          2.417E-3      4.43          0.55541       68.74          
1980.4100     0.17112       -138.48       2.264E-3      0.83          2.272E-3      -0.70         0.55807       68.85          
1983.4000     0.17045       -135.54       2.291E-3      -2.57         2.195E-3      -1.75         0.56019       69.08          
1986.3900     0.17002       -132.55       2.237E-3      -5.55         2.218E-3      -5.88         0.56124       69.36          
1989.3800     0.16997       -129.53       2.139E-3      -8.42         2.229E-3      -8.43         0.56149       69.68          
1992.3700     0.17045       -126.49       2.123E-3      -11.21        2.089E-3      -8.85         0.56069       70.00          
1995.3600     0.1711        -123.51       2.044E-3      -14.53        2.093E-3      -12.49        0.55905       70.28          
1998.3500     0.17254       -120.60       1.965E-3      -16.19        2.04E-3       -16.62        0.5566        70.49          
2001.3400     0.17458       -117.79       2.018E-3      -19.88        1.976E-3      -19.37        0.55363       70.56          
2004.3300     0.17734       -115.14       1.991E-3      -22.28        1.897E-3      -24.79        0.55027       70.51          
2007.3200     0.18072       -112.68       1.96E-3       -26.31        1.892E-3      -26.30        0.54699       70.30          
2010.3100     0.18473       -110.33       1.917E-3      -28.86        1.90E-3       -28.79        0.54393       69.93          
2013.3000     0.18937       -108.16       1.919E-3      -31.09        1.877E-3      -28.64        0.54143       69.44          
2016.2900     0.19449       -106.16       1.887E-3      -35.42        1.84E-3       -31.60        0.53954       68.82          
2019.2800     0.20005       -104.24       1.816E-3      -34.67        1.834E-3      -35.33        0.53859       68.08          
2022.2700     0.2061        -102.45       1.814E-3      -36.54        1.763E-3      -36.71        0.53866       67.32          
2025.2600     0.21253       -100.82       1.75E-3       -39.62        1.727E-3      -39.83        0.53964       66.52          
2028.2500     0.21922       -99.23        1.72E-3       -41.96        1.814E-3      -42.16        0.5418        65.76          
2031.2400     0.2261        -97.71        1.658E-3      -44.52        1.724E-3      -41.47        0.54478       65.08          
2034.2300     0.23322       -96.21        1.699E-3      -49.50        1.71E-3       -47.29        0.54853       64.50          
2037.2200     0.24046       -94.69        1.637E-3      -47.10        1.668E-3      -46.81        0.55273       64.10          
2040.2100     0.2484        -93.16        1.594E-3      -49.44        1.663E-3      -50.43        0.55715       63.83          
2043.2000     0.25711       -91.76        1.664E-3      -52.99        1.737E-3      -52.48        0.56138       63.73          
2046.1900     0.26644       -90.69        1.635E-3      -56.36        1.547E-3      -53.98        0.56519       63.81          
2049.1800     0.27496       -89.93        1.614E-3      -56.36        1.55E-3       -57.15        0.5682        64.00          
2052.1700     0.28237       -89.23        1.613E-3      -59.64        1.584E-3      -60.05        0.57046       64.30          
2055.1600     0.28883       -88.56        1.619E-3      -63.96        1.612E-3      -61.36        0.5717        64.67          
2058.1500     0.29489       -87.88        1.57E-3       -64.41        1.562E-3      -62.73        0.57207       65.08          
2061.1400     0.30064       -87.25        1.528E-3      -65.76        1.586E-3      -67.92        0.5715        65.46          
2064.1300     0.30598       -86.65        1.602E-3      -67.75        1.526E-3      -69.55        0.56978       65.81          
2067.1200     0.31106       -86.11        1.48E-3       -71.34        1.595E-3      -71.62        0.5675        66.07          
2070.1100     0.31597       -85.66        1.641E-3      -76.23        1.554E-3      -73.63        0.5646        66.23          
2073.1000     0.32047       -85.26        1.585E-3      -77.14        1.555E-3      -76.45        0.5615        66.27          
2076.0900     0.32459       -84.91        1.591E-3      -80.66        1.62E-3       -82.91        0.55838       66.14          
2079.0800     0.32882       -84.57        1.621E-3      -83.67        1.547E-3      -81.35        0.55525       65.87          
2082.0700     0.33256       -84.31        1.557E-3      -83.69        1.647E-3      -84.07        0.55254       65.45          
2085.0600     0.33631       -84.00        1.57E-3       -86.69        1.58E-3       -88.75        0.5505        64.89          
2088.0500     0.33977       -83.72        1.611E-3      -89.70        1.581E-3      -92.31        0.54927       64.25          
2091.0400     0.34321       -83.40        1.50E-3       -93.23        1.585E-3      -93.67        0.54935       63.54          
2094.0300     0.34671       -83.07        1.552E-3      -96.28        1.526E-3      -97.69        0.55023       62.80          
2097.0200     0.34988       -82.69        1.589E-3      -99.07        1.507E-3      -99.17        0.55215       62.12          
2100.0100     0.35304       -82.31        1.50E-3       -102.52       1.545E-3      -104.01       0.55509       61.52          
2103.0000     0.35616       -81.80        1.508E-3      -104.11       1.524E-3      -100.60       0.55862       61.03          
2105.9900     0.35902       -81.30        1.555E-3      -106.68       1.53E-3       -106.82       0.56225       60.69          
2108.9800     0.36183       -80.68        1.53E-3       -112.38       1.40E-3       -108.37       0.56601       60.52          
2111.9700     0.36451       -79.99        1.422E-3      -110.81       1.457E-3      -113.12       0.56945       60.49          
2114.9600     0.36714       -79.26        1.474E-3      -113.67       1.40E-3       -116.48       0.57254       60.59          
2117.9500     0.36971       -78.46        1.485E-3      -117.14       1.436E-3      -119.11       0.57487       60.81          
2120.9400     0.37244       -77.62        1.535E-3      -119.43       1.415E-3      -122.64       0.57637       61.14          
2123.9300     0.37517       -76.81        1.439E-3      -120.92       1.433E-3      -122.76       0.57711       61.51          
2126.9200     0.3782        -76.03        1.379E-3      -124.26       1.439E-3      -123.53       0.57662       61.92          
2129.9100     0.38113       -75.38        1.401E-3      -129.95       1.439E-3      -130.90       0.57513       62.30          
2132.9000     0.38334       -74.85        1.373E-3      -129.61       1.379E-3      -134.01       0.57309       62.64          
2135.8900     0.38476       -74.36        1.288E-3      -135.56       1.377E-3      -134.48       0.57025       62.88          
2138.8800     0.38519       -73.86        1.32E-3       -134.15       1.389E-3      -133.43       0.56704       63.00          
2141.8700     0.38544       -73.27        1.35E-3       -137.31       1.274E-3      -137.99       0.56333       63.00          
2144.8600     0.38591       -72.63        1.32E-3       -141.80       1.396E-3      -139.82       0.55954       62.82          
2147.8500     0.38702       -71.99        1.253E-3      -144.51       1.362E-3      -143.27       0.55601       62.48          
2150.8400     0.38859       -71.36        1.262E-3      -142.83       1.295E-3      -143.68       0.55308       61.98          
2153.8300     0.39075       -70.80        1.263E-3      -147.79       1.314E-3      -146.97       0.55077       61.34          
2156.8200     0.39326       -70.26        1.277E-3      -150.44       1.331E-3      -149.55       0.54955       60.61          
2159.8100     0.39631       -69.74        1.33E-3       -151.65       1.361E-3      -150.64       0.54928       59.83          
2162.8000     0.39974       -69.26        1.282E-3      -152.20       1.287E-3      -153.60       0.55008       59.02          
2165.7900     0.4036        -68.81        1.312E-3      -154.92       1.309E-3      -155.06       0.552         58.26          
2168.7800     0.40777       -68.32        1.219E-3      -157.61       1.27E-3       -158.88       0.55464       57.57          
2171.7700     0.41198       -67.86        1.264E-3      -162.22       1.235E-3      -162.42       0.55809       57.02          
2174.7600     0.41623       -67.36        1.225E-3      -162.22       1.246E-3      -160.16       0.56174       56.59          
2177.7500     0.42045       -66.88        1.207E-3      -162.07       1.246E-3      -167.70       0.56568       56.33          
2180.7400     0.42425       -66.39        1.401E-3      -174.75       1.228E-3      -165.35       0.56952       56.22          
2183.7300     0.42794       -65.88        1.274E-3      -171.06       1.249E-3      -165.72       0.57273       56.24          
2186.7200     0.43134       -65.41        1.305E-3      -170.93       1.245E-3      -175.81       0.57534       56.41          
2189.7100     0.43397       -64.93        1.168E-3      -174.78       1.273E-3      -174.29       0.57731       56.66          
2192.7000     0.43624       -64.49        1.209E-3      179.81        1.177E-3      177.93        0.57849       57.00          
2195.6900     0.43799       -64.07        1.206E-3      -179.00       1.128E-3      -179.47       0.57874       57.34          
2198.6800     0.43915       -63.68        1.141E-3      174.62        1.287E-3      174.07        0.57817       57.70          
2201.6700     0.43992       -63.36        1.237E-3      174.91        1.307E-3      171.73        0.57669       58.03          
2204.6600     0.44031       -63.10        1.235E-3      172.40        1.274E-3      172.01        0.5746        58.28          
2207.6500     0.44038       -62.87        1.334E-3      170.94        1.13E-3       174.52        0.57197       58.42          
2210.6400     0.44058       -62.72        1.288E-3      170.05        1.214E-3      170.35        0.56883       58.43          
2213.6300     0.44075       -62.62        1.218E-3      168.01        1.117E-3      169.71        0.56584       58.30          
2216.6200     0.44107       -62.57        1.273E-3      167.23        1.179E-3      161.25        0.56296       58.04          
2219.6100     0.44152       -62.57        1.297E-3      157.14        1.156E-3      162.21        0.56052       57.64          
2222.6000     0.44251       -62.61        1.176E-3      158.27        1.223E-3      155.28        0.55855       57.11          
2225.5900     0.4435        -62.63        1.15E-3       158.73        1.196E-3      158.89        0.55747       56.50          
2228.5800     0.44475       -62.67        1.186E-3      153.09        1.128E-3      152.20        0.55724       55.82          
2231.5700     0.44634       -62.66        1.296E-3      151.68        1.219E-3      148.74        0.55792       55.16          
2234.5600     0.44757       -62.58        1.241E-3      147.40        1.285E-3      148.56        0.55944       54.50          
2237.5500     0.44869       -62.47        1.288E-3      148.81        1.106E-3      146.23        0.56183       53.92          
2240.5400     0.44974       -62.28        1.17E-3       142.75        1.256E-3      144.06        0.56469       53.44          
2243.5300     0.45018       -62.06        1.29E-3       145.55        1.283E-3      141.93        0.56799       53.08          
2246.5200     0.45013       -61.78        1.322E-3      142.06        1.154E-3      144.75        0.57129       52.86          
2249.5100     0.44951       -61.47        1.362E-3      139.15        1.29E-3       138.08        0.57444       52.79          
2252.5000     0.44813       -61.15        1.362E-3      134.74        1.384E-3      139.73        0.57755       52.84          
2255.4900     0.4461        -60.82        1.275E-3      130.43        1.252E-3      133.63        0.57985       53.00          
2258.4800     0.44337       -60.48        1.259E-3      129.33        1.382E-3      134.80        0.58175       53.28          
2261.4700     0.44002       -60.18        1.256E-3      130.55        1.244E-3      128.34        0.58295       53.61          
2264.4600     0.43612       -59.94        1.276E-3      127.22        1.345E-3      132.10        0.58323       54.00          
2267.4500     0.43184       -59.76        1.345E-3      121.94        1.267E-3      126.44        0.58258       54.39          
2270.4400     0.42749       -59.61        1.314E-3      120.87        1.423E-3      119.39        0.58128       54.75          
2273.4300     0.42315       -59.56        1.234E-3      122.76        1.332E-3      118.04        0.57915       55.05          
2276.4200     0.41896       -59.54        1.291E-3      115.88        1.204E-3      122.11        0.5764        55.27          
2279.4100     0.41508       -59.61        1.372E-3      114.35        1.222E-3      113.95        0.57337       55.34          
2282.4000     0.41186       -59.67        1.422E-3      108.83        1.258E-3      111.02        0.57011       55.31          
2285.3900     0.40918       -59.71        1.322E-3      107.16        1.353E-3      107.56        0.56697       55.14          
2288.3800     0.40688       -59.76        1.313E-3      102.58        1.33E-3       101.25        0.56401       54.80          
2291.3700     0.40506       -59.75        1.384E-3      102.97        1.472E-3      100.28        0.56176       54.38          
2294.3600     0.40353       -59.66        1.304E-3      97.96         1.387E-3      101.14        0.56006       53.83          
2297.3500     0.40192       -59.49        1.343E-3      96.77         1.349E-3      95.28         0.55905       53.22          
2300.3400     0.40044       -59.27        1.373E-3      92.21         1.502E-3      90.99         0.55893       52.56          
2303.3300     0.39858       -58.91        1.404E-3      93.29         1.405E-3      88.29         0.5595        51.93          
2306.3200     0.39637       -58.49        1.431E-3      89.89         1.397E-3      87.05         0.56107       51.31          
2309.3100     0.39366       -57.98        1.383E-3      88.01         1.517E-3      80.76         0.56306       50.76          
2312.3000     0.39061       -57.42        1.407E-3      80.21         1.504E-3      83.01         0.56564       50.33          
2315.2900     0.38689       -56.85        1.461E-3      76.24         1.488E-3      78.33         0.56872       49.98          
2318.2800     0.38238       -56.28        1.352E-3      74.97         1.458E-3      76.31         0.57196       49.78          
2321.2700     0.37741       -55.71        1.475E-3      71.12         1.453E-3      72.58         0.57505       49.72          
2324.2600     0.37209       -55.20        1.543E-3      72.42         1.46E-3       69.42         0.57786       49.78          
2327.2500     0.3664        -54.80        1.39E-3       62.84         1.48E-3       63.69         0.58005       49.98          
2330.2400     0.36082       -54.47        1.539E-3      62.86         1.48E-3       62.70         0.58148       50.26          
2333.2300     0.35525       -54.27        1.508E-3      59.63         1.461E-3      62.25         0.58242       50.58          
2336.2200     0.35015       -54.13        1.413E-3      57.48         1.498E-3      55.33         0.58239       50.93          
2339.2100     0.3455        -54.08        1.484E-3      55.70         1.419E-3      55.00         0.58163       51.28          
2342.2000     0.34153       -54.08        1.537E-3      51.64         1.49E-3       48.08         0.58012       51.58          
2345.1900     0.33818       -54.11        1.402E-3      45.02         1.445E-3      46.71         0.57807       51.83          
2348.1800     0.33546       -54.12        1.476E-3      41.32         1.39E-3       45.80         0.57567       51.98          
2351.1700     0.33334       -54.11        1.481E-3      41.84         1.498E-3      41.71         0.57293       52.01          
2354.1600     0.33159       -54.06        1.567E-3      37.54         1.537E-3      37.98         0.57007       51.95          
2357.1500     0.33024       -53.91        1.512E-3      33.70         1.543E-3      38.42         0.56712       51.74          
2360.1400     0.32899       -53.66        1.497E-3      33.27         1.424E-3      31.08         0.56453       51.42          
2363.1300     0.3277        -53.33        1.41E-3       27.91         1.577E-3      27.49         0.56233       50.99          
2366.1200     0.32606       -52.88        1.477E-3      25.89         1.496E-3      25.97         0.5607        50.46          
2369.1100     0.32411       -52.34        1.454E-3      23.74         1.369E-3      20.54         0.55975       49.88          
2372.1000     0.32139       -51.76        1.466E-3      14.68         1.472E-3      19.56         0.55985       49.25          
2375.0900     0.31827       -51.11        1.51E-3       17.79         1.578E-3      14.42         0.56066       48.66          
2378.0800     0.31387       -50.47        1.57E-3       12.18         1.461E-3      15.10         0.56213       48.10          
2381.0700     0.30908       -49.83        1.389E-3      12.28         1.571E-3      3.53          0.56446       47.65          
2384.0600     0.30341       -49.24        1.465E-3      10.23         1.488E-3      6.47          0.56717       47.29          
2387.0500     0.29738       -48.71        1.518E-3      1.91          1.436E-3      5.42          0.57007       47.07          
2390.0400     0.29115       -48.27        1.439E-3      0.12          1.401E-3      -5.95         0.5727        47.00          
2393.0300     0.28488       -47.95        1.415E-3      -4.99         1.48E-3       -6.65         0.57521       47.00          
2396.0200     0.27885       -47.68        1.36E-3       -5.46         1.43E-3       -10.26        0.57724       47.13          
2399.0100     0.27303       -47.54        1.333E-3      -8.49         1.473E-3      -14.46        0.57877       47.38          
2402.0000     0.26792       -47.39        1.494E-3      -12.65        1.413E-3      -12.98        0.57959       47.64          
2404.9900     0.26365       -47.31        1.49E-3       -21.64        1.283E-3      -17.39        0.57976       47.99          
2407.9800     0.26001       -47.21        1.361E-3      -22.93        1.309E-3      -17.51        0.57915       48.32          
2410.9700     0.25716       -47.01        1.246E-3      -19.78        1.377E-3      -24.85        0.57782       48.63          
2413.9600     0.25541       -46.78        1.298E-3      -21.71        1.271E-3      -22.08        0.57578       48.87          
2416.9500     0.2542        -46.42        1.368E-3      -25.80        1.41E-3       -31.60        0.57329       49.03          
2419.9400     0.25366       -45.93        1.331E-3      -27.80        1.41E-3       -29.71        0.5702        49.06          
2422.9300     0.25353       -45.28        1.384E-3      -33.71        1.319E-3      -31.64        0.56713       48.97          
2425.9200     0.25365       -44.52        1.341E-3      -36.05        1.288E-3      -33.96        0.56382       48.72          
2428.9100     0.25381       -43.62        1.437E-3      -36.90        1.297E-3      -39.63        0.56101       48.35          
2431.9000     0.25381       -42.68        1.351E-3      -37.30        1.249E-3      -40.67        0.55869       47.83          
2434.8900     0.25333       -41.68        1.312E-3      -40.81        1.323E-3      -43.86        0.55684       47.20          
2437.8800     0.2526        -40.75        1.355E-3      -48.16        1.383E-3      -39.14        0.55632       46.50          
2440.8700     0.2512        -39.89        1.34E-3       -48.38        1.343E-3      -48.59        0.55677       45.78          
2443.8600     0.24939       -39.17        1.391E-3      -53.41        1.259E-3      -55.24        0.55829       45.11          
2446.8500     0.24704       -38.61        1.283E-3      -61.18        1.487E-3      -55.40        0.56034       44.47          
2449.8400     0.24436       -38.24        1.37E-3       -58.99        1.216E-3      -59.84        0.56326       43.93          
2452.8300     0.2415        -38.12        1.236E-3      -67.43        1.383E-3      -59.84        0.56644       43.51          
2455.8200     0.2382        -38.23        1.228E-3      -62.96        1.313E-3      -63.31        0.57006       43.22          
2458.8100     0.23535       -38.58        1.211E-3      -68.27        1.21E-3       -63.54        0.57374       43.09          
2461.8000     0.23278       -39.10        1.296E-3      -69.84        1.315E-3      -68.06        0.57713       43.14          
2464.7900     0.23065       -39.83        1.257E-3      -80.11        1.297E-3      -68.07        0.58024       43.30          
2467.7800     0.22894       -40.68        1.167E-3      -77.52        1.29E-3       -74.60        0.58267       43.59          
2470.7700     0.22807       -41.58        1.277E-3      -77.76        1.157E-3      -78.24        0.58449       43.98          
2473.7600     0.22776       -42.49        1.203E-3      -82.34        1.271E-3      -77.14        0.58543       44.42          
2476.7500     0.22805       -43.39        1.236E-3      -85.24        1.044E-3      -79.34        0.58542       44.88          
2479.7400     0.22856       -44.15        1.264E-3      -86.80        1.141E-3      -82.46        0.58433       45.33          
2482.7300     0.22926       -44.81        1.244E-3      -87.78        1.203E-3      -88.09        0.58247       45.74          
2485.7200     0.22982       -45.41        1.176E-3      -93.17        1.199E-3      -90.69        0.57993       46.07          
2488.7100     0.22959       -45.97        1.266E-3      -94.11        1.094E-3      -91.80        0.57671       46.26          
2491.7000     0.22792       -46.41        1.299E-3      -100.18       1.244E-3      -96.07        0.57314       46.33          
2494.6900     0.22513       -46.79        1.308E-3      -98.75        1.302E-3      -102.94       0.56958       46.24          
2497.6800     0.2206        -46.98        1.23E-3       -102.19       1.209E-3      -97.11        0.5658        45.97          
2500.6700     0.21545       -47.02        1.311E-3      -101.91       1.304E-3      -104.52       0.5629        45.55          
2503.6600     0.20982       -47.08        1.367E-3      -104.85       1.301E-3      -109.70       0.56045       45.03          
2506.6500     0.20375       -47.32        1.414E-3      -113.67       1.276E-3      -115.32       0.55878       44.39          
2509.6400     0.19705       -47.71        1.337E-3      -115.59       1.29E-3       -112.67       0.55786       43.71          
2512.6300     0.19003       -48.30        1.337E-3      -117.83       1.31E-3       -117.69       0.55799       43.02          
2515.6200     0.18292       -49.15        1.243E-3      -119.48       1.228E-3      -113.02       0.55906       42.34          
2518.6100     0.17592       -50.20        1.273E-3      -121.05       1.288E-3      -121.87       0.56131       41.76          
2521.6000     0.16938       -51.50        1.321E-3      -126.34       1.255E-3      -122.21       0.56393       41.29          
2524.5900     0.16345       -52.92        1.34E-3       -127.73       1.199E-3      -131.14       0.56732       40.96          
2527.5800     0.15815       -54.33        1.371E-3      -133.83       1.234E-3      -128.49       0.57086       40.81          
2530.5700     0.15363       -55.71        1.21E-3       -135.75       1.298E-3      -134.71       0.57444       40.82          
2533.5600     0.14969       -56.94        1.256E-3      -140.74       1.224E-3      -137.01       0.57765       40.96          
2536.5500     0.14623       -57.89        1.174E-3      -140.85       1.278E-3      -138.39       0.58028       41.26          
2539.5400     0.14288       -58.42        1.302E-3      -145.77       1.217E-3      -147.42       0.58213       41.65          
2542.5300     0.1395        -58.57        1.219E-3      -147.91       1.245E-3      -152.96       0.58295       42.12          
2545.5200     0.13583       -58.29        1.366E-3      -153.78       1.19E-3       -154.42       0.58287       42.62          
2548.5100     0.13189       -57.53        1.305E-3      -159.19       1.337E-3      -157.82       0.5819        43.10          
2551.5000     0.12744       -56.39        1.38E-3       -162.13       1.21E-3       -157.32       0.57991       43.52          
2554.4900     0.12248       -54.91        1.281E-3      -163.12       1.241E-3      -163.24       0.57713       43.86          
2557.4800     0.11717       -52.99        1.251E-3      -162.20       1.276E-3      -163.35       0.57352       44.05          
2560.4700     0.11146       -50.85        1.156E-3      -168.01       1.231E-3      -171.98       0.56992       44.10          
2563.4600     0.10575       -48.48        1.281E-3      -169.92       1.265E-3      -169.02       0.56591       44.00          
2566.4500     0.10007       -45.92        1.233E-3      -176.81       1.213E-3      -177.41       0.56207       43.71          
2569.4400     0.0949        -43.37        1.184E-3      -172.60       1.093E-3      -178.56       0.55874       43.28          
2572.4300     0.08995       -40.97        1.197E-3      178.15        1.127E-3      179.52        0.55583       42.69          
2575.4200     0.08563       -38.83        9.825E-4      169.07        1.127E-3      177.45        0.55406       42.02          
2578.4100     0.08221       -36.85        1.106E-3      168.53        9.747E-4      166.68        0.55341       41.27          
2581.4000     0.07954       -35.35        1.118E-3      166.06        1.156E-3      170.20        0.55391       40.54          
2584.3900     0.07808       -34.31        1.123E-3      164.94        1.08E-3       169.08        0.5553        39.85          
2587.3800     0.0772        -33.46        1.08E-3       160.15        1.083E-3      165.08        0.55791       39.27          
2590.3700     0.07752       -32.99        1.033E-3      160.81        9.946E-4      155.37        0.56122       38.83          
2593.3600     0.07888       -32.62        1.09E-3       155.16        1.034E-3      151.70        0.56493       38.55          
2596.3500     0.08103       -32.33        9.799E-4      150.97        9.521E-4      146.99        0.56885       38.44          
2599.3400     0.08386       -31.84        9.014E-4      147.18        9.288E-4      149.83        0.57239       38.52          
2602.3300     0.08721       -31.45        9.208E-4      146.25        9.842E-4      143.26        0.57564       38.74          
2605.3200     0.09093       -30.86        9.275E-4      147.63        8.578E-4      140.65        0.57798       39.11          
2608.3100     0.09477       -30.24        9.386E-4      141.61        9.634E-4      143.28        0.57958       39.57          
2611.3000     0.09839       -29.58        1.007E-3      141.98        9.781E-4      143.91        0.58015       40.09          
2614.2900     0.10155       -28.84        7.847E-4      138.82        7.992E-4      135.77        0.57942       40.62          
2617.2800     0.10412       -28.30        8.562E-4      139.76        8.92E-4       145.38        0.57793       41.12          
2620.2700     0.10607       -27.80        8.901E-4      135.88        8.133E-4      135.16        0.57514       41.54          
2623.2600     0.10715       -27.58        8.973E-4      130.36        8.534E-4      131.82        0.57171       41.84          
2626.2500     0.10765       -27.58        8.145E-4      134.27        8.40E-4       123.88        0.56755       42.01          
2629.2400     0.10724       -27.84        8.342E-4      133.09        7.753E-4      128.57        0.56307       42.02          
2632.2300     0.10614       -28.56        7.407E-4      121.51        9.047E-4      121.01        0.55858       41.83          
2635.2200     0.10455       -29.68        9.095E-4      125.75        8.438E-4      118.11        0.55411       41.46          
2638.2100     0.10258       -31.17        6.885E-4      120.52        8.176E-4      128.97        0.55054       40.94          
2641.2000     0.10056       -33.17        8.137E-4      120.96        7.544E-4      115.89        0.54779       40.26          
2644.1900     0.0985        -35.45        8.494E-4      116.36        8.644E-4      113.69        0.54594       39.48          
2647.1800     0.09683       -38.11        8.35E-4       112.31        9.02E-4       119.11        0.54558       38.68          
2650.1700     0.0954        -40.75        8.386E-4      118.65        7.619E-4      114.52        0.54648       37.87          
2653.1600     0.09453       -43.48        7.924E-4      108.09        8.268E-4      118.57        0.54861       37.14          
2656.1500     0.09387       -46.07        7.691E-4      107.44        7.942E-4      105.98        0.55163       36.52          
2659.1400     0.0935        -48.46        7.986E-4      111.08        8.746E-4      105.60        0.55558       36.09          
2662.1300     0.09315       -50.47        8.528E-4      100.79        8.356E-4      106.11        0.55974       35.83          
2665.1200     0.09248       -52.06        8.496E-4      98.67         7.309E-4      105.33        0.56399       35.75          
2668.1100     0.09157       -53.37        7.09E-4       100.73        7.284E-4      96.06         0.56798       35.87          
2671.1000     0.09022       -54.24        7.973E-4      99.34         8.267E-4      98.90         0.57145       36.14          
2674.0900     0.0883        -54.83        8.231E-4      92.74         8.121E-4      93.24         0.5739        36.54          
2677.0800     0.08558       -55.24        8.477E-4      92.30         7.192E-4      97.02         0.57558       37.01          
2680.0700     0.08233       -55.46        7.96E-4       89.07         8.32E-4       96.05         0.57605       37.53          
2683.0600     0.07817       -55.48        7.292E-4      85.66         8.098E-4      84.11         0.575         38.09          
2686.0500     0.07365       -55.65        7.937E-4      91.10         7.43E-4       84.22         0.57363       38.55          
2689.0400     0.06844       -55.83        8.338E-4      84.26         7.658E-4      87.17         0.57097       38.96          
2692.0300     0.06282       -56.08        7.791E-4      72.68         8.915E-4      77.41         0.56743       39.25          
2695.0200     0.05708       -56.53        6.831E-4      76.81         7.669E-4      71.13         0.56345       39.40          
2698.0100     0.0514        -57.03        7.595E-4      71.49         7.552E-4      68.19         0.55902       39.38          
2701.0000     0.04577       -57.88        7.987E-4      72.18         7.632E-4      65.03         0.55477       39.14          
2703.9900     0.04034       -59.04        7.93E-4       70.77         8.71E-4       67.16         0.55098       38.77          
2706.9800     0.03527       -60.24        7.57E-4       60.21         8.507E-4      67.35         0.54795       38.22          
2709.9700     0.03044       -61.44        7.509E-4      61.30         7.316E-4      65.21         0.54583       37.55          
2712.9600     0.02605       -62.33        7.505E-4      58.42         8.404E-4      63.88         0.54488       36.84          
2715.9500     0.02205       -61.96        7.129E-4      57.94         7.188E-4      58.45         0.54521       36.09          
2718.9400     0.01833       -59.86        7.338E-4      52.87         7.57E-4       56.13         0.54692       35.39          
2721.9300     0.01489       -53.94        6.689E-4      50.78         7.704E-4      53.50         0.5496        34.78          
2724.9200     0.01236       -42.82        6.981E-4      41.00         6.626E-4      46.32         0.55302       34.34          
2727.9100     0.01101       -23.64        7.804E-4      45.76         7.345E-4      44.53         0.55701       34.06          
2730.9000     0.01173       -1.86         6.763E-4      54.83         7.31E-4       47.72         0.56123       33.95          
2733.8900     0.01443       15.74         7.351E-4      47.91         6.554E-4      46.63         0.56517       34.04          
2736.8800     0.01826       27.08         7.734E-4      39.06         7.161E-4      35.98         0.5685        34.28          
2739.8700     0.02295       33.87         7.644E-4      36.65         7.255E-4      37.69         0.57122       34.67          
2742.8600     0.0281        37.77         5.527E-4      37.71         6.968E-4      37.04         0.57309       35.16          
2745.8500     0.03312       40.21         6.459E-4      32.39         6.734E-4      37.82         0.57382       35.72          
2748.8400     0.03771       42.38         6.841E-4      34.71         5.616E-4      39.91         0.5735        36.32          
2751.8300     0.0421        44.42         7.26E-4       32.67         7.475E-4      27.03         0.57159       36.90          
2754.8200     0.04619       46.18         7.83E-4       30.99         5.927E-4      32.09         0.56887       37.43          
2757.8100     0.04995       47.74         6.311E-4      26.81         6.117E-4      33.51         0.56488       37.86          
2760.8000     0.05333       49.35         6.536E-4      20.92         6.529E-4      39.32         0.56037       38.13          
2763.7900     0.05649       50.80         5.914E-4      19.04         6.596E-4      30.60         0.55521       38.23          
2766.7800     0.05894       52.01         6.105E-4      19.18         6.361E-4      23.35         0.55011       38.13          
2769.7700     0.06097       52.93         7.334E-4      23.32         7.896E-4      19.82         0.54493       37.84          
2772.7600     0.0627        53.75         7.403E-4      23.88         7.447E-4      28.45         0.54057       37.33          
2775.7500     0.06397       54.52         7.291E-4      14.47         7.311E-4      26.15         0.53699       36.68          
2778.7400     0.06501       55.03         7.203E-4      14.84         7.704E-4      21.38         0.53465       35.89          
2781.7300     0.06594       55.48         6.88E-4       15.68         6.503E-4      17.12         0.53373       35.04          
2784.7200     0.06674       56.04         7.029E-4      5.11          6.982E-4      11.24         0.53419       34.18          
2787.7100     0.06777       56.33         6.979E-4      6.39          7.569E-4      10.05         0.53579       33.37          
2790.7000     0.0689        56.67         7.267E-4      8.74          7.341E-4      2.68          0.53885       32.67          
2793.6900     0.07064       56.91         7.834E-4      -2.35         7.62E-4       2.99          0.54268       32.11          
2796.6800     0.0726        57.12         7.732E-4      -3.37         7.622E-4      -2.21         0.54703       31.75          
2799.6700     0.07478       57.47         8.091E-4      -9.60         7.741E-4      -10.23        0.55178       31.57          
2802.6600     0.07753       57.93         7.511E-4      -2.51         7.321E-4      -7.70         0.55607       31.58          
2805.6500     0.08093       58.47         8.747E-4      -9.22         7.626E-4      -8.29         0.56031       31.76          
2808.6400     0.08452       59.25         8.079E-4      -17.50        7.985E-4      -10.99        0.56355       32.15          
2811.6300     0.08845       60.18         6.864E-4      -16.73        7.83E-4       -12.79        0.56588       32.61          
2814.6200     0.09281       61.13         7.238E-4      -24.93        7.778E-4      -23.57        0.56699       33.18          
2817.6100     0.09732       62.39         6.78E-4       -23.18        8.148E-4      -19.80        0.56709       33.79          
2820.6000     0.10201       63.54         7.408E-4      -32.44        8.034E-4      -22.62        0.56591       34.37          
2823.5900     0.10684       64.88         7.093E-4      -25.60        9.27E-4       -27.25        0.56342       34.91          
2826.5800     0.1117        66.19         6.728E-4      -24.86        7.525E-4      -29.81        0.56035       35.35          
2829.5700     0.11631       67.47         6.70E-4       -29.09        7.972E-4      -40.26        0.5563        35.67          
2832.5600     0.12086       68.63         7.851E-4      -39.12        7.382E-4      -36.42        0.55189       35.81          
2835.5500     0.12531       69.75         6.641E-4      -34.43        7.685E-4      -33.59        0.54738       35.80          
2838.5400     0.12951       70.72         7.364E-4      -43.47        7.647E-4      -38.77        0.54293       35.59          
2841.5300     0.13369       71.56         7.391E-4      -41.11        7.016E-4      -43.96        0.53909       35.21          
2844.5200     0.13764       72.17         7.617E-4      -43.54        7.011E-4      -48.61        0.53593       34.69          
2847.5100     0.14169       72.62         8.149E-4      -47.41        7.384E-4      -52.49        0.53382       34.04          
2850.5000     0.14544       72.72         6.776E-4      -50.42        7.48E-4       -47.38        0.53274       33.33          
2853.4900     0.14901       72.58         7.365E-4      -56.79        7.642E-4      -55.72        0.53296       32.60          
2856.4800     0.15208       72.24         6.687E-4      -51.29        6.782E-4      -59.07        0.53433       31.90          
2859.4700     0.15497       71.91         7.514E-4      -63.42        7.228E-4      -60.59        0.53669       31.29          
2862.4600     0.15806       71.52         6.094E-4      -71.52        7.754E-4      -60.88        0.53986       30.79          
2865.4500     0.16157       71.16         7.665E-4      -69.85        7.394E-4      -66.09        0.54361       30.44          
2868.4400     0.16548       70.79         7.231E-4      -75.59        7.221E-4      -65.21        0.54767       30.27          
2871.4300     0.16952       70.43         6.461E-4      -72.44        7.209E-4      -76.91        0.55146       30.29          
2874.4200     0.17412       70.12         7.536E-4      -76.73        6.362E-4      -82.54        0.55489       30.47          
2877.4100     0.17889       69.90         7.12E-4       -79.56        7.093E-4      -87.15        0.55771       30.79          
2880.4000     0.18388       69.86         7.546E-4      -83.75        6.299E-4      -78.57        0.55975       31.22          
2883.3900     0.18867       69.92         5.822E-4      -92.07        6.806E-4      -88.06        0.56058       31.74          
2886.3800     0.19365       70.11         6.513E-4      -86.76        6.238E-4      -87.49        0.56067       32.27          
2889.3700     0.19849       70.44         6.902E-4      -93.92        6.369E-4      -87.03        0.55953       32.84          
2892.3600     0.20323       70.91         6.065E-4      -95.20        6.873E-4      -88.61        0.55757       33.34          
2895.3500     0.2075        71.46         5.559E-4      -95.74        6.902E-4      -103.42       0.55494       33.77          
2898.3400     0.21158       72.08         6.248E-4      -97.84        6.174E-4      -98.27        0.5515        34.10          
2901.3300     0.21503       72.71         6.234E-4      -104.30       6.448E-4      -101.13       0.5475        34.29          
2904.3200     0.21805       73.39         5.811E-4      -99.83        5.604E-4      -109.91       0.54354       34.34          
2907.3100     0.22065       74.02         5.387E-4      -102.83       6.205E-4      -103.63       0.53957       34.21          
2910.3000     0.22288       74.59         5.051E-4      -115.42       5.785E-4      -110.79       0.53578       33.92          
2913.2900     0.22493       75.04         5.596E-4      -117.34       6.331E-4      -106.78       0.53276       33.52          
2916.2800     0.22674       75.41         5.941E-4      -109.08       6.566E-4      -111.63       0.53047       32.96          
2919.2700     0.22864       75.58         5.603E-4      -115.07       5.119E-4      -115.56       0.52909       32.34          
2922.2600     0.23064       75.66         5.917E-4      -110.87       5.234E-4      -114.59       0.52863       31.67          
2925.2500     0.23275       75.59         5.641E-4      -110.58       4.878E-4      -116.37       0.52941       31.04          
2928.2400     0.23529       75.46         5.739E-4      -115.76       5.016E-4      -114.42       0.53088       30.44          
2931.2300     0.23816       75.27         6.208E-4      -120.99       5.909E-4      -109.98       0.53339       29.96          
2934.2200     0.24157       75.02         5.209E-4      -115.22       4.953E-4      -106.96       0.5364        29.61          
2937.2100     0.24559       74.84         5.719E-4      -117.08       5.746E-4      -116.96       0.53953       29.39          
2940.2000     0.25003       74.73         6.461E-4      -127.28       5.414E-4      -120.06       0.54265       29.34          
2943.1900     0.25479       74.71         4.745E-4      -121.99       6.034E-4      -111.35       0.5456        29.45          
2946.1800     0.25986       74.83         7.398E-4      -113.85       6.056E-4      -115.39       0.54803       29.67          
2949.1700     0.26502       75.08         5.275E-4      -110.22       6.006E-4      -119.50       0.54966       30.00          
2952.1600     0.27026       75.50         5.996E-4      -124.19       6.462E-4      -120.16       0.55076       30.43          
2955.1500     0.27537       76.00         6.46E-4       -127.58       6.303E-4      -124.11       0.55096       30.92          
2958.1400     0.28016       76.58         5.65E-4       -131.14       6.018E-4      -120.95       0.54999       31.41          
2961.1300     0.28446       77.27         6.185E-4      -138.29       7.032E-4      -127.46       0.54828       31.89          
2964.1200     0.28817       78.00         7.20E-4       -139.76       7.337E-4      -138.08       0.54578       32.28          
2967.1100     0.29109       78.76         7.264E-4      -134.66       7.655E-4      -132.36       0.54267       32.58          
2970.1000     0.2933        79.44         7.033E-4      -143.91       7.889E-4      -142.10       0.53881       32.75          
2973.0900     0.29491       80.06         7.858E-4      -143.59       7.781E-4      -147.24       0.53479       32.77          
2976.0800     0.29603       80.60         7.768E-4      -148.47       7.817E-4      -147.89       0.53085       32.62          
2979.0700     0.29671       81.05         7.501E-4      -153.74       6.587E-4      -149.36       0.52694       32.32          
2982.0600     0.29714       81.33         7.418E-4      -152.03       7.591E-4      -158.68       0.52371       31.86          
2985.0500     0.2976        81.51         8.529E-4      -164.47       8.078E-4      -154.01       0.52105       31.24          
2988.0400     0.29819       81.59         8.471E-4      -164.00       7.633E-4      -161.78       0.51953       30.56          
2991.0300     0.29898       81.57         7.397E-4      -179.11       7.753E-4      -166.27       0.51921       29.83          
2994.0200     0.30039       81.51         7.967E-4      -173.99       8.834E-4      -177.77       0.51943       29.10          
2997.0100     0.30265       81.42         9.139E-4      -172.79       8.39E-4       173.16        0.5209        28.39          
3000.0000     0.30485       81.40         6.674E-4      177.72        7.481E-4      178.09        0.52255       27.66          
