!    08/05/2026   14:42:30 
! Ref Plane: 0.000 mm
# MHZ S MA R  50
!
10.0000       1.00095       -178.87       4.954E-5      98.63         4.701E-5      28.93         0.99479       179.24         
12.9900       1.00145       -178.57       9.418E-5      120.05        1.046E-4      48.69         0.99491       178.96         
15.9800       1.0016        -178.27       1.158E-4      -172.32       7.439E-5      122.63        0.99506       178.71         
18.9700       1.00186       -177.99       6.943E-5      92.95         5.605E-5      4.66          0.99504       178.48         
21.9600       1.00224       -177.69       8.922E-5      121.76        1.795E-5      176.64        0.99511       178.32         
24.9500       1.00254       -177.39       8.722E-5      -73.60        4.923E-5      53.67         0.99512       178.17         
27.9400       1.00281       -177.10       8.267E-5      144.14        4.958E-5      50.61         0.99507       178.06         
30.9300       1.00294       -176.82       2.718E-5      43.81         1.14E-4       18.49         0.99503       177.97         
33.9200       1.00311       -176.52       8.00E-5       -102.60       7.028E-5      -23.06        0.99489       177.89         
36.9100       1.00327       -176.23       7.179E-5      15.92         6.768E-5      57.74         0.99492       177.82         
39.9000       1.00313       -175.94       4.806E-5      34.01         5.968E-5      -111.48       0.99487       177.74         
42.8900       1.00319       -175.65       2.904E-5      -59.46        2.018E-5      40.37         0.99473       177.65         
45.8800       1.00318       -175.37       3.151E-5      -60.67        2.872E-5      145.32        0.99455       177.55         
48.8700       1.00316       -175.01       1.364E-4      19.46         1.13E-4       -84.93        0.99439       177.46         
51.8600       1.00293       -174.77       5.863E-5      -108.79       7.572E-5      -75.15        0.99405       177.20         
54.8500       1.00402       -174.56       7.409E-5      177.41        8.808E-5      -145.68       0.99415       177.04         
57.8400       1.00305       -174.18       4.278E-5      111.38        8.516E-5      27.75         0.99398       176.81         
60.8300       1.00317       -173.88       1.534E-5      148.37        7.897E-5      -102.16       0.99374       176.55         
63.8200       1.00321       -173.58       4.175E-5      -6.08         1.065E-4      -124.53       0.99351       176.26         
66.8100       1.00323       -173.26       6.45E-5       -48.37        1.606E-5      22.48         0.99341       175.96         
69.8000       1.00374       -172.95       1.878E-5      -108.08       8.76E-5       -51.14        0.99309       175.64         
72.7900       1.00403       -172.64       1.368E-5      -3.61         2.173E-5      -154.63       0.99295       175.32         
75.7800       1.00434       -172.32       4.552E-5      -51.40        7.661E-5      -118.01       0.99264       175.02         
78.7700       1.0045        -171.98       9.279E-5      -26.01        3.005E-5      178.00        0.99248       174.73         
81.7600       1.0047        -171.67       4.819E-5      164.14        4.792E-5      -99.28        0.99224       174.47         
84.7500       1.00486       -171.38       4.333E-5      -83.36        1.076E-4      124.72        0.99205       174.23         
87.7400       1.00507       -171.09       1.184E-4      161.46        9.725E-5      140.55        0.99191       174.04         
90.7300       1.00524       -170.81       3.524E-5      142.75        8.954E-5      -137.94       0.99174       173.89         
93.7200       1.00589       -170.45       6.765E-5      -68.53        2.184E-5      35.91         0.99173       173.77         
96.7100       1.00551       -170.20       6.181E-5      -178.56       1.063E-4      -82.48        0.99134       173.67         
99.7000       1.0054        -169.91       3.025E-5      -135.02       4.894E-5      -65.95        0.99127       173.60         
102.6900      1.00517       -169.63       6.556E-5      50.05         3.433E-5      -162.22       0.99099       173.57         
105.6800      1.00514       -169.35       6.778E-6      -87.63        7.269E-5      -100.98       0.99084       173.55         
108.6700      1.00509       -169.08       8.738E-5      -87.10        9.11E-5       -34.07        0.99089       173.52         
111.6600      1.00477       -168.78       7.149E-5      10.43         6.69E-5       -93.83        0.99063       173.47         
114.6500      1.00453       -168.47       5.796E-5      88.24         1.376E-4      -57.70        0.99042       173.42         
117.6400      1.00442       -168.19       1.066E-4      141.87        2.504E-5      -0.69         0.9904        173.34         
120.6300      1.00455       -167.88       8.398E-5      -21.05        6.905E-5      -74.61        0.99015       173.23         
123.6200      1.00472       -167.58       7.019E-5      39.99         6.365E-5      -34.77        0.98997       173.07         
126.6100      1.00458       -167.25       2.363E-5      110.28        1.896E-4      -112.86       0.9899        172.88         
129.6000      1.00471       -166.92       2.975E-5      -135.08       2.615E-5      -159.97       0.98963       172.66         
132.5900      1.00478       -166.60       5.887E-5      -97.62        1.281E-4      -60.75        0.98919       172.41         
135.5800      1.00463       -166.27       2.751E-5      107.43        3.484E-5      54.34         0.989         172.13         
138.5700      1.00471       -165.95       4.362E-5      92.50         8.993E-5      -14.08        0.98885       171.82         
141.5600      1.00499       -165.66       3.239E-5      99.05         2.987E-5      -65.74        0.9886        171.51         
144.5500      1.00541       -165.38       4.577E-5      -87.93        2.432E-5      177.40        0.98831       171.19         
147.5400      1.00586       -165.07       5.486E-5      -103.50       9.904E-5      -59.84        0.98804       170.88         
150.5300      1.0062        -164.77       3.559E-5      -97.43        5.531E-5      -33.07        0.98775       170.59         
153.5200      1.00646       -164.47       1.192E-5      19.81         3.093E-5      60.27         0.98739       170.33         
156.5100      1.00637       -164.17       4.111E-5      -111.61       8.198E-5      -55.25        0.98716       170.09         
159.5000      1.00651       -163.88       6.604E-5      -115.22       4.825E-5      -36.02        0.98674       169.90         
162.4900      1.0065        -163.62       3.824E-5      90.73         1.082E-4      -167.20       0.98644       169.74         
165.4800      1.00634       -163.35       4.177E-5      47.16         4.228E-5      -77.79        0.9861        169.60         
168.4700      1.00614       -163.07       5.162E-5      -30.05        9.357E-5      -30.54        0.98579       169.48         
171.4600      1.00618       -162.76       4.569E-5      -59.43        8.138E-5      -108.02       0.98573       169.41         
174.4500      1.0061        -162.46       2.882E-5      -104.94       5.549E-5      50.56         0.98538       169.35         
177.4400      1.00572       -162.16       5.824E-5      128.91        6.834E-5      -125.26       0.98525       169.29         
180.4300      1.00524       -161.86       7.00E-5       -46.62        6.781E-5      -168.58       0.98507       169.23         
183.4200      1.0049        -161.54       6.196E-5      171.64        1.064E-5      -51.87        0.98483       169.14         
186.4100      1.00439       -161.24       3.734E-5      130.04        3.69E-5       157.91        0.98461       169.04         
189.4000      1.00398       -160.93       1.235E-4      142.99        4.111E-5      -41.01        0.98447       168.91         
192.3900      1.0036        -160.60       8.332E-6      160.93        8.752E-5      -8.35         0.98429       168.75         
195.3800      1.00378       -160.32       3.848E-5      102.09        4.691E-5      -84.26        0.98425       168.54         
198.3700      1.00401       -160.03       5.229E-5      179.47        5.749E-5      -103.73       0.98404       168.30         
201.3600      1.00459       -159.73       7.353E-5      -77.73        3.787E-5      -108.08       0.9838        168.03         
204.3500      1.00501       -159.41       4.372E-5      -45.64        1.879E-5      -129.16       0.98372       167.72         
207.3400      1.00554       -159.08       2.899E-5      -59.57        1.258E-4      64.07         0.98347       167.41         
210.3300      1.00602       -158.75       5.886E-5      50.70         8.086E-5      179.24        0.98303       167.08         
213.3200      1.00596       -158.45       4.868E-6      32.72         6.035E-5      1.26          0.98265       166.75         
216.3100      1.00609       -158.15       1.13E-5       48.40         5.417E-5      -28.06        0.98223       166.42         
219.3000      1.00638       -157.89       7.116E-5      141.17        7.043E-5      -111.05       0.98174       166.12         
222.2900      1.00696       -157.59       6.638E-5      -10.77        2.618E-5      123.82        0.98143       165.83         
225.2800      1.00752       -157.25       3.063E-5      -69.66        1.055E-4      -82.76        0.98102       165.58         
228.2700      1.00745       -156.91       4.583E-5      160.16        4.571E-5      -7.82         0.98045       165.37         
231.2600      1.00733       -156.59       1.024E-4      0.87          6.744E-5      -61.40        0.98018       165.21         
234.2500      1.00665       -156.28       3.438E-5      121.02        4.508E-5      93.67         0.97974       165.08         
237.2400      1.00601       -155.96       2.553E-5      115.31        9.814E-5      -50.82        0.97917       164.99         
240.2300      1.00533       -155.65       6.34E-5       -123.68       7.063E-5      -56.81        0.97876       164.91         
243.2200      1.00453       -155.35       4.338E-5      -107.93       6.427E-5      -46.89        0.97829       164.86         
246.2100      1.00384       -155.04       3.527E-5      48.46         1.762E-5      4.89          0.97817       164.82         
249.2000      1.00358       -154.74       2.523E-5      -27.50        1.064E-4      120.17        0.97802       164.77         
252.1900      1.00351       -154.45       6.991E-5      -24.57        4.503E-5      39.15         0.97794       164.73         
255.1800      1.00348       -154.15       2.99E-5       63.80         1.709E-5      -92.45        0.97812       164.65         
258.1700      1.00377       -153.85       6.478E-5      161.19        4.732E-5      126.11        0.97804       164.55         
261.1600      1.00415       -153.53       7.059E-5      114.55        1.165E-4      47.70         0.97825       164.41         
264.1500      1.0045        -153.20       2.273E-5      99.79         2.255E-5      20.73         0.97829       164.21         
267.1400      1.00457       -152.89       4.968E-5      10.88         7.363E-5      -25.84        0.97837       163.97         
270.1300      1.00511       -152.60       3.419E-5      73.66         2.232E-5      -25.12        0.97781       163.67         
273.1200      1.00614       -152.33       2.145E-5      144.47        4.99E-5       -83.89        0.97625       163.35         
276.1100      1.00736       -152.05       2.699E-5      -51.39        2.381E-5      171.12        0.97431       163.07         
279.1000      1.00832       -151.72       3.144E-5      57.46         8.833E-5      -81.02        0.97315       162.81         
282.0900      1.00839       -151.36       6.562E-5      81.61         4.355E-5      -100.62       0.97302       162.53         
285.0800      1.00804       -150.99       5.456E-5      10.60         1.146E-4      -13.26        0.97306       162.22         
288.0700      1.00756       -150.62       2.889E-5      -90.90        7.42E-5       -125.90       0.97284       161.90         
291.0600      1.00696       -150.29       3.844E-5      -85.33        6.573E-5      -104.25       0.97241       161.61         
294.0500      1.00616       -149.97       7.379E-5      -51.91        6.136E-5      -0.26         0.97184       161.33         
297.0400      1.00518       -149.64       6.46E-5       -87.42        1.29E-5       43.51         0.97113       161.08         
300.0300      1.00438       -149.32       5.639E-5      156.88        6.636E-5      -54.37        0.97038       160.86         
303.0200      1.00354       -149.01       4.555E-5      8.37          3.573E-5      -46.43        0.96966       160.67         
306.0100      1.00289       -148.69       2.198E-5      1.22          1.28E-4       -132.04       0.9692        160.53         
309.0000      1.00243       -148.39       6.917E-5      -135.47       2.442E-5      -146.35       0.96893       160.40         
311.9900      1.00217       -148.09       1.193E-5      8.27          7.404E-5      -85.96        0.96862       160.31         
314.9800      1.00177       -147.78       4.359E-5      38.61         2.891E-5      -125.38       0.9684        160.23         
317.9700      1.00139       -147.49       5.689E-5      130.25        2.247E-5      77.97         0.96805       160.14         
320.9600      1.00132       -147.21       2.153E-5      -101.91       5.81E-5       39.03         0.96799       160.04         
323.9500      1.00182       -146.93       2.209E-5      -122.39       1.33E-4       122.33        0.96781       159.93         
326.9400      1.00265       -146.65       2.573E-5      172.30        4.665E-5      69.11         0.96776       159.78         
329.9300      1.00402       -146.34       4.954E-5      133.15        3.236E-5      -16.14        0.96752       159.62         
332.9200      1.00514       -146.00       4.189E-5      -33.09        1.058E-4      80.29         0.96718       159.42         
335.9100      1.00607       -145.62       1.255E-5      74.40         2.782E-5      26.37         0.96676       159.18         
338.9000      1.00652       -145.21       4.452E-5      43.14         9.181E-5      -34.20        0.96614       158.90         
341.8900      1.00654       -144.82       2.805E-5      156.96        7.984E-5      -66.58        0.96566       158.61         
344.8800      1.00636       -144.45       2.867E-5      174.86        8.195E-5      -156.24       0.96489       158.29         
347.8700      1.00614       -144.11       9.826E-5      129.51        3.702E-5      -0.36         0.96397       157.97         
350.8600      1.00574       -143.76       5.908E-5      147.31        5.84E-5       68.49         0.96282       157.64         
353.8500      1.00537       -143.41       3.91E-5       151.67        8.398E-5      -100.53       0.9617        157.31         
356.8400      1.00469       -143.08       4.423E-5      -18.54        8.389E-5      56.60         0.96048       157.00         
359.8300      1.00402       -142.75       5.178E-5      155.00        2.928E-5      31.30         0.95929       156.70         
362.8200      1.00345       -142.42       4.26E-5       4.48          9.773E-5      36.46         0.95811       156.44         
365.8100      1.00266       -142.11       4.537E-5      -43.65        8.971E-6      141.67        0.9573        156.21         
368.8000      1.00162       -141.80       3.502E-5      121.22        1.227E-5      -82.84        0.95638       156.03         
371.7900      1.00067       -141.54       4.841E-5      -160.66       1.129E-4      79.48         0.95567       155.88         
374.7800      1.00039       -141.26       2.295E-5      -54.81        1.382E-4      101.50        0.95523       155.77         
377.7700      1.00026       -141.01       6.354E-5      66.04         4.44E-5       30.22         0.95463       155.68         
380.7600      1.00094       -140.73       4.679E-6      97.05         1.188E-4      57.01         0.95435       155.60         
383.7500      1.00191       -140.40       6.492E-5      15.87         1.628E-4      34.94         0.95411       155.52         
386.7400      1.00294       -140.08       5.082E-5      31.84         7.085E-5      32.38         0.95392       155.44         
389.7300      1.00397       -139.74       1.593E-5      -102.10       1.163E-4      39.78         0.95382       155.34         
392.7200      1.00457       -139.35       9.574E-5      -9.44         3.276E-5      -17.30        0.95366       155.22         
395.7100      1.0047        -138.97       3.812E-5      17.49         4.314E-5      -0.29         0.95355       155.05         
398.7000      1.00451       -138.59       4.606E-5      6.88          7.978E-5      -46.43        0.95305       154.84         
401.6900      1.00435       -138.24       3.285E-5      -32.30        4.628E-5      22.53         0.95199       154.59         
404.6800      1.00418       -137.88       1.136E-4      38.85         1.03E-4       152.12        0.95056       154.31         
407.6700      1.00411       -137.51       7.532E-5      14.60         8.461E-5      61.66         0.94872       154.02         
410.6600      1.00392       -137.14       6.347E-5      31.55         5.343E-5      23.18         0.94681       153.69         
413.6500      1.00365       -136.76       6.739E-5      43.71         6.958E-5      57.08         0.94538       153.35         
416.6400      1.00269       -136.41       1.218E-4      9.79          1.074E-4      -29.38        0.94385       152.98         
419.6300      1.00152       -136.07       9.159E-5      16.03         1.535E-4      19.83         0.94218       152.59         
422.6200      0.99989       -135.75       3.113E-5      -48.01        7.836E-5      117.17        0.94073       152.19         
425.6100      0.99846       -135.44       9.628E-5      -21.50        1.017E-4      -20.51        0.93915       151.81         
428.6000      0.99741       -135.17       6.519E-5      -51.66        1.578E-4      -0.88         0.93761       151.45         
431.5900      0.99707       -134.88       5.903E-5      -150.68       9.205E-5      -10.01        0.93632       151.12         
434.5800      0.99756       -134.59       9.474E-5      -38.97        4.269E-5      51.89         0.93493       150.85         
437.5700      0.99824       -134.29       6.825E-5      3.61          1.35E-4       -2.75         0.93368       150.60         
440.5600      0.99905       -133.98       1.252E-4      -23.32        8.707E-5      -137.27       0.9324        150.39         
443.5500      0.99975       -133.65       5.482E-5      12.66         1.237E-4      -92.54        0.9315        150.22         
446.5400      1.00003       -133.31       3.663E-5      -49.74        7.448E-5      -77.82        0.93081       150.07         
449.5300      1.00001       -132.95       1.107E-5      153.54        3.933E-5      -69.58        0.93036       149.96         
452.5200      1.00007       -132.60       3.011E-5      -21.83        1.691E-4      -59.60        0.93003       149.87         
455.5100      0.99994       -132.26       7.868E-5      -101.52       1.363E-4      -42.94        0.92936       149.79         
458.5000      1.00001       -131.92       4.483E-5      -23.01        1.224E-4      -45.29        0.92885       149.70         
461.4900      1.00029       -131.56       1.273E-4      -97.06        1.105E-4      -35.10        0.92809       149.59         
464.4800      1.00086       -131.18       5.607E-5      -71.61        1.017E-4      -38.97        0.92713       149.45         
467.4700      1.00081       -130.77       7.962E-5      -72.12        1.41E-4       -54.63        0.92595       149.27         
470.4600      1.00037       -130.36       5.627E-5      -98.61        9.64E-5       -49.19        0.92443       149.05         
473.4500      0.99928       -129.97       1.908E-4      -44.11        9.618E-6      -117.99       0.92284       148.77         
476.4400      0.99829       -129.62       5.615E-5      -53.35        8.131E-5      -43.71        0.92111       148.45         
479.4300      0.99755       -129.30       6.708E-5      -155.29       1.303E-4      -68.07        0.9189        148.08         
482.4200      0.9968        -129.00       1.02E-4       -69.07        1.171E-4      -117.62       0.91678       147.67         
485.4100      0.99673       -128.73       1.111E-4      -71.05        1.164E-4      -105.52       0.91439       147.24         
488.4000      0.99695       -128.44       1.042E-4      -101.73       1.21E-4       -121.78       0.91199       146.78         
491.3900      0.99742       -128.14       4.453E-5      8.03          1.017E-4      -66.20        0.90966       146.31         
494.3800      0.99768       -127.83       7.503E-5      -75.55        1.153E-4      -84.31        0.9075        145.86         
497.3700      0.99762       -127.50       8.335E-5      -124.17       1.112E-4      -87.48        0.90543       145.42         
500.3600      0.99724       -127.17       3.599E-5      -104.69       1.36E-4       -107.19       0.90331       144.99         
503.3500      0.99672       -126.84       8.625E-5      -144.08       1.012E-4      -68.09        0.90182       144.60         
506.3400      0.99596       -126.54       8.42E-5       -103.73       9.43E-5       -77.50        0.90052       144.25         
509.3300      0.99545       -126.22       9.841E-5      -92.20        1.111E-4      -73.26        0.89985       143.97         
512.3200      0.99509       -125.89       5.259E-5      -5.45         1.161E-4      -57.30        0.89925       143.75         
515.3100      0.99507       -125.56       5.425E-5      -114.72       3.814E-5      -73.60        0.89861       143.59         
518.3000      0.99503       -125.16       1.768E-5      -47.01        8.697E-5      -89.32        0.89812       143.47         
521.2900      0.99462       -124.77       7.924E-5      -85.24        1.581E-4      -112.41       0.8974        143.39         
524.2800      0.99352       -124.37       4.105E-5      -175.89       5.084E-5      -98.97        0.89668       143.33         
527.2700      0.99241       -123.99       2.908E-5      -6.64         7.588E-5      -72.72        0.89587       143.31         
530.2600      0.99114       -123.63       5.154E-5      -45.42        1.086E-4      -55.71        0.89492       143.29         
533.2500      0.99063       -123.31       1.457E-4      -72.49        4.704E-5      -96.50        0.89371       143.28         
536.2400      0.99017       -123.00       6.949E-5      -40.69        8.807E-5      -30.91        0.89219       143.26         
539.2300      0.99013       -122.70       6.97E-5       -89.12        1.21E-4       -108.19       0.89037       143.22         
542.2200      0.99072       -122.39       1.381E-4      -44.69        6.166E-5      -13.37        0.88822       143.17         
545.2100      0.99121       -122.07       1.619E-4      -70.39        7.027E-5      -50.56        0.88565       143.08         
548.2000      0.99156       -121.74       1.334E-4      -62.01        4.292E-5      -43.76        0.88284       142.96         
551.1900      0.99165       -121.40       1.00E-4       -60.14        1.874E-4      -80.79        0.87986       142.80         
554.1800      0.99082       -121.06       1.738E-4      -70.84        1.563E-4      -65.77        0.87673       142.59         
557.1700      0.98989       -120.72       1.637E-4      -77.77        3.166E-4      -96.26        0.8735        142.35         
560.1600      0.98844       -120.42       2.866E-4      -86.52        2.707E-4      -69.74        0.87046       142.07         
563.1500      0.98709       -120.10       2.653E-4      -90.06        2.323E-4      -97.10        0.86744       141.77         
566.1400      0.98607       -119.76       2.216E-4      -100.49       2.427E-4      -77.29        0.86484       141.46         
569.1300      0.98525       -119.40       3.143E-4      -120.81       3.489E-4      -107.77       0.86224       141.15         
572.1200      0.98454       -119.00       2.794E-4      -117.19       2.833E-4      -118.57       0.85977       140.86         
575.1100      0.98386       -118.58       3.217E-4      -140.85       3.729E-4      -132.76       0.85738       140.59         
578.1000      0.983         -118.20       3.469E-4      -126.49       3.597E-4      -116.38       0.85527       140.34         
581.0900      0.98175       -117.84       2.942E-4      -139.11       3.015E-4      -132.40       0.8534        140.09         
584.0800      0.98069       -117.52       3.178E-4      -132.61       3.821E-4      -122.25       0.85191       139.88         
587.0700      0.98004       -117.23       1.932E-4      -151.76       2.775E-4      -137.81       0.85055       139.70         
590.0600      0.98003       -116.95       2.617E-4      -151.57       3.164E-4      -149.26       0.84935       139.54         
593.0500      0.98041       -116.68       2.889E-4      -144.00       2.852E-4      -156.08       0.84833       139.38         
596.0400      0.9809        -116.38       3.478E-4      -156.85       3.276E-4      -154.51       0.84711       139.25         
599.0300      0.98178       -116.07       2.325E-4      -145.64       2.707E-4      -161.06       0.8456        139.11         
602.0200      0.98257       -115.74       3.088E-4      -171.70       2.95E-4       -158.64       0.84395       138.99         
605.0100      0.98301       -115.41       2.883E-4      -165.10       2.693E-4      -168.40       0.84192       138.86         
608.0000      0.98308       -115.08       3.053E-4      179.21        3.528E-4      -159.51       0.83951       138.72         
610.9900      0.9828        -114.77       2.876E-4      -165.52       3.577E-4      -152.31       0.83689       138.57         
613.9800      0.98228       -114.49       2.761E-4      -174.58       3.722E-4      -178.43       0.83417       138.38         
616.9700      0.98174       -114.21       2.912E-4      -177.03       3.481E-4      168.63        0.83129       138.16         
619.9600      0.98102       -113.94       3.351E-4      -168.98       3.508E-4      -161.33       0.82831       137.93         
622.9500      0.98018       -113.66       3.671E-4      -168.73       3.63E-4       -165.27       0.82529       137.69         
625.9400      0.97885       -113.37       3.285E-4      -165.50       4.033E-4      -166.68       0.82224       137.42         
628.9300      0.97717       -113.09       4.217E-4      -165.19       3.961E-4      -171.18       0.81934       137.14         
631.9200      0.97496       -112.83       3.755E-4      -173.39       4.411E-4      -174.04       0.81644       136.85         
634.9100      0.97214       -112.58       4.363E-4      -179.05       5.308E-4      -172.72       0.8137        136.55         
637.9000      0.9695        -112.37       4.675E-4      177.26        6.004E-4      -171.79       0.81113       136.25         
640.8900      0.96701       -112.18       5.369E-4      176.40        5.198E-4      179.87        0.80881       135.95         
643.8800      0.96499       -112.00       5.917E-4      171.42        5.325E-4      169.36        0.80681       135.67         
646.8700      0.96332       -111.82       5.875E-4      167.28        6.198E-4      177.92        0.80504       135.41         
649.8600      0.96176       -111.64       5.846E-4      166.00        6.687E-4      169.37        0.8036        135.17         
652.8500      0.95998       -111.42       6.937E-4      170.27        6.606E-4      164.79        0.80224       134.95         
655.8400      0.95834       -111.19       7.592E-4      159.46        7.217E-4      162.48        0.80082       134.77         
658.8300      0.95631       -110.93       8.322E-4      155.88        8.506E-4      160.02        0.7993        134.61         
661.8200      0.9543        -110.67       8.576E-4      151.19        8.104E-4      155.40        0.79784       134.46         
664.8100      0.95208       -110.41       9.228E-4      142.89        9.036E-4      147.85        0.79607       134.33         
667.8000      0.9495        -110.13       9.637E-4      138.30        9.527E-4      149.45        0.79424       134.20         
670.7900      0.94678       -109.82       1.029E-3      134.53        1.083E-3      135.43        0.79222       134.07         
673.7800      0.94413       -109.49       1.099E-3      129.71        1.11E-3       129.12        0.79013       133.93         
676.7700      0.94132       -109.13       1.099E-3      124.00        1.151E-3      125.75        0.78772       133.78         
679.7600      0.93851       -108.72       1.144E-3      114.51        1.175E-3      114.31        0.78525       133.62         
682.7500      0.93602       -108.32       1.178E-3      109.66        1.19E-3       109.65        0.78245       133.43         
685.7400      0.93451       -107.94       1.24E-3       99.62         1.17E-3       102.76        0.77959       133.22         
688.7300      0.93484       -107.75       1.158E-3      100.05        1.142E-3      100.83        0.77655       132.98         
691.7200      0.93012       -108.05       1.167E-3      103.74        1.183E-3      96.92         0.77353       132.71         
694.7100      0.91637       -107.84       1.293E-3      94.65         1.279E-3      94.91         0.77054       132.42         
697.7000      0.90971       -107.31       1.397E-3      87.05         1.381E-3      86.15         0.7673        132.11         
700.6900      0.90578       -106.88       1.377E-3      79.74         1.389E-3      80.18         0.7643        131.79         
703.6800      0.90298       -106.51       1.425E-3      72.78         1.39E-3       74.51         0.76144       131.49         
706.6700      0.90074       -106.16       1.383E-3      68.53         1.428E-3      66.07         0.75905       131.19         
709.6600      0.89879       -105.86       1.366E-3      61.68         1.363E-3      63.72         0.75691       130.92         
712.6500      0.89692       -105.59       1.371E-3      59.41         1.427E-3      58.77         0.75508       130.67         
715.6400      0.89512       -105.36       1.349E-3      54.49         1.419E-3      55.00         0.75328       130.45         
718.6300      0.89326       -105.13       1.365E-3      49.36         1.379E-3      49.33         0.75159       130.27         
721.6200      0.8917        -104.91       1.341E-3      43.41         1.385E-3      48.41         0.75005       130.11         
724.6100      0.88972       -104.67       1.384E-3      41.82         1.345E-3      43.93         0.74852       129.98         
727.6000      0.88762       -104.41       1.367E-3      37.69         1.394E-3      36.66         0.74719       129.88         
730.5900      0.88508       -104.14       1.43E-3       33.77         1.437E-3      38.30         0.74573       129.79         
733.5800      0.88199       -103.86       1.451E-3      28.59         1.411E-3      34.47         0.74405       129.71         
736.5700      0.87827       -103.57       1.466E-3      26.26         1.39E-3       24.66         0.74204       129.65         
739.5600      0.87392       -103.28       1.444E-3      23.32         1.506E-3      24.26         0.73969       129.59         
742.5500      0.86928       -103.00       1.502E-3      18.27         1.495E-3      20.72         0.73679       129.53         
745.5400      0.86427       -102.76       1.511E-3      13.30         1.58E-3       12.68         0.73373       129.44         
748.5300      0.85896       -102.53       1.606E-3      8.93          1.584E-3      11.14         0.73029       129.32         
751.5200      0.85373       -102.30       1.556E-3      4.43          1.647E-3      2.50          0.72672       129.14         
754.5100      0.84821       -102.08       1.707E-3      -0.19         1.579E-3      0.25          0.72288       128.95         
757.5000      0.84257       -101.90       1.661E-3      -5.19         1.659E-3      -5.26         0.71881       128.70         
760.4900      0.83612       -101.77       1.67E-3       -8.37         1.729E-3      -8.67         0.71477       128.41         
763.4800      0.82887       -101.61       1.712E-3      -13.50        1.647E-3      -13.96        0.71079       128.10         
766.4700      0.82181       -101.45       1.747E-3      -17.34        1.707E-3      -14.37        0.70706       127.74         
769.4600      0.81467       -101.30       1.777E-3      -21.83        1.748E-3      -23.02        0.70359       127.37         
772.4500      0.80777       -101.13       1.772E-3      -25.69        1.765E-3      -26.04        0.70012       126.99         
775.4400      0.80106       -100.95       1.81E-3       -31.60        1.77E-3       -29.15        0.69695       126.58         
778.4300      0.79429       -100.76       1.824E-3      -35.42        1.809E-3      -35.15        0.69401       126.20         
781.4200      0.78742       -100.52       1.815E-3      -41.94        1.80E-3       -41.23        0.69157       125.85         
784.4100      0.77993       -100.25       1.786E-3      -44.31        1.755E-3      -45.69        0.68955       125.51         
787.4000      0.77196       -99.91        1.789E-3      -49.76        1.862E-3      -49.21        0.68784       125.22         
790.3900      0.76338       -99.56        1.839E-3      -53.20        1.859E-3      -53.87        0.68617       124.98         
793.3800      0.75464       -99.15        1.836E-3      -59.87        1.866E-3      -61.05        0.68458       124.80         
796.3700      0.74572       -98.70        1.802E-3      -64.09        1.833E-3      -64.10        0.68283       124.67         
799.3600      0.73693       -98.19        1.846E-3      -67.69        1.852E-3      -68.92        0.68093       124.59         
802.3500      0.72814       -97.65        1.889E-3      -72.97        1.875E-3      -72.29        0.67875       124.55         
805.3400      0.71943       -97.03        1.765E-3      -77.00        1.762E-3      -74.78        0.67641       124.54         
808.3300      0.71071       -96.34        1.818E-3      -81.86        1.758E-3      -81.89        0.67353       124.52         
811.3200      0.70214       -95.61        1.739E-3      -86.21        1.809E-3      -85.70        0.67042       124.49         
814.3100      0.6939        -94.83        1.755E-3      -88.50        1.743E-3      -89.40        0.6669        124.46         
817.3000      0.68634       -94.04        1.777E-3      -94.30        1.779E-3      -95.18        0.66306       124.41         
820.2900      0.67945       -93.27        1.701E-3      -99.43        1.737E-3      -99.32        0.6589        124.34         
823.2800      0.67338       -92.52        1.675E-3      -103.54       1.733E-3      -102.03       0.65447       124.24         
826.2700      0.66785       -91.80        1.672E-3      -110.37       1.728E-3      -108.03       0.64988       124.08         
829.2600      0.66309       -91.08        1.644E-3      -114.19       1.632E-3      -113.61       0.64506       123.87         
832.2500      0.65887       -90.37        1.613E-3      -119.81       1.557E-3      -119.59       0.64024       123.59         
835.2400      0.65484       -89.65        1.533E-3      -125.80       1.518E-3      -124.14       0.63542       123.27         
838.2300      0.65083       -88.94        1.509E-3      -130.05       1.547E-3      -131.07       0.63074       122.91         
841.2200      0.64715       -88.17        1.41E-3       -130.61       1.37E-3       -128.97       0.62661       122.54         
844.2100      0.64373       -87.39        1.338E-3      -137.14       1.313E-3      -139.74       0.62293       122.15         
847.2000      0.64115       -86.61        1.347E-3      -142.11       1.257E-3      -141.25       0.61979       121.76         
850.1900      0.63905       -85.82        1.244E-3      -140.42       1.342E-3      -144.96       0.61691       121.42         
853.1800      0.63757       -85.01        1.125E-3      -145.12       1.171E-3      -148.73       0.61442       121.10         
856.1700      0.63701       -84.14        1.011E-3      -146.18       1.117E-3      -149.34       0.61217       120.85         
859.1600      0.63761       -83.27        9.888E-4      -147.66       9.438E-4      -149.06       0.61008       120.64         
862.1500      0.63909       -82.45        9.31E-4       -150.25       9.311E-4      -146.81       0.60817       120.49         
865.1400      0.64131       -81.74        8.562E-4      -147.29       8.78E-4       -146.55       0.60635       120.39         
868.1300      0.64328       -81.15        8.897E-4      -145.53       8.869E-4      -145.29       0.60424       120.33         
871.1200      0.64463       -80.72        8.082E-4      -142.56       8.214E-4      -142.79       0.60202       120.32         
874.1100      0.64502       -80.38        8.594E-4      -146.81       8.145E-4      -144.20       0.59976       120.37         
877.1000      0.64443       -80.16        8.70E-4       -139.74       8.828E-4      -143.43       0.59701       120.48         
880.0900      0.64304       -79.99        8.72E-4       -138.47       7.924E-4      -140.39       0.59396       120.61         
883.0800      0.64154       -79.84        9.181E-4      -139.04       9.354E-4      -137.12       0.59029       120.74         
886.0700      0.63909       -79.75        9.002E-4      -139.30       9.237E-4      -139.49       0.58625       120.86         
889.0600      0.63622       -79.71        9.907E-4      -138.72       9.377E-4      -137.41       0.58175       120.96         
892.0500      0.63225       -79.71        1.054E-3      -141.10       1.081E-3      -142.41       0.57695       120.99         
895.0400      0.62743       -79.77        1.145E-3      -145.61       1.153E-3      -145.45       0.57191       120.99         
898.0300      0.62185       -79.89        1.239E-3      -147.38       1.165E-3      -147.03       0.5669        120.95         
901.0200      0.61543       -80.00        1.245E-3      -150.11       1.181E-3      -147.66       0.56197       120.87         
904.0100      0.60837       -80.09        1.284E-3      -151.25       1.325E-3      -152.57       0.55746       120.72         
907.0000      0.60089       -80.13        1.351E-3      -156.77       1.35E-3       -152.46       0.55285       120.53         
909.9900      0.59328       -80.10        1.40E-3       -156.90       1.282E-3      -156.45       0.54874       120.31         
912.9800      0.58528       -79.99        1.501E-3      -158.00       1.407E-3      -156.13       0.54493       120.09         
915.9700      0.57664       -79.85        1.421E-3      -163.62       1.346E-3      -164.25       0.54153       119.86         
918.9600      0.5669        -79.60        1.506E-3      -166.54       1.533E-3      -163.63       0.53844       119.62         
921.9500      0.55621       -79.21        1.596E-3      -169.08       1.569E-3      -166.28       0.53581       119.41         
924.9400      0.54554       -78.64        1.56E-3       -171.95       1.643E-3      -172.92       0.53361       119.23         
927.9300      0.53538       -77.95        1.576E-3      -177.09       1.715E-3      -179.47       0.53165       119.09         
930.9200      0.52526       -77.22        1.699E-3      178.36        1.718E-3      -178.40       0.52982       118.99         
933.9100      0.51523       -76.41        1.721E-3      176.02        1.737E-3      176.48        0.52814       118.97         
936.9000      0.50512       -75.50        1.811E-3      172.16        1.745E-3      170.57        0.52643       119.02         
939.8900      0.49529       -74.46        1.817E-3      166.81        1.794E-3      169.02        0.52447       119.13         
942.8800      0.4857        -73.35        1.75E-3       164.28        1.80E-3       166.48        0.52226       119.27         
945.8700      0.47628       -72.20        1.815E-3      163.19        1.789E-3      163.29        0.51969       119.44         
948.8600      0.46721       -70.99        1.806E-3      159.13        1.843E-3      158.82        0.5168        119.61         
951.8500      0.45864       -69.75        1.814E-3      155.73        1.832E-3      159.00        0.51352       119.78         
954.8400      0.45056       -68.45        1.796E-3      150.64        1.919E-3      154.93        0.51001       119.95         
957.8300      0.44335       -67.07        1.789E-3      147.34        1.875E-3      152.33        0.5061        120.09         
960.8200      0.43735       -65.61        1.955E-3      146.59        1.768E-3      146.76        0.50198       120.21         
963.8100      0.43294       -64.10        1.98E-3       146.87        1.897E-3      144.62        0.49775       120.28         
966.8000      0.43001       -62.55        1.938E-3      139.44        1.908E-3      141.44        0.49346       120.30         
969.7900      0.4282        -61.04        1.972E-3      139.13        2.007E-3      139.75        0.48917       120.29         
972.7800      0.42759       -59.55        1.97E-3       135.58        1.966E-3      138.23        0.485         120.24         
975.7700      0.42791       -58.07        1.933E-3      132.73        1.896E-3      134.79        0.48107       120.14         
978.7600      0.42898       -56.63        2.004E-3      132.19        1.968E-3      133.24        0.47751       120.00         
981.7500      0.43087       -55.22        1.956E-3      129.36        1.876E-3      130.53        0.47418       119.81         
984.7400      0.4334        -53.84        1.979E-3      130.58        1.972E-3      127.90        0.47142       119.62         
987.7300      0.4369        -52.51        2.054E-3      125.39        2.18E-3       125.34        0.46909       119.45         
990.7200      0.4405        -51.28        2.131E-3      125.98        2.102E-3      122.85        0.46689       119.28         
993.7100      0.44441       -50.10        2.161E-3      121.31        2.254E-3      120.37        0.46545       119.17         
996.7000      0.4483        -48.99        2.321E-3      119.22        2.296E-3      122.52        0.46403       119.11         
999.6900      0.45242       -47.98        2.372E-3      114.73        2.464E-3      117.88        0.46288       119.11         
1002.6800     0.45661       -47.09        2.484E-3      113.17        2.383E-3      111.68        0.46176       119.15         
1005.6700     0.46098       -46.33        2.486E-3      107.77        2.482E-3      106.97        0.46069       119.24         
1008.6600     0.46512       -45.74        2.628E-3      105.24        2.682E-3      105.67        0.45941       119.39         
1011.6500     0.46913       -45.32        2.657E-3      102.27        2.736E-3      103.20        0.45806       119.57         
1014.6400     0.47287       -45.04        2.807E-3      98.97         2.709E-3      99.06         0.45633       119.81         
1017.6300     0.47597       -44.93        2.816E-3      94.26         2.831E-3      96.27         0.45453       120.08         
1020.6200     0.47831       -44.96        2.868E-3      90.46         2.88E-3       91.56         0.45228       120.36         
1023.6100     0.48009       -45.08        2.855E-3      87.23         2.996E-3      87.15         0.44976       120.65         
1026.6000     0.48099       -45.29        2.926E-3      84.33         3.038E-3      84.43         0.44706       120.95         
1029.5900     0.48152       -45.55        3.02E-3       81.67         3.218E-3      81.09         0.44421       121.21         
1032.5800     0.48124       -45.86        3.105E-3      76.47         3.123E-3      77.33         0.44099       121.46         
1035.5700     0.48035       -46.24        3.182E-3      74.14         3.177E-3      73.64         0.43782       121.68         
1038.5600     0.4785        -46.69        3.382E-3      70.31         3.288E-3      71.26         0.43455       121.86         
1041.5500     0.47437       -47.30        3.364E-3      65.13         3.383E-3      63.37         0.43138       122.00         
1044.5400     0.46521       -47.88        3.426E-3      60.35         3.427E-3      64.54         0.42852       122.10         
1047.5300     0.45076       -47.42        3.419E-3      56.70         3.403E-3      56.14         0.42585       122.16         
1050.5200     0.44604       -45.98        3.573E-3      56.50         3.587E-3      56.90         0.42331       122.25         
1053.5100     0.44616       -45.48        3.663E-3      51.28         3.731E-3      52.37         0.42118       122.28         
1056.5000     0.44291       -45.41        3.707E-3      48.65         3.702E-3      49.34         0.41917       122.36         
1059.4900     0.43705       -45.33        3.803E-3      44.90         3.931E-3      45.18         0.41744       122.46         
1062.4800     0.42937       -45.17        3.896E-3      40.68         3.885E-3      40.64         0.41621       122.56         
1065.4700     0.42034       -44.91        4.012E-3      37.48         3.991E-3      36.63         0.41493       122.69         
1068.4600     0.41033       -44.55        4.053E-3      32.85         4.048E-3      34.85         0.41388       122.87         
1071.4500     0.39973       -44.03        4.118E-3      28.02         4.20E-3       28.54         0.41279       123.09         
1074.4400     0.38839       -43.33        4.105E-3      23.90         4.414E-3      24.82         0.41175       123.37         
1077.4300     0.37735       -42.41        4.221E-3      19.53         4.206E-3      19.31         0.41059       123.69         
1080.4200     0.36677       -41.31        4.295E-3      16.28         4.365E-3      17.58         0.40915       124.03         
1083.4100     0.35736       -40.03        4.291E-3      11.13         4.35E-3       12.56         0.40753       124.42         
1086.4000     0.34899       -38.59        4.372E-3      6.22          4.402E-3      6.70          0.40566       124.80         
1089.3900     0.34164       -37.04        4.387E-3      1.86          4.41E-3       3.01          0.40366       125.18         
1092.3800     0.33564       -35.36        4.535E-3      -1.45         4.612E-3      -1.08         0.4011        125.54         
1095.3700     0.33054       -33.56        4.422E-3      -6.84         4.558E-3      -5.41         0.39847       125.89         
1098.3600     0.32677       -31.57        4.495E-3      -10.70        4.468E-3      -11.20        0.39551       126.21         
1101.3500     0.32464       -29.55        4.50E-3       -15.50        4.547E-3      -14.28        0.39251       126.44         
1104.3400     0.32382       -27.51        4.504E-3      -18.72        4.712E-3      -18.69        0.38921       126.61         
1107.3300     0.32418       -25.47        4.523E-3      -22.52        4.587E-3      -21.72        0.38625       126.75         
1110.3200     0.32534       -23.51        4.548E-3      -26.82        4.621E-3      -26.00        0.38313       126.78         
1113.3100     0.32726       -21.61        4.72E-3       -31.33        4.533E-3      -30.34        0.38031       126.77         
1116.3000     0.32936       -19.77        4.581E-3      -35.26        4.618E-3      -34.17        0.37783       126.72         
1119.2900     0.33178       -17.93        4.514E-3      -37.91        4.505E-3      -37.68        0.3757        126.60         
1122.2800     0.33457       -16.13        4.50E-3       -42.61        4.624E-3      -41.76        0.37404       126.49         
1125.2700     0.33806       -14.37        4.617E-3      -46.31        4.508E-3      -46.19        0.37288       126.34         
1128.2600     0.34185       -12.69        4.631E-3      -50.57        4.546E-3      -48.87        0.37223       126.21         
1131.2500     0.346         -11.17        4.575E-3      -54.15        4.652E-3      -52.65        0.372         126.11         
1134.2400     0.35053       -9.76         4.635E-3      -58.28        4.681E-3      -56.46        0.37204       126.05         
1137.2300     0.35517       -8.52         4.586E-3      -60.58        4.609E-3      -61.10        0.37255       126.09         
1140.2200     0.36          -7.38         4.661E-3      -64.70        4.738E-3      -63.41        0.37314       126.18         
1143.2100     0.36505       -6.33         4.59E-3       -69.39        4.482E-3      -68.11        0.37379       126.36         
1146.2000     0.37037       -5.43         4.575E-3      -72.79        4.606E-3      -71.05        0.37449       126.59         
1149.1900     0.37603       -4.63         4.535E-3      -76.02        4.635E-3      -76.02        0.37496       126.90         
1152.1800     0.3819        -4.00         4.507E-3      -79.75        4.635E-3      -78.78        0.3753        127.28         
1155.1700     0.388         -3.50         4.658E-3      -84.69        4.573E-3      -82.33        0.37527       127.70         
1158.1600     0.39392       -3.08         4.602E-3      -86.24        4.559E-3      -85.69        0.37482       128.17         
1161.1500     0.39997       -2.77         4.593E-3      -89.86        4.605E-3      -90.18        0.37394       128.63         
1164.1400     0.40584       -2.54         4.63E-3       -94.21        4.614E-3      -92.32        0.37266       129.09         
1167.1300     0.4114        -2.35         4.527E-3      -98.33        4.514E-3      -97.84        0.37103       129.51         
1170.1200     0.41697       -2.20         4.535E-3      -102.83       4.525E-3      -101.97       0.3692        129.89         
1173.1100     0.422         -2.09         4.482E-3      -105.30       4.52E-3       -104.02       0.36676       130.22         
1176.1000     0.42676       -2.00         4.391E-3      -109.74       4.505E-3      -106.97       0.36426       130.45         
1179.0900     0.43101       -1.97         4.493E-3      -112.79       4.558E-3      -111.82       0.36181       130.66         
1182.0800     0.43451       -1.95         4.459E-3      -115.95       4.441E-3      -116.35       0.35941       130.70         
1185.0700     0.43727       -1.95         4.542E-3      -120.23       4.529E-3      -118.56       0.35727       130.69         
1188.0600     0.43944       -1.96         4.55E-3       -123.45       4.441E-3      -123.20       0.3553        130.58         
1191.0500     0.44122       -1.98         4.477E-3      -127.18       4.369E-3      -127.60       0.35383       130.41         
1194.0400     0.44236       -2.02         4.472E-3      -129.24       4.517E-3      -130.46       0.35279       130.24         
1197.0300     0.44276       -2.10         4.449E-3      -135.12       4.467E-3      -134.04       0.35234       130.04         
1200.0200     0.44253       -2.24         4.425E-3      -137.96       4.391E-3      -138.29       0.35237       129.85         
1203.0100     0.44121       -2.41         4.327E-3      -141.99       4.418E-3      -141.60       0.35301       129.72         
1206.0000     0.43903       -2.62         4.362E-3      -145.74       4.353E-3      -146.10       0.35404       129.62         
1208.9900     0.43606       -2.81         4.249E-3      -147.89       4.236E-3      -147.89       0.35552       129.62         
1211.9800     0.43224       -2.99         4.304E-3      -152.32       4.231E-3      -153.45       0.35735       129.73         
1214.9700     0.42756       -3.12         4.299E-3      -155.04       4.291E-3      -154.81       0.35894       129.93         
1217.9600     0.42252       -3.19         4.252E-3      -159.43       4.319E-3      -158.44       0.36065       130.26         
1220.9500     0.41709       -3.18         4.167E-3      -163.02       4.244E-3      -162.93       0.36211       130.65         
1223.9400     0.41118       -3.09         4.119E-3      -168.08       4.195E-3      -166.60       0.36341       131.13         
1226.9300     0.40485       -2.88         4.134E-3      -170.25       4.121E-3      -169.75       0.36417       131.67         
1229.9200     0.39811       -2.56         4.089E-3      -173.57       3.994E-3      -173.56       0.36437       132.26         
1232.9100     0.39108       -2.10         3.964E-3      -178.00       4.089E-3      -178.41       0.36418       132.88         
1235.9000     0.38376       -1.47         4.064E-3      178.38        3.989E-3      -179.99       0.36313       133.47         
1238.8900     0.37645       -0.63         3.971E-3      174.99        3.879E-3      175.31        0.36173       134.04         
1241.8800     0.36951       0.43          3.819E-3      171.51        3.877E-3      172.54        0.3598        134.56         
1244.8700     0.36308       1.65          3.836E-3      169.51        3.787E-3      169.20        0.35737       134.98         
1247.8600     0.35755       3.07          3.742E-3      164.53        3.815E-3      164.26        0.35467       135.29         
1250.8500     0.35274       4.67          3.626E-3      160.88        3.669E-3      162.22        0.35198       135.51         
1253.8400     0.34902       6.40          3.452E-3      158.56        3.583E-3      158.74        0.34901       135.58         
1256.8300     0.34643       8.19          3.369E-3      155.47        3.475E-3      156.60        0.34639       135.52         
1259.8200     0.34529       10.00         3.288E-3      152.56        3.353E-3      153.96        0.34413       135.36         
1262.8100     0.34514       11.71         3.191E-3      150.68        3.215E-3      150.45        0.34242       135.14         
1265.8000     0.34598       13.35         3.174E-3      149.65        3.10E-3       147.67        0.34123       134.83         
1268.7900     0.34757       14.90         3.021E-3      146.19        3.076E-3      146.83        0.34073       134.47         
1271.7800     0.34995       16.37         2.898E-3      144.48        2.963E-3      143.98        0.34104       134.10         
1274.7700     0.35286       17.69         2.862E-3      144.51        2.919E-3      143.80        0.34207       133.78         
1277.7600     0.35624       18.87         2.816E-3      142.56        2.77E-3       141.31        0.34348       133.53         
1280.7500     0.35977       19.93         2.751E-3      143.98        2.766E-3      142.00        0.34542       133.38         
1283.7400     0.36294       20.89         2.779E-3      141.49        2.81E-3       141.61        0.34761       133.34         
1286.7300     0.36602       21.82         2.741E-3      140.29        2.677E-3      138.90        0.35007       133.41         
1289.7200     0.36883       22.69         2.766E-3      138.73        2.798E-3      141.38        0.35257       133.63         
1292.7100     0.3716        23.55         2.83E-3       137.63        2.768E-3      138.61        0.35457       133.95         
1295.7000     0.37422       24.40         2.878E-3      138.23        2.863E-3      138.32        0.35643       134.39         
1298.6900     0.37698       25.24         2.974E-3      137.51        3.016E-3      136.01        0.35783       134.88         
1301.6800     0.37994       26.08         3.056E-3      134.07        3.013E-3      135.12        0.3584        135.45         
1304.6700     0.38305       26.91         3.048E-3      133.74        2.993E-3      133.76        0.35861       136.03         
1307.6600     0.38592       27.71         3.162E-3      131.83        3.122E-3      132.63        0.35794       136.61         
1310.6500     0.38877       28.53         3.265E-3      130.10        3.241E-3      128.88        0.35675       137.15         
1313.6400     0.39138       29.37         3.31E-3       127.01        3.294E-3      127.08        0.35486       137.60         
1316.6300     0.39424       30.20         3.419E-3      124.70        3.356E-3      125.27        0.35275       137.98         
1319.6200     0.3975        31.06         3.418E-3      122.41        3.534E-3      121.40        0.35009       138.26         
1322.6100     0.40104       31.88         3.636E-3      119.42        3.552E-3      119.10        0.34754       138.40         
1325.6000     0.4051        32.66         3.729E-3      116.32        3.594E-3      116.53        0.34491       138.41         
1328.5900     0.40903       33.36         3.717E-3      112.36        3.807E-3      113.23        0.34271       138.26         
1331.5800     0.41293       33.99         3.887E-3      109.83        3.812E-3      108.21        0.34082       138.00         
1334.5700     0.4164        34.52         3.839E-3      106.54        3.896E-3      105.69        0.33951       137.66         
1337.5600     0.41884       35.15         3.929E-3      103.21        3.996E-3      102.60        0.33884       137.24         
1340.5500     0.42118       35.92         4.003E-3      99.41         4.067E-3      100.13        0.33895       136.83         
1343.5400     0.42476       36.71         4.113E-3      96.12         4.047E-3      96.61         0.33971       136.42         
1346.5300     0.42894       37.42         4.091E-3      92.66         4.11E-3       91.59         0.34125       136.06         
1349.5200     0.43314       38.05         4.068E-3      88.66         4.223E-3      89.87         0.34333       135.79         
1352.5100     0.4371        38.60         4.181E-3      84.76         4.217E-3      85.52         0.34582       135.63         
1355.5000     0.44117       39.12         4.225E-3      82.25         4.233E-3      81.23         0.34857       135.59         
1358.4900     0.44485       39.60         4.233E-3      78.29         4.349E-3      79.23         0.35139       135.69         
1361.4800     0.44858       40.06         4.26E-3       75.43         4.266E-3      75.75         0.35404       135.94         
1364.4700     0.45222       40.51         4.318E-3      72.04         4.327E-3      71.14         0.35635       136.28         
1367.4600     0.45589       40.94         4.272E-3      68.95         4.438E-3      68.49         0.35823       136.73         
1370.4500     0.45948       41.32         4.362E-3      64.25         4.43E-3       64.90         0.35929       137.21         
1373.4400     0.46299       41.68         4.37E-3       62.50         4.418E-3      61.70         0.35991       137.75         
1376.4300     0.46655       42.03         4.459E-3      58.40         4.412E-3      57.91         0.35981       138.31         
1379.4200     0.47006       42.40         4.389E-3      54.94         4.383E-3      55.46         0.35907       138.85         
1382.4100     0.47372       42.72         4.426E-3      50.96         4.412E-3      51.06         0.35763       139.35         
1385.4000     0.47729       43.05         4.401E-3      47.42         4.451E-3      47.01         0.35593       139.75         
1388.3900     0.48103       43.38         4.406E-3      44.96         4.457E-3      44.80         0.35365       140.03         
1391.3800     0.48471       43.72         4.357E-3      42.12         4.398E-3      41.50         0.35129       140.19         
1394.3700     0.48886       44.05         4.396E-3      38.30         4.429E-3      38.82         0.349         140.21         
1397.3600     0.49392       44.31         4.388E-3      35.82         4.457E-3      36.14         0.34664       140.13         
1400.3500     0.49904       44.36         4.475E-3      33.33         4.466E-3      33.11         0.34476       139.92         
1403.3400     0.50243       44.15         4.409E-3      29.77         4.44E-3       30.99         0.34342       139.61         
1406.3300     0.50328       43.97         4.461E-3      27.12         4.505E-3      27.59         0.34278       139.22         
1409.3200     0.50204       43.94         4.448E-3      23.39         4.512E-3      24.57         0.34284       138.80         
1412.3100     0.50091       44.12         4.568E-3      20.89         4.552E-3      22.49         0.34367       138.39         
1415.3000     0.50049       44.28         4.586E-3      17.15         4.641E-3      18.04         0.34502       138.00         
1418.2900     0.49943       44.43         4.70E-3       13.29         4.66E-3       15.31         0.34697       137.72         
1421.2800     0.49762       44.61         4.60E-3       11.02         4.668E-3      10.43         0.34939       137.55         
1424.2700     0.49535       44.86         4.651E-3      6.94          4.724E-3      7.01          0.35206       137.47         
1427.2600     0.49308       45.17         4.64E-3       3.12          4.661E-3      3.84          0.35463       137.53         
1430.2500     0.49104       45.55         4.593E-3      0.24          4.621E-3      0.70          0.35703       137.70         
1433.2400     0.48956       45.99         4.716E-3      -3.51         4.62E-3       -2.83         0.35911       137.99         
1436.2300     0.48855       46.44         4.58E-3       -6.51         4.645E-3      -5.43         0.36082       138.36         
1439.2200     0.48765       46.89         4.566E-3      -9.60         4.598E-3      -8.59         0.36195       138.82         
1442.2100     0.48687       47.35         4.593E-3      -12.07        4.589E-3      -11.52        0.36239       139.32         
1445.2000     0.4864        47.86         4.662E-3      -15.54        4.634E-3      -13.96        0.36219       139.81         
1448.1900     0.48579       48.37         4.579E-3      -18.13        4.641E-3      -18.57        0.36141       140.27         
1451.1800     0.48543       48.93         4.683E-3      -21.51        4.626E-3      -21.52        0.36          140.67         
1454.1700     0.48502       49.50         4.68E-3       -24.33        4.712E-3      -23.01        0.35799       140.96         
1457.1600     0.48488       50.08         4.67E-3       -26.81        4.734E-3      -26.19        0.35569       141.18         
1460.1500     0.48464       50.67         4.72E-3       -30.76        4.608E-3      -29.45        0.35305       141.28         
1463.1400     0.48427       51.28         4.75E-3       -33.37        4.688E-3      -31.48        0.35064       141.22         
1466.1300     0.4836        51.88         4.738E-3      -35.48        4.688E-3      -34.63        0.34852       141.04         
1469.1200     0.48285       52.50         4.738E-3      -38.40        4.786E-3      -37.97        0.34675       140.73         
1472.1100     0.48193       53.13         4.874E-3      -41.65        4.828E-3      -41.82        0.34556       140.34         
1475.1000     0.48074       53.73         4.826E-3      -44.64        4.799E-3      -44.23        0.34502       139.83         
1478.0900     0.47939       54.34         4.89E-3       -47.70        4.891E-3      -47.81        0.34522       139.33         
1481.0800     0.47804       54.96         4.852E-3      -51.70        4.878E-3      -49.62        0.34605       138.85         
1484.0700     0.47665       55.57         4.931E-3      -53.83        4.871E-3      -53.70        0.34776       138.39         
1487.0600     0.47543       56.22         4.909E-3      -57.04        4.929E-3      -56.42        0.3499        138.02         
1490.0500     0.47441       56.86         4.92E-3       -60.57        4.967E-3      -59.81        0.3525        137.77         
1493.0400     0.47373       57.50         5.03E-3       -63.92        4.998E-3      -63.84        0.35538       137.65         
1496.0300     0.47306       58.14         5.031E-3      -66.68        4.979E-3      -65.98        0.35832       137.64         
1499.0200     0.47267       58.79         4.976E-3      -70.84        5.002E-3      -70.08        0.36112       137.74         
1502.0100     0.47251       59.48         5.008E-3      -73.54        5.064E-3      -73.52        0.36347       138.09         
1505.0000     0.47262       60.18         5.155E-3      -77.44        4.983E-3      -75.97        0.36551       138.45         
1507.9900     0.47313       60.92         5.161E-3      -79.95        5.171E-3      -79.62        0.36697       138.88         
1510.9800     0.47366       61.67         5.199E-3      -84.04        5.152E-3      -82.66        0.3677        139.37         
1513.9700     0.47423       62.44         5.237E-3      -87.64        5.19E-3       -86.54        0.36774       139.88         
1516.9600     0.47499       63.27         5.24E-3       -90.60        5.213E-3      -89.57        0.36714       140.38         
1519.9500     0.47565       64.12         5.273E-3      -93.88        5.224E-3      -93.28        0.36587       140.85         
1522.9400     0.47671       65.02         5.296E-3      -97.12        5.225E-3      -97.36        0.36415       141.24         
1525.9300     0.47772       65.91         5.30E-3       -100.35       5.21E-3       -101.38       0.362         141.52         
1528.9200     0.47888       66.79         5.308E-3      -105.38       5.238E-3      -104.02       0.35961       141.67         
1531.9100     0.48016       67.65         5.263E-3      -108.34       5.291E-3      -108.87       0.35718       141.71         
1534.9000     0.48144       68.49         5.276E-3      -112.23       5.279E-3      -111.93       0.35485       141.60         
1537.8900     0.48299       69.29         5.294E-3      -115.46       5.232E-3      -115.24       0.35278       141.39         
1540.8800     0.48487       70.05         5.312E-3      -119.23       5.309E-3      -119.26       0.35126       141.08         
1543.8700     0.48703       70.80         5.30E-3       -122.93       5.267E-3      -122.96       0.35027       140.66         
1546.8600     0.48956       71.51         5.241E-3      -126.60       5.196E-3      -125.97       0.3499        140.21         
1549.8500     0.49243       72.14         5.323E-3      -130.34       5.258E-3      -130.78       0.3504        139.72         
1552.8400     0.49561       72.72         5.236E-3      -134.24       5.183E-3      -133.76       0.35133       139.27         
1555.8300     0.499         73.24         5.159E-3      -138.35       5.151E-3      -137.42       0.35305       138.89         
1558.8200     0.50249       73.71         5.092E-3      -142.05       5.088E-3      -140.98       0.35497       138.60         
1561.8100     0.50638       74.15         5.082E-3      -144.16       5.02E-3       -145.12       0.35739       138.44         
1564.8000     0.51033       74.54         5.067E-3      -147.77       4.964E-3      -148.77       0.35968       138.36         
1567.7900     0.51433       74.94         4.915E-3      -152.27       4.952E-3      -151.36       0.36214       138.40         
1570.7800     0.51825       75.29         4.905E-3      -155.70       4.889E-3      -155.51       0.36417       138.56         
1573.7700     0.52215       75.63         4.886E-3      -158.49       4.801E-3      -159.11       0.36602       138.83         
1576.7600     0.5257        75.99         4.775E-3      -162.36       4.709E-3      -162.01       0.36717       139.17         
1579.7500     0.52915       76.33         4.767E-3      -165.35       4.647E-3      -165.33       0.36794       139.57         
1582.7400     0.53215       76.66         4.60E-3       -168.66       4.57E-3       -168.20       0.36803       139.98         
1585.7300     0.53463       76.95         4.572E-3      -171.52       4.693E-3      -172.00       0.36765       140.40         
1588.7200     0.5366        77.23         4.543E-3      -174.57       4.514E-3      -174.33       0.36672       140.78         
1591.7100     0.53785       77.47         4.487E-3      -177.67       4.485E-3      -177.74       0.36519       141.09         
1594.7000     0.53861       77.69         4.356E-3      179.92        4.45E-3       178.88        0.36329       141.33         
1597.6900     0.53905       77.88         4.351E-3      177.87        4.35E-3       176.11        0.36111       141.44         
1600.6800     0.53903       78.06         4.237E-3      173.16        4.307E-3      172.91        0.35888       141.50         
1603.6700     0.53857       78.20         4.271E-3      169.88        4.247E-3      169.95        0.35663       141.40         
1606.6600     0.53798       78.31         4.173E-3      167.00        4.146E-3      167.50        0.35482       141.18         
1609.6500     0.53702       78.41         4.158E-3      165.92        4.153E-3      163.91        0.35321       140.89         
1612.6400     0.53574       78.47         4.113E-3      161.41        4.114E-3      162.02        0.35223       140.50         
1615.6300     0.53457       78.54         4.132E-3      158.77        4.065E-3      159.27        0.35182       140.08         
1618.6200     0.53304       78.60         3.983E-3      156.32        3.967E-3      156.71        0.35195       139.63         
1621.6100     0.53163       78.66         3.97E-3       154.25        3.891E-3      153.29        0.35257       139.24         
1624.6000     0.53009       78.73         3.869E-3      150.88        3.886E-3      151.46        0.35372       138.86         
1627.5900     0.52836       78.82         3.861E-3      147.66        3.831E-3      147.94        0.3554        138.57         
1630.5800     0.52654       78.92         3.739E-3      146.05        3.803E-3      145.77        0.35735       138.38         
1633.5700     0.5244        79.08         3.80E-3       142.80        3.721E-3      143.17        0.35947       138.29         
1636.5600     0.52205       79.26         3.72E-3       140.18        3.752E-3      141.95        0.36146       138.32         
1639.5500     0.51935       79.46         3.703E-3      137.87        3.666E-3      139.73        0.36332       138.46         
1642.5400     0.51627       79.69         3.646E-3      136.29        3.717E-3      137.26        0.3649        138.72         
1645.5300     0.51263       79.91         3.61E-3       134.25        3.589E-3      134.47        0.36605       139.01         
1648.5200     0.50841       80.14         3.625E-3      131.44        3.573E-3      132.99        0.36668       139.38         
1651.5100     0.50353       80.37         3.621E-3      129.11        3.50E-3       130.77        0.36662       139.77         
1654.5000     0.49805       80.59         3.532E-3      125.87        3.524E-3      127.84        0.36601       140.18         
1657.4900     0.49211       80.82         3.547E-3      124.79        3.584E-3      124.82        0.36492       140.54         
1660.4800     0.48568       81.03         3.547E-3      123.24        3.549E-3      122.72        0.36326       140.85         
1663.4700     0.4788        81.20         3.559E-3      119.17        3.522E-3      120.72        0.36122       141.08         
1666.4600     0.47163       81.38         3.519E-3      117.59        3.551E-3      118.06        0.35895       141.21         
1669.4500     0.46415       81.57         3.534E-3      114.82        3.567E-3      115.26        0.3565        141.20         
1672.4400     0.4564        81.74         3.55E-3       112.76        3.544E-3      112.59        0.35419       141.08         
1675.4300     0.4484        81.96         3.534E-3      109.78        3.566E-3      109.88        0.35197       140.87         
1678.4200     0.44024       82.20         3.526E-3      108.16        3.563E-3      107.77        0.35012       140.53         
1681.4100     0.43197       82.49         3.58E-3       105.36        3.558E-3      105.95        0.34865       140.10         
1684.4000     0.42374       82.86         3.499E-3      102.62        3.528E-3      103.67        0.34784       139.60         
1687.3900     0.4152        83.29         3.555E-3      100.51        3.513E-3      100.36        0.34779       139.09         
1690.3800     0.40621       83.81         3.591E-3      97.42         3.525E-3      98.82         0.34837       138.56         
1693.3700     0.3963        84.45         3.473E-3      95.66         3.623E-3      94.60         0.3495        138.09         
1696.3600     0.3851        85.31         3.512E-3      92.84         3.517E-3      93.42         0.35125       137.69         
1699.3500     0.37248       86.54         3.534E-3      90.29         3.522E-3      90.29         0.35345       137.39         
1702.3400     0.35889       88.41         3.532E-3      89.54         3.537E-3      88.28         0.35581       137.23         
1705.3300     0.34724       91.19         3.54E-3       85.20         3.561E-3      86.29         0.35835       137.18         
1708.3200     0.34098       94.62         3.575E-3      83.54         3.516E-3      84.23         0.36081       137.25         
1711.3100     0.34088       97.92         3.547E-3      80.40         3.607E-3      81.07         0.36285       137.47         
1714.3000     0.34436       100.56        3.58E-3       78.25         3.546E-3      78.92         0.36473       137.79         
1717.2900     0.34805       102.60        3.643E-3      76.44         3.654E-3      76.81         0.36603       138.19         
1720.2800     0.351         104.25        3.752E-3      73.55         3.676E-3      72.67         0.36667       138.66         
1723.2700     0.35319       105.69        3.704E-3      70.54         3.71E-3       70.25         0.36666       139.16         
1726.2600     0.3548        106.96        3.767E-3      67.98         3.701E-3      68.07         0.366         139.67         
1729.2500     0.35604       108.14        3.784E-3      63.60         3.734E-3      64.44         0.36469       140.13         
1732.2400     0.35713       109.24        3.673E-3      61.24         3.679E-3      62.14         0.36282       140.55         
1735.2300     0.35822       110.28        3.746E-3      57.61         3.724E-3      58.14         0.3605        140.85         
1738.2200     0.35972       111.26        3.709E-3      55.96         3.704E-3      56.73         0.35765       141.07         
1741.2100     0.36156       112.19        3.721E-3      51.75         3.78E-3       52.30         0.35472       141.17         
1744.2000     0.36382       113.06        3.783E-3      49.46         3.719E-3      48.97         0.35167       141.11         
1747.1900     0.36658       113.89        3.747E-3      45.56         3.758E-3      47.54         0.3488        140.93         
1750.1800     0.36942       114.67        3.768E-3      43.80         3.801E-3      43.99         0.34636       140.60         
1753.1700     0.37266       115.42        3.781E-3      40.87         3.761E-3      40.35         0.34437       140.17         
1756.1600     0.37588       116.15        3.694E-3      37.95         3.647E-3      37.68         0.34276       139.65         
1759.1500     0.37903       116.89        3.675E-3      34.66         3.686E-3      35.85         0.34204       139.13         
1762.1400     0.38209       117.64        3.654E-3      31.33         3.652E-3      32.35         0.34202       138.54         
1765.1300     0.38498       118.40        3.691E-3      26.78         3.665E-3      29.32         0.34274       137.99         
1768.1200     0.38765       119.12        3.666E-3      27.98         3.602E-3      26.52         0.34408       137.51         
1771.1100     0.39041       119.77        3.679E-3      23.79         3.624E-3      23.77         0.34571       137.14         
1774.1000     0.39238       120.28        3.605E-3      21.61         3.666E-3      21.42         0.3479        136.87         
1777.0900     0.39326       120.74        3.662E-3      16.21         3.605E-3      20.09         0.35014       136.73         
1780.0800     0.39336       121.13        3.621E-3      14.97         3.589E-3      16.08         0.35251       136.73         
1783.0700     0.39301       121.45        3.519E-3      13.07         3.533E-3      13.87         0.35467       136.87         
1786.0600     0.39203       121.69        3.605E-3      11.10         3.55E-3       12.33         0.35645       137.13         
1789.0500     0.39053       121.83        3.573E-3      8.35          3.509E-3      9.51          0.35767       137.45         
1792.0400     0.3885        121.87        3.504E-3      5.29          3.497E-3      5.77          0.35846       137.81         
1795.0300     0.38613       121.84        3.48E-3       3.93          3.428E-3      3.08          0.35853       138.23         
1798.0200     0.38368       121.75        3.562E-3      -0.24         3.566E-3      1.53          0.35805       138.65         
1801.0100     0.38085       121.58        3.48E-3       -0.39         3.454E-3      -0.78         0.35683       139.03         
1804.0000     0.37803       121.37        3.464E-3      -4.85         3.462E-3      -3.40         0.3552        139.35         
1806.9900     0.37474       121.13        3.471E-3      -5.55         3.49E-3       -5.99         0.35329       139.57         
1809.9800     0.37141       120.89        3.423E-3      -9.08         3.503E-3      -6.74         0.35091       139.73         
1812.9700     0.36773       120.71        3.559E-3      -11.22        3.516E-3      -10.70        0.34848       139.74         
1815.9600     0.3639        120.53        3.51E-3       -14.25        3.486E-3      -11.26        0.34608       139.62         
1818.9500     0.35934       120.43        3.515E-3      -15.12        3.549E-3      -14.98        0.3439        139.39         
1821.9400     0.35432       120.39        3.547E-3      -17.73        3.519E-3      -15.86        0.3421        139.07         
1824.9300     0.34882       120.38        3.579E-3      -20.56        3.532E-3      -18.93        0.34089       138.63         
1827.9200     0.34245       120.40        3.596E-3      -21.48        3.649E-3      -21.52        0.34035       138.17         
1830.9100     0.33501       120.46        3.682E-3      -24.59        3.61E-3       -24.63        0.34046       137.68         
1833.9000     0.32652       120.59        3.661E-3      -27.48        3.713E-3      -26.92        0.34125       137.25         
1836.8900     0.3172        120.76        3.733E-3      -28.72        3.673E-3      -28.76        0.34269       136.86         
1839.8800     0.30725       121.00        3.708E-3      -31.21        3.785E-3      -30.09        0.34451       136.58         
1842.8700     0.29657       121.24        3.825E-3      -34.73        3.752E-3      -31.90        0.34675       136.44         
1845.8600     0.28528       121.48        3.767E-3      -37.90        3.807E-3      -35.75        0.34913       136.41         
1848.8500     0.27343       121.79        3.866E-3      -39.31        3.826E-3      -37.93        0.3515        136.50         
1851.8400     0.26127       122.14        3.805E-3      -42.58        3.803E-3      -41.41        0.35349       136.76         
1854.8300     0.24888       122.62        3.984E-3      -44.55        3.935E-3      -43.74        0.35498       137.10         
1857.8200     0.2365        123.21        3.957E-3      -48.00        4.011E-3      -46.81        0.35607       137.55         
1860.8100     0.22438       123.93        4.044E-3      -50.69        3.953E-3      -49.74        0.35642       138.07         
1863.8000     0.21242       124.87        4.075E-3      -53.92        4.149E-3      -52.13        0.35623       138.61         
1866.7900     0.20078       126.09        4.112E-3      -56.31        4.127E-3      -55.51        0.35527       139.15         
1869.7800     0.18971       127.64        4.158E-3      -59.37        4.19E-3       -58.55        0.35341       139.62         
1872.7700     0.17915       129.67        4.238E-3      -62.17        4.173E-3      -60.88        0.35108       140.05         
1875.7600     0.16933       132.20        4.293E-3      -64.99        4.299E-3      -63.82        0.34816       140.35         
1878.7500     0.16045       135.23        4.31E-3       -68.24        4.379E-3      -67.16        0.34494       140.51         
1881.7400     0.15261       138.86        4.388E-3      -71.21        4.386E-3      -69.81        0.34162       140.53         
1884.7300     0.14578       143.07        4.499E-3      -74.30        4.425E-3      -72.93        0.33839       140.37         
1887.7200     0.14018       147.87        4.45E-3       -77.72        4.476E-3      -76.69        0.33548       140.05         
1890.7100     0.1362        153.07        4.587E-3      -81.09        4.498E-3      -79.51        0.33314       139.59         
1893.7000     0.13358       158.57        4.61E-3       -83.41        4.652E-3      -83.46        0.33136       139.01         
1896.6900     0.13239       164.29        4.642E-3      -86.57        4.606E-3      -86.95        0.33052       138.37         
1899.6800     0.13282       170.01        4.653E-3      -90.28        4.703E-3      -89.86        0.33069       137.71         
1902.6700     0.13497       175.55        4.744E-3      -93.49        4.695E-3      -92.30        0.33172       137.05         
1905.6600     0.13838       -179.39       4.628E-3      -96.90        4.825E-3      -96.50        0.33354       136.47         
1908.6500     0.14292       -175.04       4.862E-3      -100.07       4.69E-3       -99.45        0.33624       136.02         
1911.6400     0.14783       -171.22       4.798E-3      -103.69       4.724E-3      -103.47       0.33921       135.75         
1914.6300     0.15276       -168.08       4.723E-3      -106.79       4.787E-3      -106.55       0.34271       135.63         
1917.6200     0.15783       -165.40       4.837E-3      -111.36       4.829E-3      -110.70       0.34586       135.70         
1920.6100     0.16253       -163.11       4.79E-3       -113.37       4.848E-3      -114.80       0.34892       135.97         
1923.6000     0.16738       -161.18       4.937E-3      -117.43       4.899E-3      -117.63       0.3515        136.35         
1926.5900     0.17184       -159.51       4.949E-3      -121.26       4.93E-3       -121.12       0.35343       136.86         
1929.5800     0.17632       -158.08       4.978E-3      -124.38       4.951E-3      -124.77       0.35448       137.46         
1932.5700     0.18059       -156.82       5.073E-3      -128.72       4.922E-3      -128.42       0.35471       138.12         
1935.5600     0.18475       -155.72       4.993E-3      -132.63       4.96E-3       -130.94       0.35406       138.79         
1938.5500     0.18873       -154.74       5.024E-3      -135.04       5.043E-3      -135.00       0.35255       139.41         
1941.5400     0.19246       -153.85       5.057E-3      -139.06       5.129E-3      -138.63       0.35015       139.92         
1944.5300     0.19594       -152.99       5.014E-3      -142.41       5.069E-3      -142.08       0.34731       140.34         
1947.5200     0.19934       -152.13       5.044E-3      -146.30       5.063E-3      -145.00       0.34383       140.60         
1950.5100     0.20227       -151.29       5.047E-3      -149.81       5.047E-3      -148.97       0.34022       140.68         
1953.5000     0.2046        -150.42       5.089E-3      -153.98       5.106E-3      -153.15       0.33652       140.59         
1956.4900     0.2067        -149.43       5.00E-3       -157.47       5.006E-3      -157.04       0.33313       140.28         
1959.4800     0.20834       -148.42       5.035E-3      -160.92       5.126E-3      -160.11       0.3304        139.80         
1962.4700     0.20958       -147.36       4.988E-3      -164.62       5.03E-3       -164.74       0.32842       139.19         
1965.4600     0.21019       -146.29       4.934E-3      -169.57       4.936E-3      -167.76       0.32735       138.45         
1968.4500     0.21034       -145.14       4.95E-3       -171.51       5.03E-3       -172.00       0.32729       137.66         
1971.4400     0.20975       -144.02       5.004E-3      -175.77       4.944E-3      -175.84       0.32848       136.92         
1974.4300     0.20861       -142.82       4.969E-3      -179.69       4.972E-3      -178.43       0.33039       136.29         
1977.4200     0.20737       -141.57       4.891E-3      177.37        4.816E-3      177.86        0.33323       135.75         
1980.4100     0.20571       -140.26       4.903E-3      172.44        4.821E-3      173.05        0.33651       135.42         
1983.4000     0.20389       -138.86       4.742E-3      169.33        4.881E-3      170.43        0.34008       135.29         
1986.3900     0.20196       -137.42       4.689E-3      165.82        4.831E-3      166.41        0.34368       135.36         
1989.3800     0.19992       -135.93       4.668E-3      162.09        4.794E-3      162.71        0.34687       135.60         
1992.3700     0.19798       -134.35       4.621E-3      157.96        4.773E-3      158.72        0.3495        136.02         
1995.3600     0.19584       -132.71       4.729E-3      155.16        4.668E-3      154.82        0.35139       136.57         
1998.3500     0.1938        -130.90       4.64E-3       151.06        4.588E-3      152.31        0.35239       137.23         
2001.3400     0.19208       -129.01       4.543E-3      147.90        4.52E-3       148.84        0.35248       137.92         
2004.3300     0.19067       -126.98       4.516E-3      145.16        4.441E-3      145.58        0.35154       138.64         
2007.3200     0.18962       -124.82       4.417E-3      141.12        4.348E-3      141.16        0.34957       139.31         
2010.3100     0.18898       -122.51       4.375E-3      136.91        4.418E-3      138.15        0.34674       139.89         
2013.3000     0.18881       -120.01       4.252E-3      133.55        4.338E-3      134.85        0.34312       140.37         
2016.2900     0.18909       -117.47       4.293E-3      131.45        4.242E-3      131.11        0.33881       140.63         
2019.2800     0.19016       -114.78       4.193E-3      127.14        4.183E-3      127.67        0.33436       140.68         
2022.2700     0.19177       -112.07       4.202E-3      123.32        4.222E-3      125.48        0.32968       140.53         
2025.2600     0.19388       -109.37       4.198E-3      120.39        4.171E-3      121.28        0.32567       140.09         
2028.2500     0.19646       -106.62       4.026E-3      117.73        4.098E-3      117.61        0.32216       139.49         
2031.2400     0.19973       -103.89       4.082E-3      114.24        4.035E-3      113.35        0.31957       138.67         
2034.2300     0.20373       -101.20       3.984E-3      110.68        4.018E-3      110.18        0.31802       137.75         
2037.2200     0.20849       -98.58        3.991E-3      106.61        4.008E-3      107.02        0.31769       136.79         
2040.2100     0.21454       -96.08        3.904E-3      103.13        3.98E-3       102.91        0.31855       135.83         
2043.2000     0.22101       -93.92        3.785E-3      100.31        3.828E-3      98.97         0.32063       134.98         
2046.1900     0.22791       -92.01        3.781E-3      95.41         3.788E-3      96.00         0.3235        134.29         
2049.1800     0.23479       -90.34        3.719E-3      93.28         3.756E-3      92.25         0.3271        133.80         
2052.1700     0.24169       -88.78        3.647E-3      89.42         3.582E-3      89.56         0.33099       133.51         
2055.1600     0.24849       -87.32        3.588E-3      86.97         3.603E-3      86.16         0.33496       133.47         
2058.1500     0.25544       -86.00        3.489E-3      84.21         3.531E-3      83.57         0.33873       133.66         
2061.1400     0.26251       -84.72        3.447E-3      79.56         3.445E-3      78.78         0.34197       134.02         
2064.1300     0.26955       -83.56        3.397E-3      75.13         3.459E-3      77.01         0.34459       134.58         
2067.1200     0.27686       -82.48        3.29E-3       71.86         3.342E-3      73.64         0.34616       135.26         
2070.1100     0.28407       -81.48        3.233E-3      69.40         3.288E-3      69.83         0.34672       136.04         
2073.1000     0.29127       -80.52        3.246E-3      68.96         3.165E-3      68.18         0.34622       136.81         
2076.0900     0.29852       -79.67        3.155E-3      62.86         3.16E-3       64.84         0.34459       137.55         
2079.0800     0.30592       -78.87        3.05E-3       61.29         2.994E-3      60.66         0.34202       138.23         
2082.0700     0.31318       -78.14        2.979E-3      58.45         2.824E-3      58.37         0.33863       138.75         
2085.0600     0.32022       -77.50        2.871E-3      56.63         2.868E-3      57.20         0.33478       139.12         
2088.0500     0.32725       -76.89        2.836E-3      53.01         2.788E-3      52.62         0.33059       139.24         
2091.0400     0.33398       -76.35        2.689E-3      50.67         2.783E-3      52.65         0.32646       139.18         
2094.0300     0.34059       -75.85        2.799E-3      46.75         2.741E-3      46.93         0.32254       138.88         
2097.0200     0.34697       -75.36        2.631E-3      44.87         2.638E-3      45.04         0.31924       138.39         
2100.0100     0.35341       -74.93        2.609E-3      40.55         2.555E-3      43.36         0.3168        137.73         
2103.0000     0.35969       -74.53        2.504E-3      39.57         2.521E-3      38.36         0.31542       136.92         
2105.9900     0.36587       -74.16        2.435E-3      37.67         2.397E-3      35.37         0.31504       136.08         
2108.9800     0.37219       -73.75        2.387E-3      35.86         2.414E-3      34.81         0.31585       135.25         
2111.9700     0.37869       -73.35        2.358E-3      30.99         2.38E-3       33.38         0.3178        134.51         
2114.9600     0.38517       -73.04        2.346E-3      30.02         2.264E-3      29.21         0.32048       133.92         
2117.9500     0.39165       -72.69        2.347E-3      26.16         2.297E-3      26.66         0.32401       133.55         
2120.9400     0.39818       -72.40        2.254E-3      24.10         2.184E-3      25.74         0.32785       133.39         
2123.9300     0.4044        -72.15        2.202E-3      20.59         2.20E-3       22.25         0.33163       133.44         
2126.9200     0.41069       -71.92        2.193E-3      19.70         2.105E-3      19.21         0.33532       133.73         
2129.9100     0.41656       -71.80        2.12E-3       18.19         2.123E-3      19.43         0.33841       134.25         
2132.9000     0.42185       -71.72        2.224E-3      15.34         2.029E-3      15.69         0.34063       134.91         
2135.8900     0.42616       -71.73        2.095E-3      12.33         2.072E-3      13.57         0.342         135.71         
2138.8800     0.42907       -71.76        1.99E-3       8.44          2.022E-3      7.94          0.34219       136.56         
2141.8700     0.43111       -71.70        1.933E-3      7.50          1.936E-3      7.72          0.34156       137.43         
2144.8600     0.43272       -71.58        1.892E-3      6.48          1.814E-3      3.18          0.33978       138.28         
2147.8500     0.43407       -71.42        1.876E-3      1.48          1.817E-3      -0.14         0.33707       139.05         
2150.8400     0.43527       -71.27        1.724E-3      1.32          1.725E-3      0.91          0.33345       139.68         
2153.8300     0.43661       -71.13        1.711E-3      -2.40         1.709E-3      -2.59         0.32929       140.14         
2156.8200     0.43767       -71.02        1.748E-3      -3.63         1.645E-3      -2.36         0.32472       140.39         
2159.8100     0.43884       -70.93        1.604E-3      -7.21         1.65E-3       -4.85         0.31999       140.44         
2162.8000     0.44001       -70.84        1.604E-3      -7.79         1.712E-3      -11.92        0.31541       140.22         
2165.7900     0.44125       -70.75        1.541E-3      -10.00        1.663E-3      -10.33        0.31122       139.77         
2168.7800     0.44256       -70.66        1.459E-3      -12.46        1.514E-3      -7.93         0.30777       139.11         
2171.7700     0.44407       -70.55        1.493E-3      -12.33        1.627E-3      -11.50        0.30538       138.28         
2174.7600     0.44557       -70.40        1.47E-3       -15.51        1.498E-3      -14.96        0.30395       137.35         
2177.7500     0.44694       -70.23        1.561E-3      -14.97        1.514E-3      -14.27        0.3039        136.43         
2180.7400     0.44812       -70.05        1.39E-3       -16.52        1.43E-3       -17.43        0.30487       135.52         
2183.7300     0.44925       -69.81        1.398E-3      -16.03        1.367E-3      -19.82        0.30691       134.75         
2186.7200     0.45023       -69.56        1.447E-3      -22.57        1.365E-3      -15.56        0.30987       134.14         
2189.7100     0.45072       -69.27        1.34E-3       -21.52        1.355E-3      -21.05        0.31321       133.77         
2192.7000     0.45075       -68.94        1.273E-3      -22.09        1.467E-3      -19.62        0.31687       133.59         
2195.6900     0.45056       -68.59        1.325E-3      -20.08        1.364E-3      -22.61        0.32032       133.66         
2198.6800     0.44992       -68.22        1.282E-3      -25.22        1.288E-3      -23.34        0.32353       133.95         
2201.6700     0.44891       -67.87        1.301E-3      -24.69        1.30E-3       -27.78        0.32625       134.45         
2204.6600     0.44745       -67.53        1.305E-3      -27.39        1.349E-3      -27.89        0.32812       135.02         
2207.6500     0.44594       -67.22        1.284E-3      -31.15        1.274E-3      -25.26        0.329         135.72         
2210.6400     0.44431       -66.95        1.196E-3      -28.18        1.222E-3      -28.98        0.32921       136.48         
2213.6300     0.44244       -66.73        1.282E-3      -31.79        1.249E-3      -25.60        0.3283        137.20         
2216.6200     0.44062       -66.52        1.226E-3      -35.03        1.299E-3      -30.00        0.32654       137.92         
2219.6100     0.43887       -66.37        1.271E-3      -32.93        1.324E-3      -36.82        0.32394       138.51         
2222.6000     0.43739       -66.27        1.274E-3      -31.85        1.37E-3       -34.98        0.32065       138.96         
2225.5900     0.43599       -66.18        1.261E-3      -33.87        1.241E-3      -33.23        0.31691       139.23         
2228.5800     0.43484       -66.10        1.39E-3       -35.74        1.351E-3      -38.80        0.31302       139.33         
2231.5700     0.43403       -66.00        1.324E-3      -40.48        1.426E-3      -36.32        0.30898       139.20         
2234.5600     0.43299       -65.88        1.299E-3      -40.28        1.169E-3      -40.71        0.30544       138.85         
2237.5500     0.43206       -65.75        1.345E-3      -39.81        1.395E-3      -42.31        0.30238       138.29         
2240.5400     0.43095       -65.54        1.362E-3      -43.04        1.313E-3      -41.77        0.30          137.56         
2243.5300     0.42975       -65.30        1.283E-3      -48.29        1.307E-3      -43.20        0.29884       136.75         
2246.5200     0.42808       -64.98        1.303E-3      -44.21        1.366E-3      -48.98        0.29859       135.86         
2249.5100     0.426         -64.61        1.282E-3      -46.71        1.345E-3      -50.11        0.29943       135.01         
2252.5000     0.42345       -64.22        1.37E-3       -50.53        1.275E-3      -46.87        0.30143       134.24         
2255.4900     0.42062       -63.74        1.366E-3      -52.39        1.388E-3      -49.99        0.30422       133.64         
2258.4800     0.41716       -63.27        1.31E-3       -53.50        1.288E-3      -53.55        0.30743       133.24         
2261.4700     0.41317       -62.77        1.441E-3      -56.69        1.408E-3      -55.02        0.31106       133.03         
2264.4600     0.40876       -62.29        1.275E-3      -59.91        1.355E-3      -58.17        0.31489       133.04         
2267.4500     0.40397       -61.80        1.375E-3      -62.51        1.44E-3       -61.11        0.31844       133.29         
2270.4400     0.39881       -61.34        1.364E-3      -60.87        1.224E-3      -57.66        0.32153       133.67         
2273.4300     0.39362       -60.91        1.447E-3      -64.07        1.45E-3       -60.84        0.32393       134.28         
2276.4200     0.38864       -60.51        1.31E-3       -67.99        1.411E-3      -66.41        0.32578       134.95         
2279.4100     0.38386       -60.11        1.295E-3      -63.17        1.481E-3      -69.28        0.32655       135.72         
2282.4000     0.37943       -59.75        1.281E-3      -69.93        1.388E-3      -68.03        0.32657       136.52         
2285.3900     0.3757        -59.41        1.407E-3      -73.59        1.388E-3      -70.28        0.3255        137.31         
2288.3800     0.37222       -59.03        1.534E-3      -74.01        1.409E-3      -71.22        0.32365       138.03         
2291.3700     0.36921       -58.60        1.423E-3      -74.48        1.369E-3      -76.62        0.32093       138.65         
2294.3600     0.36656       -58.13        1.444E-3      -80.37        1.42E-3       -75.00        0.3175        139.15         
2297.3500     0.3643        -57.56        1.472E-3      -83.06        1.509E-3      -78.08        0.31372       139.45         
2300.3400     0.36229       -56.92        1.572E-3      -82.08        1.409E-3      -76.71        0.30973       139.53         
2303.3300     0.36054       -56.19        1.549E-3      -86.08        1.323E-3      -84.10        0.30579       139.41         
2306.3200     0.35916       -55.36        1.485E-3      -87.95        1.461E-3      -86.80        0.30212       139.08         
2309.3100     0.3578        -54.44        1.466E-3      -89.96        1.499E-3      -87.32        0.29899       138.54         
2312.3000     0.35673       -53.49        1.562E-3      -91.85        1.453E-3      -87.81        0.29681       137.83         
2315.2900     0.3555        -52.52        1.509E-3      -92.07        1.457E-3      -91.25        0.29532       137.06         
2318.2800     0.35406       -51.54        1.605E-3      -98.59        1.634E-3      -95.25        0.2951        136.22         
2321.2700     0.35262       -50.59        1.579E-3      -98.23        1.514E-3      -98.98        0.29582       135.39         
2324.2600     0.35079       -49.70        1.512E-3      -105.71       1.509E-3      -103.10       0.29739       134.66         
2327.2500     0.34897       -48.84        1.531E-3      -107.17       1.573E-3      -103.77       0.29971       134.05         
2330.2400     0.34739       -48.08        1.562E-3      -106.80       1.616E-3      -103.92       0.30289       133.63         
2333.2300     0.34574       -47.44        1.571E-3      -106.55       1.552E-3      -111.10       0.3063        133.41         
2336.2200     0.34445       -46.90        1.521E-3      -105.34       1.594E-3      -106.65       0.30969       133.39         
2339.2100     0.34349       -46.50        1.634E-3      -112.77       1.649E-3      -109.87       0.31316       133.59         
2342.2000     0.34313       -46.14        1.653E-3      -114.85       1.592E-3      -110.58       0.31613       133.95         
2345.1900     0.34322       -45.89        1.622E-3      -115.34       1.656E-3      -114.93       0.31869       134.51         
2348.1800     0.34355       -45.73        1.568E-3      -122.28       1.664E-3      -119.31       0.32034       135.16         
2351.1700     0.34449       -45.61        1.684E-3      -123.96       1.629E-3      -119.74       0.32107       135.92         
2354.1600     0.34581       -45.53        1.685E-3      -122.41       1.588E-3      -125.97       0.32113       136.68         
2357.1500     0.34735       -45.48        1.651E-3      -126.51       1.648E-3      -126.28       0.32001       137.43         
2360.1400     0.34899       -45.47        1.606E-3      -129.86       1.663E-3      -129.60       0.31815       138.14         
2363.1300     0.35066       -45.45        1.772E-3      -128.21       1.526E-3      -132.20       0.31541       138.71         
2366.1200     0.35214       -45.42        1.657E-3      -135.87       1.652E-3      -134.34       0.3122        139.14         
2369.1100     0.35338       -45.41        1.689E-3      -131.84       1.578E-3      -135.46       0.30863       139.39         
2372.1000     0.35393       -45.34        1.704E-3      -139.95       1.563E-3      -139.09       0.3049        139.45         
2375.0900     0.35398       -45.29        1.673E-3      -139.70       1.561E-3      -138.17       0.30128       139.32         
2378.0800     0.3531        -45.25        1.787E-3      -142.16       1.61E-3       -141.57       0.29805       138.96         
2381.0700     0.35169       -45.26        1.757E-3      -143.79       1.723E-3      -141.69       0.29524       138.45         
2384.0600     0.34949       -45.33        1.717E-3      -150.98       1.714E-3      -146.90       0.29335       137.78         
2387.0500     0.34663       -45.46        1.784E-3      -149.30       1.732E-3      -151.77       0.2922        137.04         
2390.0400     0.34337       -45.67        1.763E-3      -154.01       1.788E-3      -147.86       0.29228       136.24         
2393.0300     0.3398        -46.00        1.711E-3      -152.27       1.826E-3      -150.54       0.29334       135.47         
2396.0200     0.33589       -46.44        1.842E-3      -155.17       1.891E-3      -152.80       0.29523       134.81         
2399.0100     0.33178       -46.92        1.621E-3      -158.16       2.008E-3      -163.08       0.29815       134.32         
2402.0000     0.3274        -47.42        1.733E-3      -158.45       1.707E-3      -160.23       0.30137       134.02         
2404.9900     0.32381       -48.09        1.886E-3      -161.69       1.889E-3      -162.22       0.30492       133.95         
2407.9800     0.31991       -48.72        1.851E-3      -164.50       1.837E-3      -165.99       0.30842       134.12         
2410.9700     0.31619       -49.35        1.88E-3       -169.12       1.852E-3      -166.52       0.31146       134.46         
2413.9600     0.31267       -49.99        1.862E-3      -167.98       1.707E-3      -171.46       0.314         135.03         
2416.9500     0.30922       -50.56        1.874E-3      -170.60       1.903E-3      -171.04       0.31571       135.71         
2419.9400     0.30576       -51.08        1.862E-3      -173.16       1.845E-3      -170.65       0.3166        136.51         
2422.9300     0.30228       -51.52        1.953E-3      -174.82       1.972E-3      -174.86       0.31634       137.31         
2425.9200     0.29853       -51.89        1.934E-3      -179.16       1.989E-3      -178.30       0.31527       138.14         
2428.9100     0.29441       -52.17        1.996E-3      179.30        1.984E-3      -178.56       0.31313       138.90         
2431.9000     0.2898        -52.43        1.999E-3      177.12        1.918E-3      174.63        0.31011       139.53         
2434.8900     0.28422       -52.64        2.058E-3      173.48        1.991E-3      176.46        0.30638       140.06         
2437.8800     0.27826       -52.83        2.024E-3      173.23        2.027E-3      175.21        0.30225       140.35         
2440.8700     0.2713        -53.06        2.116E-3      168.36        2.104E-3      173.76        0.29764       140.44         
2443.8600     0.26386       -53.27        2.117E-3      167.60        2.179E-3      168.11        0.29313       140.26         
2446.8500     0.25598       -53.50        2.152E-3      164.25        2.124E-3      167.67        0.28886       139.79         
2449.8400     0.24798       -53.74        2.102E-3      161.19        2.134E-3      164.05        0.28523       139.10         
2452.8300     0.23987       -54.05        2.149E-3      159.43        2.225E-3      159.94        0.28255       138.19         
2455.8200     0.23206       -54.45        2.262E-3      156.29        2.199E-3      157.67        0.28115       137.15         
2458.8100     0.2242        -54.83        2.361E-3      154.22        2.209E-3      153.57        0.2807        136.04         
2461.8000     0.21664       -55.26        2.168E-3      150.70        2.256E-3      152.43        0.28191       134.99         
2464.7900     0.2095        -55.66        2.386E-3      150.11        2.288E-3      150.13        0.28414       134.00         
2467.7800     0.20273       -55.99        2.297E-3      143.35        2.318E-3      143.92        0.2874        133.27         
2470.7700     0.19654       -56.29        2.349E-3      142.74        2.433E-3      142.55        0.29134       132.71         
2473.7600     0.19076       -56.37        2.469E-3      138.06        2.41E-3       138.93        0.29563       132.49         
2476.7500     0.18538       -56.35        2.398E-3      134.74        2.456E-3      133.83        0.30004       132.49         
2479.7400     0.18022       -56.02        2.468E-3      132.00        2.513E-3      132.06        0.30404       132.73         
2482.7300     0.17503       -55.51        2.507E-3      130.97        2.546E-3      131.75        0.30778       133.23         
2485.7200     0.16995       -54.75        2.492E-3      126.65        2.511E-3      128.14        0.31075       133.89         
2488.7100     0.16467       -53.84        2.437E-3      125.63        2.457E-3      122.42        0.3127        134.70         
2491.7000     0.15895       -52.60        2.461E-3      122.19        2.493E-3      124.91        0.31384       135.62         
2494.6900     0.15292       -51.18        2.516E-3      120.28        2.495E-3      119.97        0.31373       136.55         
2497.6800     0.14611       -49.33        2.60E-3       116.28        2.554E-3      117.18        0.31249       137.47         
2500.6700     0.14          -46.93        2.517E-3      114.37        2.50E-3       112.44        0.31027       138.33         
2503.6600     0.13464       -44.33        2.626E-3      109.71        2.572E-3      108.83        0.30695       139.06         
2506.6500     0.13006       -41.65        2.667E-3      107.72        2.643E-3      106.50        0.30295       139.57         
2509.6400     0.12647       -38.88        2.63E-3       103.82        2.689E-3      103.58        0.29857       139.86         
2512.6300     0.12372       -36.41        2.652E-3      100.97        2.709E-3      104.21        0.29386       139.89         
2515.6200     0.12165       -34.09        2.683E-3      98.44         2.667E-3      98.82         0.2893        139.65         
2518.6100     0.12035       -32.15        2.836E-3      96.59         2.759E-3      95.50         0.28525       139.10         
2521.6000     0.12021       -30.51        2.78E-3       91.48         2.69E-3       91.02         0.2821        138.37         
2524.5900     0.12063       -29.21        2.759E-3      90.94         2.853E-3      87.96         0.27993       137.41         
2527.5800     0.12162       -28.16        2.817E-3      86.64         2.763E-3      86.89         0.2791        136.37         
2530.5700     0.12367       -27.32        2.777E-3      82.99         2.897E-3      82.33         0.27945       135.29         
2533.5600     0.12619       -26.62        2.871E-3      79.50         2.803E-3      81.17         0.2812        134.34         
2536.5500     0.12959       -26.00        2.833E-3      76.43         2.79E-3       76.73         0.28414       133.52         
2539.5400     0.13339       -25.48        2.868E-3      75.35         2.839E-3      74.22         0.28771       132.93         
2542.5300     0.13732       -24.95        2.813E-3      71.73         2.945E-3      71.51         0.29196       132.59         
2545.5200     0.14116       -24.55        2.871E-3      66.69         2.919E-3      67.44         0.29642       132.56         
2548.5100     0.14493       -24.19        2.883E-3      64.79         2.912E-3      64.50         0.30074       132.79         
2551.5000     0.14831       -23.83        2.901E-3      60.07         2.95E-3       60.89         0.30454       133.26         
2554.4900     0.151         -23.62        2.949E-3      57.88         2.858E-3      58.18         0.30774       133.97         
2557.4800     0.15291       -23.57        2.963E-3      55.52         2.841E-3      56.72         0.30992       134.80         
2560.4700     0.15431       -23.64        2.929E-3      53.79         2.901E-3      52.36         0.31101       135.77         
2563.4600     0.15492       -23.96        2.983E-3      50.41         3.016E-3      51.02         0.31076       136.78         
2566.4500     0.1549        -24.50        3.013E-3      47.03         3.013E-3      47.67         0.30937       137.77         
2569.4400     0.15429       -25.29        2.994E-3      41.78         2.985E-3      43.13         0.30687       138.66         
2572.4300     0.15351       -26.34        2.954E-3      41.42         2.93E-3       39.76         0.30327       139.38         
2575.4200     0.15245       -27.66        3.073E-3      37.10         3.057E-3      37.85         0.29898       139.90         
2578.4100     0.15156       -29.32        3.005E-3      33.29         3.038E-3      34.18         0.29407       140.18         
2581.4000     0.15085       -31.14        3.107E-3      30.28         3.115E-3      29.25         0.28922       140.17         
2584.3900     0.15024       -33.10        3.019E-3      26.30         3.051E-3      27.61         0.2844        139.85         
2587.3800     0.14983       -35.12        3.075E-3      25.20         3.14E-3       24.27         0.28027       139.25         
2590.3700     0.14984       -37.10        3.036E-3      20.55         3.082E-3      20.21         0.27707       138.43         
2593.3600     0.14994       -38.94        3.015E-3      15.64         3.076E-3      16.45         0.27519       137.40         
2596.3500     0.15027       -40.61        3.068E-3      12.64         3.039E-3      15.24         0.27437       136.29         
2599.3400     0.15038       -42.11        3.025E-3      12.69         3.062E-3      11.85         0.27516       135.18         
2602.3300     0.15025       -43.50        3.067E-3      7.58          3.137E-3      9.14          0.27731       134.19         
2605.3200     0.14942       -44.75        3.045E-3      4.32          3.155E-3      5.32          0.28054       133.38         
2608.3100     0.14822       -45.85        3.132E-3      1.06          3.013E-3      2.87          0.28473       132.83         
2611.3000     0.14627       -46.94        3.002E-3      -1.58         3.053E-3      1.39          0.28922       132.57         
2614.2900     0.14363       -48.03        3.073E-3      -4.44         3.15E-3       -3.39         0.29408       132.65         
2617.2800     0.14037       -49.14        2.984E-3      -6.00         2.971E-3      -9.00         0.29861       132.99         
2620.2700     0.13658       -50.37        3.011E-3      -10.19        3.143E-3      -10.88        0.3026        133.61         
2623.2600     0.13244       -51.84        3.084E-3      -14.34        3.115E-3      -12.74        0.30559       134.42         
2626.2500     0.12817       -53.42        2.985E-3      -17.29        3.136E-3      -16.17        0.30767       135.41         
2629.2400     0.12376       -55.40        3.026E-3      -19.98        3.095E-3      -17.99        0.30845       136.48         
2632.2300     0.11923       -57.54        3.043E-3      -22.52        3.056E-3      -21.52        0.30789       137.57         
2635.2200     0.115         -59.99        3.026E-3      -25.33        3.039E-3      -25.70        0.30605       138.63         
2638.2100     0.11095       -62.49        2.978E-3      -26.94        3.122E-3      -27.47        0.30313       139.59         
2641.2000     0.1074        -64.92        3.108E-3      -32.68        3.06E-3       -30.90        0.29906       140.36         
2644.1900     0.10426       -67.38        2.989E-3      -34.21        2.95E-3       -34.26        0.29444       140.94         
2647.1800     0.10143       -69.65        3.079E-3      -38.21        3.119E-3      -38.42        0.28926       141.24         
2650.1700     0.09887       -71.77        3.072E-3      -40.48        3.013E-3      -40.04        0.2839        141.20         
2653.1600     0.09642       -73.79        3.067E-3      -43.99        3.061E-3      -46.72        0.27876       140.87         
2656.1500     0.09355       -75.33        3.067E-3      -47.22        3.003E-3      -45.82        0.27422       140.26         
2659.1400     0.09043       -76.88        3.047E-3      -49.21        3.031E-3      -49.25        0.27064       139.34         
2662.1300     0.0869        -78.06        3.044E-3      -54.18        3.005E-3      -49.95        0.26833       138.25         
2665.1200     0.08273       -79.08        3.032E-3      -56.45        3.107E-3      -55.88        0.2674        137.01         
2668.1100     0.07788       -80.08        3.04E-3       -58.57        2.992E-3      -60.88        0.26799       135.83         
2671.1000     0.07278       -80.92        3.122E-3      -62.03        2.989E-3      -60.86        0.27012       134.74         
2674.0900     0.06719       -81.92        3.068E-3      -66.19        3.087E-3      -65.68        0.27323       133.84         
2677.0800     0.06133       -83.20        3.00E-3       -67.93        3.016E-3      -68.90        0.27726       133.23         
2680.0700     0.05512       -84.92        2.96E-3       -70.38        3.018E-3      -71.63        0.28195       132.93         
2683.0600     0.04883       -86.93        2.936E-3      -74.53        2.912E-3      -73.88        0.28667       132.97         
2686.0500     0.0428        -89.63        2.94E-3       -77.42        2.901E-3      -77.24        0.29114       133.25         
2689.0400     0.03683       -93.23        3.017E-3      -80.76        2.951E-3      -80.09        0.2949        133.80         
2692.0300     0.03129       -98.14        2.896E-3      -83.14        2.947E-3      -84.39        0.29767       134.57         
2695.0200     0.02609       -103.62       2.96E-3       -86.35        2.909E-3      -87.41        0.29955       135.48         
2698.0100     0.02136       -111.04       2.937E-3      -89.84        2.914E-3      -90.06        0.30008       136.47         
2701.0000     0.01712       -119.96       2.915E-3      -93.63        2.888E-3      -93.70        0.29927       137.48         
2703.9900     0.01346       -132.11       2.921E-3      -96.85        2.892E-3      -96.52        0.29753       138.40         
2706.9800     0.01031       -148.87       2.849E-3      -99.05        2.837E-3      -98.04        0.29444       139.24         
2709.9700     0.00821       -176.21       2.925E-3      -101.51       2.902E-3      -102.60       0.29071       139.86         
2712.9600     0.008         149.35        2.821E-3      -105.49       2.865E-3      -104.18       0.2863        140.27         
2715.9500     0.01013       117.93        2.795E-3      -109.00       2.749E-3      -106.77       0.28135       140.41         
2718.9400     0.01418       99.20         2.803E-3      -109.10       2.733E-3      -110.75       0.27667       140.23         
2721.9300     0.01908       87.65         2.795E-3      -113.43       2.714E-3      -113.67       0.27218       139.76         
2724.9200     0.02447       80.03         2.658E-3      -116.50       2.688E-3      -116.59       0.2684        139.02         
2727.9100     0.03043       75.30         2.706E-3      -119.75       2.801E-3      -120.68       0.26578       138.00         
2730.9000     0.03637       71.67         2.742E-3      -123.04       2.695E-3      -123.35       0.26453       136.85         
2733.8900     0.04252       69.02         2.728E-3      -124.38       2.73E-3       -125.23       0.26475       135.62         
2736.8800     0.04854       66.75         2.681E-3      -129.19       2.725E-3      -128.81       0.26639       134.51         
2739.8700     0.05389       64.87         2.657E-3      -131.56       2.67E-3       -130.83       0.26951       133.54         
2742.8600     0.05877       63.26         2.688E-3      -135.46       2.736E-3      -133.76       0.27364       132.81         
2745.8500     0.06311       61.93         2.592E-3      -138.63       2.571E-3      -138.58       0.27841       132.42         
2748.8400     0.06692       60.89         2.618E-3      -140.55       2.647E-3      -141.14       0.28355       132.32         
2751.8300     0.07054       59.70         2.621E-3      -145.62       2.626E-3      -143.05       0.28859       132.56         
2754.8200     0.07341       58.50         2.58E-3       -148.26       2.542E-3      -146.56       0.29306       133.06         
2757.8100     0.07599       57.35         2.574E-3      -149.39       2.615E-3      -149.76       0.29692       133.81         
2760.8000     0.07822       56.29         2.582E-3      -152.97       2.442E-3      -151.33       0.29981       134.75         
2763.7900     0.08048       55.18         2.486E-3      -155.90       2.523E-3      -156.34       0.30152       135.84         
2766.7800     0.08252       53.96         2.555E-3      -157.44       2.539E-3      -156.86       0.30196       136.97         
2769.7700     0.08438       52.77         2.477E-3      -162.15       2.523E-3      -158.91       0.30124       138.13         
2772.7600     0.08666       51.64         2.479E-3      -161.38       2.446E-3      -163.55       0.29908       139.24         
2775.7500     0.08881       50.52         2.53E-3       -166.77       2.449E-3      -165.37       0.29573       140.23         
2778.7400     0.09095       49.43         2.483E-3      -169.40       2.454E-3      -168.57       0.29148       141.03         
2781.7300     0.09319       48.49         2.381E-3      -171.48       2.406E-3      -172.98       0.28643       141.60         
2784.7200     0.09518       47.72         2.42E-3       -175.85       2.462E-3      -175.99       0.28087       141.89         
2787.7100     0.09727       47.11         2.36E-3       -177.42       2.365E-3      -177.26       0.27523       141.84         
2790.7000     0.09917       46.73         2.369E-3      179.79        2.314E-3      -178.89       0.26984       141.47         
2793.6900     0.10087       46.57         2.346E-3      177.45        2.313E-3      -179.36       0.26516       140.74         
2796.6800     0.10256       46.57         2.367E-3      175.93        2.408E-3      175.46        0.26139       139.74         
2799.6700     0.10411       46.71         2.359E-3      171.15        2.381E-3      172.59        0.25915       138.55         
2802.6600     0.10551       46.87         2.324E-3      167.65        2.262E-3      169.29        0.25827       137.26         
2805.6500     0.1066        47.12         2.295E-3      166.12        2.254E-3      167.54        0.25905       135.97         
2808.6400     0.1074        47.53         2.302E-3      162.63        2.232E-3      164.68        0.26114       134.84         
2811.6300     0.108         48.04         2.281E-3      162.11        2.175E-3      160.52        0.26441       133.91         
2814.6200     0.10869       48.60         2.233E-3      158.14        2.28E-3       157.86        0.26846       133.25         
2817.6100     0.10936       49.26         2.303E-3      154.66        2.21E-3       157.29        0.27313       132.89         
2820.6000     0.11015       49.86         2.168E-3      153.76        2.157E-3      155.87        0.27791       132.84         
2823.5900     0.11087       50.45         2.197E-3      151.66        2.226E-3      151.54        0.28232       133.11         
2826.5800     0.11175       51.14         2.166E-3      147.85        2.225E-3      149.94        0.28634       133.60         
2829.5700     0.11257       51.88         2.172E-3      144.25        2.20E-3       147.45        0.28953       134.32         
2832.5600     0.11394       52.66         2.134E-3      145.13        2.192E-3      145.79        0.29191       135.23         
2835.5500     0.11505       53.57         2.167E-3      139.93        2.171E-3      142.30        0.29295       136.24         
2838.5400     0.11654       54.52         2.243E-3      140.07        2.141E-3      138.08        0.29292       137.26         
2841.5300     0.11815       55.62         2.168E-3      135.71        2.09E-3       136.88        0.29169       138.28         
2844.5200     0.11997       56.86         2.234E-3      133.17        2.218E-3      134.23        0.28922       139.19         
2847.5100     0.12225       58.13         2.227E-3      132.70        2.052E-3      130.93        0.2859        139.96         
2850.5000     0.12462       59.28         2.224E-3      127.46        2.285E-3      131.80        0.28174       140.54         
2853.4900     0.12691       60.34         2.22E-3       124.55        2.28E-3       127.06        0.27732       140.85         
2856.4800     0.12907       61.49         2.204E-3      123.23        2.212E-3      123.86        0.27244       140.89         
2859.4700     0.13076       62.73         2.13E-3       118.79        2.306E-3      121.98        0.26792       140.62         
2862.4600     0.13258       64.01         2.235E-3      118.06        2.201E-3      117.84        0.26402       140.09         
2865.4500     0.13468       65.39         2.124E-3      116.28        2.169E-3      116.37        0.26084       139.28         
2868.4400     0.13702       66.77         2.129E-3      111.52        2.136E-3      111.80        0.25852       138.33         
2871.4300     0.13954       68.09         2.044E-3      108.03        2.121E-3      109.42        0.25764       137.23         
2874.4200     0.14232       69.34         2.142E-3      105.26        2.123E-3      107.85        0.25799       136.10         
2877.4100     0.14558       70.52         2.061E-3      102.32        2.191E-3      102.97        0.25947       135.08         
2880.4000     0.14901       71.57         2.142E-3      102.03        2.003E-3      101.49        0.26219       134.13         
2883.3900     0.15265       72.57         2.074E-3      100.25        2.071E-3      96.68         0.26562       133.45         
2886.3800     0.15646       73.61         2.072E-3      95.27         2.074E-3      96.30         0.26979       133.02         
2889.3700     0.16056       74.68         2.073E-3      93.40         2.098E-3      93.74         0.27417       132.88         
2892.3600     0.16525       75.73         2.075E-3      87.70         2.02E-3       89.78         0.27856       132.98         
2895.3500     0.17054       76.75         2.125E-3      87.78         2.033E-3      87.35         0.28276       133.37         
2898.3400     0.176         77.71         1.903E-3      82.15         2.04E-3       80.92         0.28616       133.99         
2901.3300     0.18157       78.63         1.961E-3      80.61         1.931E-3      79.96         0.28878       134.76         
2904.3200     0.18744       79.55         2.096E-3      76.31         2.024E-3      77.59         0.29039       135.62         
2907.3100     0.19354       80.44         2.045E-3      75.23         2.023E-3      73.99         0.29102       136.58         
2910.3000     0.19936       81.27         2.02E-3       71.87         2.00E-3       72.91         0.29042       137.51         
2913.2900     0.20538       81.95         1.955E-3      67.45         1.879E-3      66.47         0.28895       138.40         
2916.2800     0.21139       82.59         1.986E-3      66.39         1.995E-3      67.26         0.28651       139.18         
2919.2700     0.21744       83.10         1.944E-3      64.02         1.909E-3      63.54         0.28349       139.80         
2922.2600     0.22335       83.45         1.99E-3       62.02         2.027E-3      61.50         0.27982       140.26         
2925.2500     0.22912       83.71         1.887E-3      57.97         1.952E-3      58.11         0.2758        140.47         
2928.2400     0.23471       83.86         1.903E-3      54.78         1.828E-3      55.62         0.27175       140.45         
2931.2300     0.24044       83.93         1.833E-3      52.75         1.883E-3      51.68         0.26796       140.16         
2934.2200     0.24616       83.88         1.846E-3      52.40         1.882E-3      50.35         0.2646        139.65         
2937.2100     0.25205       83.82         1.867E-3      49.00         1.859E-3      49.78         0.2622        138.91         
2940.2000     0.25801       83.66         1.828E-3      42.59         1.698E-3      42.77         0.26042       138.02         
2943.1900     0.26419       83.46         1.852E-3      40.48         1.762E-3      45.12         0.26014       137.04         
2946.1800     0.27028       83.22         1.723E-3      38.61         1.814E-3      42.10         0.26091       136.11         
2949.1700     0.27651       83.05         1.671E-3      34.16         1.754E-3      34.89         0.26282       135.27         
2952.1600     0.28296       82.88         1.718E-3      33.07         1.709E-3      34.66         0.26563       134.58         
2955.1500     0.28933       82.79         1.71E-3       30.74         1.723E-3      31.97         0.26915       134.13         
2958.1400     0.29583       82.70         1.687E-3      30.56         1.649E-3      30.50         0.27302       133.93         
2961.1300     0.30204       82.66         1.711E-3      24.17         1.618E-3      29.99         0.27697       133.99         
2964.1200     0.30784       82.65         1.741E-3      27.44         1.71E-3       28.56         0.28089       134.30         
2967.1100     0.31309       82.68         1.649E-3      21.98         1.542E-3      21.65         0.28404       134.84         
2970.1000     0.31785       82.69         1.582E-3      17.20         1.654E-3      20.03         0.28687       135.55         
2973.0900     0.32192       82.68         1.605E-3      18.45         1.648E-3      19.06         0.28865       136.43         
2976.0800     0.32556       82.70         1.598E-3      18.21         1.569E-3      20.31         0.28944       137.40         
2979.0700     0.32863       82.68         1.494E-3      16.66         1.536E-3      11.60         0.28914       138.38         
2982.0600     0.33124       82.65         1.575E-3      10.74         1.499E-3      11.08         0.28782       139.34         
2985.0500     0.33348       82.55         1.61E-3       11.83         1.584E-3      14.66         0.28565       140.26         
2988.0400     0.3357        82.44         1.588E-3      7.67          1.525E-3      8.64          0.28232       141.04         
2991.0300     0.33787       82.28         1.415E-3      5.41          1.524E-3      6.95          0.27825       141.63         
2994.0200     0.33992       82.06         1.43E-3       0.95          1.436E-3      2.50          0.27379       141.98         
2997.0100     0.34199       81.82         1.633E-3      -3.21         1.331E-3      -1.65         0.26883       142.07         
3000.0000     0.34402       81.59         1.52E-3       -1.33         1.451E-3      -4.82         0.26371       141.83         
