!    08/05/2026   14:51:13 
! Ref Plane: 0.000 mm
# MHZ S MA R  50
!
10.0000       1.00091       -178.80       1.185E-4      -89.41        5.519E-5      -15.88        0.25263       -9.81          
12.9900       1.00125       -178.50       1.285E-5      -98.47        1.021E-4      -167.32       0.25129       -12.23         
15.9800       1.00148       -178.21       2.384E-5      -13.78        6.755E-5      22.57         0.25044       -14.89         
18.9700       1.00172       -177.92       1.934E-5      -16.95        8.206E-5      74.00         0.24975       -17.69         
21.9600       1.00223       -177.62       3.964E-5      156.87        5.892E-5      136.97        0.2488        -20.67         
24.9500       1.00248       -177.33       4.869E-5      73.59         6.888E-5      -26.19        0.24592       -23.39         
27.9400       1.00278       -177.03       1.494E-4      127.91        9.693E-5      -9.55         0.24652       -25.35         
30.9300       1.003         -176.74       5.934E-5      -28.51        4.018E-5      -2.22         0.25083       -28.00         
33.9200       1.00316       -176.45       9.407E-5      -64.41        5.963E-5      27.93         0.25366       -30.99         
36.9100       1.00322       -176.16       1.173E-4      -38.50        2.131E-5      137.25        0.25605       -33.66         
39.9000       1.00314       -175.87       6.128E-5      -71.15        1.185E-4      -61.39        0.26014       -36.24         
42.8900       1.00308       -175.58       4.882E-5      -108.58       4.891E-5      152.82        0.26429       -38.78         
45.8800       1.00331       -175.30       4.357E-5      40.66         2.03E-5       -77.00        0.26835       -41.18         
48.8700       1.00327       -174.95       1.488E-4      28.40         7.392E-5      5.32          0.27214       -43.46         
51.8600       1.00288       -174.70       3.324E-5      -116.82       1.282E-4      -61.99        0.27555       -45.87         
54.8500       1.00407       -174.49       3.968E-5      -109.08       2.826E-5      -109.58       0.27766       -47.87         
57.8400       1.00309       -174.10       6.433E-5      150.61        6.516E-5      -47.17        0.28002       -49.43         
60.8300       1.00317       -173.81       6.933E-5      -150.70       3.869E-5      -60.17        0.28392       -50.91         
63.8200       1.00321       -173.51       7.471E-5      169.15        8.613E-5      -35.00        0.28805       -52.55         
66.8100       1.00313       -173.19       7.37E-5       -54.92        5.386E-5      -77.97        0.29141       -54.30         
69.8000       1.00361       -172.88       2.796E-5      154.77        8.838E-5      -4.55         0.29434       -56.05         
72.7900       1.00405       -172.57       1.147E-4      152.73        3.096E-5      -161.75       0.29729       -57.85         
75.7800       1.00425       -172.26       4.118E-5      -69.88        5.65E-5       -56.39        0.30006       -59.76         
78.7700       1.00439       -171.92       1.342E-4      19.71         3.054E-5      171.37        0.30249       -61.76         
81.7600       1.00464       -171.59       2.403E-5      -139.76       6.698E-5      -43.68        0.30417       -63.74         
84.7500       1.00485       -171.31       1.004E-4      -99.86        9.695E-5      179.28        0.30539       -65.59         
87.7400       1.00506       -171.02       6.198E-5      123.36        5.686E-5      -44.88        0.30789       -67.29         
90.7300       1.00528       -170.73       3.124E-5      -42.91        2.351E-5      146.97        0.31111       -69.10         
93.7200       1.00574       -170.38       3.014E-5      -31.74        7.635E-5      23.73         0.31435       -70.90         
96.7100       1.0055        -170.13       2.925E-5      -86.42        8.186E-5      29.19         0.31745       -72.60         
99.7000       1.00554       -169.84       5.059E-5      -42.20        6.483E-5      -46.24        0.32124       -74.13         
102.6900      1.00514       -169.56       7.573E-5      -160.77       4.761E-5      -147.32       0.32612       -75.54         
105.6800      1.00518       -169.28       4.947E-5      138.47        5.318E-5      -154.22       0.33187       -76.92         
108.6700      1.00511       -169.00       1.39E-5       -113.98       1.111E-4      40.73         0.33778       -78.26         
111.6600      1.00475       -168.71       5.717E-5      109.36        4.833E-5      -115.67       0.34398       -79.47         
114.6500      1.00453       -168.41       5.033E-5      137.72        2.294E-5      13.04         0.35049       -80.63         
117.6400      1.0044        -168.12       1.546E-5      123.30        4.732E-5      159.99        0.35735       -81.79         
120.6300      1.00451       -167.82       3.02E-5       119.08        3.371E-6      -22.79        0.36348       -82.95         
123.6200      1.00471       -167.51       2.776E-5      -21.21        3.65E-5       144.71        0.36884       -84.10         
126.6100      1.00454       -167.19       5.789E-5      -162.23       1.054E-4      -17.81        0.37335       -85.25         
129.6000      1.00452       -166.85       2.451E-5      130.55        5.598E-5      -69.60        0.37746       -86.33         
132.5900      1.00464       -166.54       5.197E-5      144.66        4.017E-5      -16.52        0.38109       -87.39         
135.5800      1.00459       -166.20       2.112E-5      -75.74        7.623E-5      -24.99        0.38443       -88.37         
138.5700      1.00465       -165.88       6.791E-5      -163.05       7.974E-5      -127.40       0.3877        -89.35         
141.5600      1.00498       -165.59       5.40E-5       -175.82       3.086E-5      86.36         0.39116       -90.32         
144.5500      1.00535       -165.31       7.20E-5       -148.67       6.806E-5      165.08        0.39464       -91.35         
147.5400      1.0058        -165.00       6.883E-5      -169.20       1.121E-4      -96.59        0.39801       -92.45         
150.5300      1.00618       -164.71       4.578E-5      -163.58       1.433E-5      -52.99        0.4012        -93.61         
153.5200      1.00639       -164.40       7.817E-5      120.03        6.652E-5      178.40        0.40442       -94.85         
156.5100      1.00648       -164.10       2.348E-5      41.71         3.883E-5      -37.09        0.40803       -96.11         
159.5000      1.00652       -163.81       6.467E-5      122.63        5.869E-5      133.89        0.41192       -97.36         
162.4900      1.00653       -163.55       1.067E-4      129.09        3.42E-5       160.28        0.41601       -98.59         
165.4800      1.00636       -163.28       7.556E-5      125.49        6.252E-5      -98.42        0.42028       -99.81         
168.4700      1.00622       -162.99       6.118E-5      101.88        5.539E-5      13.87         0.42453       -100.96        
171.4600      1.00603       -162.69       1.157E-4      119.59        6.585E-5      175.04        0.42885       -102.05        
174.4500      1.00605       -162.38       7.012E-5      90.41         9.629E-5      67.91         0.4331        -103.08        
177.4400      1.00571       -162.08       9.277E-5      127.45        3.345E-5      169.18        0.43712       -104.03        
180.4300      1.00514       -161.78       8.88E-5       32.60         4.87E-5       162.28        0.44091       -104.93        
183.4200      1.00475       -161.47       6.015E-5      83.45         1.109E-4      136.40        0.44455       -105.77        
186.4100      1.00426       -161.17       3.678E-5      130.28        4.845E-5      121.35        0.4479        -106.52        
189.4000      1.00396       -160.86       6.592E-5      117.97        9.18E-5       77.52         0.45114       -107.19        
192.3900      1.00354       -160.53       1.243E-4      72.06         1.865E-4      61.82         0.45439       -107.81        
195.3800      1.00364       -160.25       1.902E-4      62.88         1.005E-4      17.93         0.45761       -108.40        
198.3700      1.0039        -159.96       1.149E-4      41.75         1.187E-4      28.99         0.46046       -109.01        
201.3600      1.0044        -159.66       1.388E-4      40.49         9.592E-5      1.99          0.46309       -109.62        
204.3500      1.0049        -159.34       1.111E-4      20.70         1.059E-4      -11.04        0.46526       -110.26        
207.3400      1.00548       -159.01       1.07E-4       -10.65        1.538E-4      38.92         0.46726       -110.95        
210.3300      1.00591       -158.68       1.342E-4      22.64         1.325E-4      3.06          0.46914       -111.71        
213.3200      1.00601       -158.37       1.139E-4      -33.51        1.088E-4      -1.84         0.4727        -112.41        
216.3100      1.00604       -158.08       1.776E-4      -38.26        1.719E-4      -44.72        0.47526       -113.26        
219.3000      1.00647       -157.81       1.502E-4      -69.95        1.831E-4      -72.89        0.47784       -114.15        
222.2900      1.00697       -157.52       1.39E-4       -80.89        2.324E-4      -88.94        0.48067       -115.07        
225.2800      1.00749       -157.17       1.339E-4      -97.99        2.296E-4      -77.16        0.48362       -116.00        
228.2700      1.00745       -156.83       1.193E-4      -130.68       1.702E-4      -107.52       0.48655       -116.90        
231.2600      1.00713       -156.52       1.33E-4       -114.19       2.059E-4      -126.37       0.4896        -117.81        
234.2500      1.00654       -156.20       1.338E-4      -121.36       7.611E-5      -92.60        0.49267       -118.71        
237.2400      1.00596       -155.89       1.21E-4       -122.49       1.523E-4      -111.73       0.49587       -119.58        
240.2300      1.00521       -155.58       1.304E-4      -129.47       1.556E-4      -94.91        0.49928       -120.40        
243.2200      1.00436       -155.27       1.615E-4      -166.05       1.38E-4       -129.08       0.50262       -121.14        
246.2100      1.00377       -154.97       1.522E-4      177.92        1.505E-4      -155.14       0.50617       -121.82        
249.2000      1.00344       -154.67       1.932E-4      174.79        1.786E-4      165.97        0.50943       -122.42        
252.1900      1.00331       -154.38       8.751E-5      161.13        1.50E-4       170.11        0.51241       -122.95        
255.1800      1.00326       -154.08       1.143E-4      178.43        1.136E-4      136.31        0.51507       -123.41        
258.1700      1.00359       -153.78       1.425E-4      137.63        1.312E-4      160.84        0.5173        -123.84        
261.1600      1.00396       -153.46       1.313E-4      136.68        1.428E-4      130.60        0.51936       -124.25        
264.1500      1.00432       -153.13       7.38E-5       71.90         8.252E-5      67.71         0.52094       -124.64        
267.1400      1.00459       -152.81       8.202E-5      98.43         1.628E-4      17.97         0.52253       -125.05        
270.1300      1.00504       -152.53       6.513E-5      6.24          2.469E-5      38.28         0.52385       -125.48        
273.1200      1.00609       -152.26       5.425E-5      -16.52        8.119E-5      21.68         0.52493       -125.94        
276.1100      1.00737       -151.97       3.874E-5      -91.85        3.508E-5      -26.16        0.52602       -126.38        
279.1000      1.00846       -151.64       2.363E-5      154.33        6.272E-5      -127.68       0.52755       -126.83        
282.0900      1.00849       -151.28       7.329E-5      -171.17       2.584E-5      -156.46       0.52933       -127.32        
285.0800      1.00814       -150.91       4.751E-5      162.85        1.71E-4       3.75          0.53122       -127.87        
288.0700      1.00772       -150.53       1.10E-4       -133.31       3.101E-5      -154.39       0.5329        -128.50        
291.0600      1.007         -150.21       7.646E-5      -174.87       1.113E-4      170.21        0.53461       -129.20        
294.0500      1.00616       -149.89       7.09E-5       144.86        6.284E-5      133.52        0.53667       -129.91        
297.0400      1.00509       -149.56       1.382E-4      164.04        1.19E-4       139.66        0.53897       -130.64        
300.0300      1.00428       -149.23       8.184E-5      116.78        4.773E-5      174.46        0.54155       -131.35        
303.0200      1.00339       -148.92       8.218E-5      142.90        1.578E-4      170.69        0.54431       -132.02        
306.0100      1.00266       -148.61       1.43E-4       138.11        8.706E-5      -122.41       0.54708       -132.64        
309.0000      1.00228       -148.32       1.142E-4      128.47        1.272E-4      97.24         0.54979       -133.22        
311.9900      1.00189       -148.02       1.58E-4       141.97        1.452E-4      95.88         0.55232       -133.74        
314.9800      1.00146       -147.71       1.192E-4      119.57        1.345E-4      134.63        0.55462       -134.22        
317.9700      1.00121       -147.42       2.05E-4       115.12        2.234E-4      128.16        0.55682       -134.66        
320.9600      1.00097       -147.15       1.413E-4      110.50        1.893E-4      112.97        0.55897       -135.07        
323.9500      1.00144       -146.86       1.488E-4      87.79         2.544E-4      106.34        0.561         -135.43        
326.9400      1.00246       -146.58       1.54E-4       64.62         2.529E-4      97.91         0.56272       -135.78        
329.9300      1.00376       -146.27       2.48E-4       99.85         1.855E-4      78.14         0.56427       -136.11        
332.9200      1.00505       -145.92       1.891E-4      70.78         2.358E-4      96.81         0.56564       -136.44        
335.9100      1.00594       -145.54       1.625E-4      73.63         1.958E-4      81.07         0.56695       -136.78        
338.9000      1.00651       -145.14       2.452E-4      71.15         3.308E-4      33.25         0.5681        -137.11        
341.8900      1.00662       -144.74       2.097E-4      60.51         2.028E-4      47.77         0.56882       -137.47        
344.8800      1.00644       -144.37       2.711E-4      55.81         1.524E-4      30.63         0.5695        -137.89        
347.8700      1.0062        -144.03       2.499E-4      42.81         3.279E-4      30.86         0.5701        -138.36        
350.8600      1.00567       -143.67       2.124E-4      6.37          1.632E-4      14.75         0.57086       -138.88        
353.8500      1.00538       -143.33       1.624E-4      11.92         2.572E-4      2.40          0.57197       -139.43        
356.8400      1.00472       -142.99       1.858E-4      9.36          1.902E-4      5.72          0.57319       -139.99        
359.8300      1.00401       -142.66       1.749E-4      -5.27         1.678E-4      9.88          0.57463       -140.55        
362.8200      1.00338       -142.34       1.715E-4      3.03          1.626E-4      26.32         0.57623       -141.10        
365.8100      1.00257       -142.03       1.292E-4      2.38          1.80E-4       17.22         0.57781       -141.63        
368.8000      1.00141       -141.73       1.876E-4      -9.89         1.583E-4      4.14          0.57949       -142.15        
371.7900      1.00031       -141.46       2.345E-4      16.30         2.686E-4      30.87         0.58122       -142.63        
374.7800      1.00015       -141.19       2.724E-4      -4.36         2.368E-4      25.09         0.58306       -143.09        
377.7700      0.99996       -140.94       2.646E-4      -8.71         3.348E-4      -0.51         0.5849        -143.51        
380.7600      1.00071       -140.66       3.369E-4      -21.60        2.182E-4      -21.11        0.58701       -143.90        
383.7500      1.00158       -140.34       3.472E-4      -43.58        3.41E-4       -27.51        0.58924       -144.23        
386.7400      1.00259       -140.02       3.906E-4      -45.07        3.843E-4      -51.63        0.5913        -144.52        
389.7300      1.00363       -139.67       3.298E-4      -58.08        2.871E-4      -58.02        0.59334       -144.77        
392.7200      1.00428       -139.28       3.144E-4      -70.50        3.905E-4      -69.53        0.59499       -145.00        
395.7100      1.0045        -138.89       2.322E-4      -85.32        2.515E-4      -89.78        0.59649       -145.22        
398.7000      1.00434       -138.52       2.269E-4      -66.84        3.879E-4      -62.61        0.59743       -145.45        
401.6900      1.00424       -138.14       1.648E-4      -88.74        2.549E-4      -52.61        0.59813       -145.70        
404.6800      1.00419       -137.79       1.355E-4      -78.99        1.307E-4      -90.84        0.59842       -145.99        
407.6700      1.0043        -137.42       1.658E-4      -50.25        1.777E-4      -42.68        0.59855       -146.29        
410.6600      1.00407       -137.04       2.365E-4      -41.48        1.785E-4      -49.21        0.5985        -146.62        
413.6500      1.00365       -136.67       3.329E-4      -57.21        2.294E-4      -57.18        0.59867       -146.97        
416.6400      1.0025        -136.33       2.858E-4      -71.78        3.554E-4      -66.37        0.59883       -147.35        
419.6300      1.0015        -135.98       2.743E-4      -88.45        3.061E-4      -83.47        0.59903       -147.76        
422.6200      0.99977       -135.66       3.11E-4       -102.63       3.167E-4      -107.88       0.59927       -148.20        
425.6100      0.99826       -135.36       3.067E-4      -113.19       3.10E-4       -88.69        0.59934       -148.68        
428.6000      0.99725       -135.09       3.407E-4      -100.26       3.416E-4      -92.64        0.59948       -149.20        
431.5900      0.99684       -134.80       2.306E-4      -123.04       2.251E-4      -118.35       0.59974       -149.73        
434.5800      0.99735       -134.52       2.873E-4      -114.74       3.176E-4      -135.04       0.60003       -150.25        
437.5700      0.99804       -134.22       2.662E-4      -124.32       3.09E-4       -100.94       0.6007        -150.79        
440.5600      0.99872       -133.90       2.161E-4      -128.77       4.005E-4      -132.94       0.60156       -151.29        
443.5500      0.99929       -133.58       2.867E-4      -139.63       3.697E-4      -130.64       0.60284       -151.75        
446.5400      0.99971       -133.23       2.41E-4       -154.35       3.486E-4      -136.72       0.60414       -152.13        
449.5300      0.99986       -132.88       2.07E-4       -144.45       2.196E-4      -162.04       0.60542       -152.45        
452.5200      0.99976       -132.53       3.202E-4      -167.13       2.258E-4      -128.19       0.60642       -152.73        
455.5100      0.99983       -132.20       1.939E-4      -144.45       1.809E-4      -119.69       0.60724       -152.98        
458.5000      0.99982       -131.85       2.486E-4      -139.91       1.771E-4      -152.37       0.60809       -153.21        
461.4900      1.00025       -131.49       1.995E-4      -139.60       1.401E-4      -154.15       0.6089        -153.40        
464.4800      1.00093       -131.11       1.868E-4      -164.19       2.477E-4      -147.80       0.60954       -153.59        
467.4700      1.00092       -130.69       2.775E-4      -166.20       2.505E-4      -135.47       0.61019       -153.78        
470.4600      1.00048       -130.28       3.241E-4      -163.59       2.489E-4      171.14        0.61053       -153.95        
473.4500      0.99939       -129.88       2.432E-4      -166.93       2.819E-4      178.98        0.61078       -154.14        
476.4400      0.99837       -129.54       2.833E-4      174.33        3.315E-4      159.99        0.61057       -154.34        
479.4300      0.99757       -129.22       2.421E-4      165.90        2.19E-4       162.89        0.61004       -154.57        
482.4200      0.99682       -128.93       2.537E-4      176.38        3.453E-4      -170.97       0.60934       -154.85        
485.4100      0.99668       -128.66       2.754E-4      160.26        3.702E-4      170.57        0.60821       -155.17        
488.4000      0.99682       -128.37       1.873E-4      153.46        2.323E-4      166.17        0.60703       -155.56        
491.3900      0.99732       -128.07       2.255E-4      137.55        2.332E-4      130.05        0.60582       -156.02        
494.3800      0.99752       -127.76       2.305E-4      143.16        2.491E-4      163.05        0.60477       -156.51        
497.3700      0.99738       -127.44       1.825E-4      131.48        1.962E-4      153.84        0.60379       -157.05        
500.3600      0.99706       -127.12       1.474E-4      126.38        1.805E-4      160.37        0.60316       -157.60        
503.3500      0.99642       -126.78       2.436E-4      134.78        1.641E-4      168.89        0.60303       -158.16        
506.3400      0.99563       -126.47       1.653E-4      148.32        1.021E-4      126.75        0.60297       -158.69        
509.3300      0.99503       -126.16       1.724E-4      169.93        1.788E-4      -167.46       0.60301       -159.20        
512.3200      0.99476       -125.84       1.534E-4      127.71        1.573E-4      139.97        0.60324       -159.70        
515.3100      0.99467       -125.49       1.865E-4      171.61        1.795E-4      172.66        0.60379       -160.19        
518.3000      0.99468       -125.10       1.527E-4      155.83        2.244E-4      -178.14       0.60467       -160.63        
521.2900      0.99434       -124.70       2.151E-4      173.01        1.80E-4       166.64        0.60613       -161.02        
524.2800      0.99335       -124.29       2.705E-4      160.61        1.969E-4      153.15        0.60771       -161.36        
527.2700      0.99234       -123.91       3.494E-4      154.91        2.20E-4       150.40        0.60941       -161.61        
530.2600      0.99112       -123.55       3.11E-4       151.19        2.371E-4      144.55        0.61125       -161.81        
533.2500      0.99049       -123.23       2.739E-4      140.56        3.388E-4      135.66        0.61294       -161.95        
536.2400      0.99013       -122.93       3.468E-4      141.97        3.402E-4      130.46        0.61451       -162.04        
539.2300      0.99013       -122.63       4.219E-4      138.93        4.369E-4      134.11        0.61563       -162.09        
542.2200      0.99058       -122.32       4.034E-4      121.96        4.528E-4      129.97        0.61654       -162.12        
545.2100      0.99089       -122.00       4.049E-4      122.26        4.665E-4      124.94        0.61697       -162.14        
548.2000      0.99115       -121.67       4.701E-4      121.11        5.027E-4      124.47        0.61712       -162.17        
551.1900      0.99111       -121.33       5.195E-4      105.79        5.063E-4      122.98        0.61704       -162.21        
554.1800      0.9902        -120.99       5.60E-4       100.23        5.726E-4      98.78         0.61673       -162.27        
557.1700      0.9892        -120.65       5.417E-4      92.88         4.675E-4      107.28        0.61624       -162.34        
560.1600      0.98768       -120.34       6.014E-4      86.49         6.268E-4      89.93         0.6156        -162.43        
563.1500      0.98647       -120.03       7.068E-4      76.69         6.643E-4      83.30         0.61471       -162.53        
566.1400      0.98558       -119.69       6.426E-4      67.17         6.517E-4      69.69         0.61368       -162.67        
569.1300      0.9848        -119.32       7.369E-4      65.32         6.495E-4      62.27         0.61243       -162.84        
572.1200      0.9841        -118.92       7.357E-4      50.76         6.556E-4      61.69         0.61119       -163.06        
575.1100      0.98339       -118.52       7.535E-4      42.95         6.747E-4      51.68         0.61016       -163.31        
578.1000      0.98237       -118.13       7.587E-4      32.85         8.063E-4      37.84         0.6096        -163.60        
581.0900      0.98115       -117.78       7.02E-4       38.06         7.837E-4      32.59         0.60943       -163.89        
584.0800      0.97992       -117.45       6.881E-4      14.20         6.849E-4      12.66         0.60965       -164.15        
587.0700      0.97914       -117.16       6.496E-4      16.63         7.186E-4      17.77         0.61021       -164.39        
590.0600      0.97923       -116.87       6.856E-4      7.71          6.006E-4      3.15          0.61096       -164.62        
593.0500      0.97931       -116.58       6.532E-4      3.54          5.327E-4      5.83          0.61197       -164.82        
596.0400      0.97991       -116.28       5.226E-4      -0.10         5.82E-4       -7.11         0.61321       -164.99        
599.0300      0.98097       -115.95       5.591E-4      -11.62        5.296E-4      -8.62         0.61433       -165.15        
602.0200      0.9817        -115.62       5.072E-4      -13.74        4.814E-4      -14.94        0.61559       -165.29        
605.0100      0.98225       -115.28       4.637E-4      -12.74        4.91E-4       -12.34        0.61674       -165.41        
608.0000      0.98242       -114.96       5.12E-4       -19.85        4.164E-4      -16.16        0.61781       -165.52        
610.9900      0.98229       -114.65       4.879E-4      -24.91        5.784E-4      -28.46        0.61884       -165.61        
613.9800      0.98168       -114.37       5.204E-4      -31.98        4.035E-4      -37.29        0.61969       -165.70        
616.9700      0.98103       -114.10       4.312E-4      -30.14        3.697E-4      -36.20        0.6203        -165.78        
619.9600      0.98022       -113.83       4.775E-4      -37.24        4.568E-4      -50.67        0.62044       -165.85        
622.9500      0.97924       -113.54       3.715E-4      -53.05        4.739E-4      -49.10        0.62042       -165.94        
625.9400      0.97787       -113.25       4.253E-4      -54.13        4.753E-4      -60.90        0.61992       -166.07        
628.9300      0.97609       -112.95       3.998E-4      -47.25        4.442E-4      -68.28        0.61924       -166.21        
631.9200      0.97385       -112.67       3.262E-4      -57.84        3.023E-4      -62.43        0.61846       -166.41        
634.9100      0.97115       -112.40       3.671E-4      -58.36        4.082E-4      -80.45        0.61757       -166.65        
637.9000      0.96874       -112.17       3.748E-4      -65.39        3.81E-4       -71.73        0.61691       -166.92        
640.8900      0.9666        -111.96       2.793E-4      -79.10        3.042E-4      -84.67        0.61654       -167.21        
643.8800      0.96503       -111.78       2.848E-4      -76.02        3.014E-4      -60.98        0.61623       -167.50        
646.8700      0.9634        -111.58       2.086E-4      -88.83        4.009E-4      -72.51        0.61623       -167.81        
649.8600      0.96238       -111.38       3.114E-4      -69.63        2.406E-4      -59.45        0.61633       -168.11        
652.8500      0.9614        -111.15       3.127E-4      -66.31        2.836E-4      -76.80        0.61669       -168.39        
655.8400      0.96033       -110.94       3.565E-4      -71.94        2.372E-4      -64.78        0.61732       -168.68        
658.8300      0.95896       -110.69       2.689E-4      -75.45        3.066E-4      -86.58        0.61796       -168.94        
661.8200      0.95732       -110.45       2.804E-4      -78.69        4.15E-4       -72.24        0.61909       -169.19        
664.8100      0.95547       -110.20       2.917E-4      -77.40        3.20E-4       -93.80        0.62019       -169.40        
667.8000      0.95333       -109.95       2.721E-4      -78.05        4.067E-4      -88.66        0.62142       -169.59        
670.7900      0.95089       -109.68       2.584E-4      -88.34        3.389E-4      -81.67        0.62268       -169.74        
673.7800      0.94845       -109.38       3.386E-4      -73.15        3.022E-4      -88.84        0.62391       -169.87        
676.7700      0.94574       -109.05       3.679E-4      -89.25        4.176E-4      -91.28        0.62493       -169.97        
679.7600      0.94293       -108.68       3.469E-4      -87.66        4.234E-4      -90.73        0.62556       -170.04        
682.7500      0.94027       -108.31       4.244E-4      -95.62        3.352E-4      -89.02        0.62584       -170.13        
685.7400      0.93857       -107.95       3.593E-4      -95.84        4.631E-4      -101.82       0.62584       -170.23        
688.7300      0.93858       -107.76       3.835E-4      -113.08       4.36E-4       -107.89       0.62566       -170.35        
691.7200      0.93425       -108.03       2.62E-4       -100.96       2.577E-4      -92.74        0.62518       -170.50        
694.7100      0.92176       -107.85       4.492E-4      -88.83        4.365E-4      -90.88        0.62446       -170.67        
697.7000      0.9153        -107.41       5.185E-4      -96.45        5.426E-4      -99.75        0.62373       -170.90        
700.6900      0.9113        -107.04       5.015E-4      -106.87       5.352E-4      -102.48       0.62311       -171.15        
703.6800      0.90843       -106.74       5.093E-4      -115.36       4.539E-4      -112.45       0.62231       -171.42        
706.6700      0.90588       -106.47       5.436E-4      -123.29       4.544E-4      -121.54       0.62155       -171.70        
709.6600      0.90343       -106.24       4.805E-4      -124.99       5.552E-4      -126.25       0.62102       -172.00        
712.6500      0.90075       -106.04       5.161E-4      -127.55       4.462E-4      -133.46       0.62064       -172.32        
715.6400      0.89809       -105.88       5.098E-4      -129.85       4.28E-4       -140.42       0.62054       -172.64        
718.6300      0.89502       -105.72       5.162E-4      -132.52       5.142E-4      -130.85       0.62089       -172.96        
721.6200      0.89194       -105.55       4.619E-4      -139.02       3.856E-4      -144.91       0.62171       -173.26        
724.6100      0.88829       -105.36       4.345E-4      -131.20       4.61E-4       -138.75       0.62296       -173.52        
727.6000      0.88431       -105.12       4.33E-4       -138.92       5.11E-4       -133.58       0.62445       -173.74        
730.5900      0.87969       -104.85       4.337E-4      -134.06       4.813E-4      -152.20       0.62598       -173.91        
733.5800      0.87471       -104.54       5.087E-4      -137.56       5.665E-4      -137.51       0.62763       -174.04        
736.5700      0.86903       -104.20       5.586E-4      -138.20       5.914E-4      -137.94       0.62913       -174.12        
739.5600      0.86278       -103.83       6.337E-4      -137.26       6.038E-4      -141.01       0.63044       -174.18        
742.5500      0.85646       -103.46       6.673E-4      -141.90       6.70E-4       -142.35       0.63141       -174.21        
745.5400      0.85011       -103.08       7.434E-4      -146.50       8.113E-4      -146.64       0.63225       -174.22        
748.5300      0.84392       -102.72       7.786E-4      -153.00       7.366E-4      -151.32       0.63266       -174.22        
751.5200      0.83821       -102.37       8.749E-4      -158.53       8.755E-4      -155.72       0.6328        -174.23        
754.5100      0.83211       -102.02       8.417E-4      -167.78       8.60E-4       -166.96       0.63248       -174.24        
757.5000      0.8256        -101.72       8.929E-4      -172.76       9.792E-4      -167.22       0.63183       -174.28        
760.4900      0.81832       -101.39       8.794E-4      -175.71       8.804E-4      -166.43       0.63074       -174.36        
763.4800      0.81159       -101.01       9.429E-4      -174.68       9.36E-4       -177.82       0.62942       -174.47        
766.4700      0.80549       -100.66       1.052E-3      -178.20       1.065E-3      174.93        0.62786       -174.62        
769.4600      0.79986       -100.33       1.075E-3      175.00        1.07E-3       174.62        0.62622       -174.85        
772.4500      0.79466       -100.01       1.193E-3      167.48        1.08E-3       162.54        0.62463       -175.14        
775.4400      0.78968       -99.68        1.217E-3      161.60        1.204E-3      156.43        0.62318       -175.46        
778.4300      0.78514       -99.36        1.334E-3      154.42        1.26E-3       151.44        0.62212       -175.83        
781.4200      0.78062       -99.00        1.353E-3      149.01        1.345E-3      145.87        0.62152       -176.22        
784.4100      0.77592       -98.63        1.38E-3       141.17        1.402E-3      141.50        0.62133       -176.59        
787.4000      0.77099       -98.24        1.478E-3      132.19        1.471E-3      134.39        0.62137       -176.96        
790.3900      0.76567       -97.84        1.382E-3      127.68        1.373E-3      130.28        0.6217        -177.31        
793.3800      0.76002       -97.43        1.395E-3      124.40        1.428E-3      125.98        0.62229       -177.64        
796.3700      0.75422       -97.00        1.496E-3      114.47        1.433E-3      117.02        0.62317       -177.93        
799.3600      0.74858       -96.57        1.476E-3      109.99        1.453E-3      110.69        0.62426       -178.17        
802.3500      0.7428        -96.12        1.462E-3      103.19        1.386E-3      106.76        0.62553       -178.36        
805.3400      0.73683       -95.63        1.516E-3      97.07         1.531E-3      99.33         0.62687       -178.51        
808.3300      0.73083       -95.13        1.462E-3      93.10         1.522E-3      92.60         0.62824       -178.59        
811.3200      0.72437       -94.60        1.501E-3      86.59         1.51E-3       88.56         0.62942       -178.63        
814.3100      0.71816       -94.07        1.482E-3      80.99         1.46E-3       81.62         0.63036       -178.63        
817.3000      0.71202       -93.58        1.512E-3      76.60         1.432E-3      77.76         0.6306        -178.59        
820.2900      0.70604       -93.15        1.525E-3      70.49         1.451E-3      73.94         0.63052       -178.55        
823.2800      0.69999       -92.76        1.456E-3      67.56         1.447E-3      70.37         0.6299        -178.51        
826.2700      0.69392       -92.42        1.474E-3      64.84         1.411E-3      63.50         0.629         -178.53        
829.2600      0.68747       -92.08        1.49E-3       59.43         1.478E-3      56.15         0.62787       -178.57        
832.2500      0.68079       -91.72        1.48E-3       53.19         1.543E-3      54.38         0.62659       -178.66        
835.2400      0.67365       -91.31        1.513E-3      49.96         1.549E-3      50.68         0.62497       -178.80        
838.2300      0.66582       -90.83        1.511E-3      42.70         1.538E-3      48.79         0.62338       -178.98        
841.2200      0.65833       -90.24        1.482E-3      40.56         1.489E-3      38.37         0.62178       -179.20        
844.2100      0.65075       -89.57        1.539E-3      32.85         1.673E-3      38.57         0.62025       -179.47        
847.2000      0.64393       -88.83        1.55E-3       29.60         1.518E-3      30.02         0.61876       -179.77        
850.1900      0.63772       -88.01        1.535E-3      25.87         1.376E-3      26.94         0.61752       179.90         
853.1800      0.63284       -87.08        1.604E-3      19.79         1.501E-3      19.81         0.61637       179.54         
856.1700      0.6293        -86.05        1.49E-3       13.32         1.505E-3      15.74         0.61577       179.16         
859.1600      0.62761       -85.00        1.535E-3      6.67          1.575E-3      10.26         0.61565       178.78         
862.1500      0.62736       -83.99        1.507E-3      6.61          1.497E-3      6.14          0.61601       178.42         
865.1400      0.62794       -83.09        1.533E-3      2.23          1.431E-3      2.79          0.61691       178.11         
868.1300      0.62857       -82.34        1.429E-3      -2.41         1.427E-3      -1.50         0.61801       177.86         
871.1200      0.62875       -81.73        1.425E-3      -5.82         1.462E-3      -8.13         0.6194        177.66         
874.1100      0.62822       -81.25        1.442E-3      -11.40        1.443E-3      -6.45         0.62082       177.52         
877.1000      0.62679       -80.84        1.499E-3      -13.76        1.442E-3      -9.91         0.62177       177.46         
880.0900      0.62493       -80.52        1.46E-3       -15.01        1.556E-3      -14.50        0.62248       177.42         
883.0800      0.62247       -80.22        1.519E-3      -19.28        1.495E-3      -19.25        0.62311       177.41         
886.0700      0.61943       -79.98        1.503E-3      -25.09        1.461E-3      -22.02        0.6236        177.41         
889.0600      0.61588       -79.77        1.539E-3      -24.83        1.552E-3      -23.38        0.62389       177.43         
892.0500      0.61162       -79.60        1.544E-3      -28.88        1.528E-3      -30.51        0.62378       177.47         
895.0400      0.60649       -79.48        1.518E-3      -33.03        1.548E-3      -30.87        0.62339       177.53         
898.0300      0.60087       -79.37        1.62E-3       -39.34        1.577E-3      -38.93        0.62255       177.58         
901.0200      0.59488       -79.27        1.692E-3      -42.46        1.734E-3      -40.99        0.62147       177.61         
904.0100      0.58857       -79.16        1.668E-3      -48.58        1.689E-3      -45.20        0.62012       177.59         
907.0000      0.58223       -79.00        1.734E-3      -53.00        1.807E-3      -50.56        0.61852       177.53         
909.9900      0.57579       -78.78        1.775E-3      -57.99        1.765E-3      -54.36        0.61683       177.42         
912.9800      0.56898       -78.49        1.783E-3      -58.64        1.825E-3      -58.45        0.61513       177.27         
915.9700      0.56163       -78.14        1.846E-3      -64.16        1.841E-3      -62.15        0.61359       177.05         
918.9600      0.55351       -77.69        1.844E-3      -68.17        1.913E-3      -68.28        0.61224       176.79         
921.9500      0.5443        -77.09        1.976E-3      -70.10        1.988E-3      -73.32        0.61159       176.49         
924.9400      0.53443       -76.21        1.998E-3      -79.92        2.001E-3      -81.24        0.6114        176.21         
927.9300      0.52703       -75.06        2.127E-3      -84.16        2.018E-3      -88.74        0.61146       175.94         
930.9200      0.52203       -73.99        2.083E-3      -93.46        2.111E-3      -93.08        0.61169       175.69         
933.9100      0.51744       -73.09        2.082E-3      -98.81        2.08E-3       -97.90        0.61205       175.45         
936.9000      0.51187       -72.25        2.057E-3      -105.17       2.06E-3       -105.97       0.61258       175.24         
939.8900      0.50581       -71.35        2.038E-3      -110.09       2.099E-3      -106.80       0.61307       175.07         
942.8800      0.49938       -70.42        2.032E-3      -115.73       1.983E-3      -112.14       0.61409       174.91         
945.8700      0.49282       -69.48        1.993E-3      -119.50       1.947E-3      -118.82       0.61512       174.79         
948.8600      0.48638       -68.51        2.012E-3      -124.92       1.893E-3      -124.42       0.6162        174.72         
951.8500      0.48024       -67.54        1.998E-3      -131.63       2.003E-3      -125.73       0.61717       174.68         
954.8400      0.47457       -66.59        1.945E-3      -135.16       2.052E-3      -134.98       0.61786       174.69         
957.8300      0.46954       -65.64        1.888E-3      -138.25       2.042E-3      -139.93       0.61815       174.73         
960.8200      0.46504       -64.68        1.839E-3      -143.93       1.975E-3      -140.03       0.618         174.78         
963.8100      0.46127       -63.74        1.875E-3      -151.13       1.889E-3      -149.30       0.61744       174.83         
966.8000      0.45808       -62.78        1.898E-3      -152.07       1.884E-3      -155.54       0.61663       174.84         
969.7900      0.45516       -61.78        1.878E-3      -161.05       1.795E-3      -160.71       0.6154        174.83         
972.7800      0.45294       -60.75        1.75E-3       -163.38       1.878E-3      -161.69       0.61393       174.78         
975.7700      0.45126       -59.64        1.778E-3      -167.74       1.807E-3      -164.43       0.61223       174.67         
978.7600      0.45049       -58.49        1.717E-3      -174.26       1.761E-3      -171.46       0.61058       174.53         
981.7500      0.45059       -57.36        1.776E-3      -176.17       1.728E-3      -174.83       0.60923       174.34         
984.7400      0.45117       -56.24        1.824E-3      -177.23       1.796E-3      -179.99       0.60808       174.13         
987.7300      0.45234       -55.15        1.727E-3      178.92        1.762E-3      176.11        0.60699       173.91         
990.7200      0.45351       -54.10        1.645E-3      173.08        1.718E-3      170.90        0.60611       173.64         
993.7100      0.45469       -53.07        1.725E-3      167.26        1.75E-3       168.19        0.6054        173.37         
996.7000      0.4559        -52.09        1.744E-3      166.19        1.728E-3      166.08        0.60498       173.07         
999.6900      0.45701       -51.15        1.559E-3      161.31        1.634E-3      159.33        0.60498       172.78         
1002.6800     0.45815       -50.29        1.565E-3      156.23        1.491E-3      155.07        0.60552       172.47         
1005.6700     0.4593        -49.52        1.667E-3      149.31        1.483E-3      150.62        0.60636       172.21         
1008.6600     0.46064       -48.90        1.612E-3      145.51        1.585E-3      146.87        0.60741       171.98         
1011.6500     0.46169       -48.42        1.542E-3      145.61        1.545E-3      143.30        0.60871       171.78         
1014.6400     0.46247       -48.06        1.599E-3      140.24        1.501E-3      141.60        0.60986       171.66         
1017.6300     0.4629        -47.83        1.498E-3      136.72        1.614E-3      138.30        0.61106       171.57         
1020.6200     0.46278       -47.71        1.549E-3      131.94        1.459E-3      136.55        0.61187       171.52         
1023.6100     0.46226       -47.68        1.497E-3      126.20        1.547E-3      125.74        0.61248       171.50         
1026.6000     0.46122       -47.72        1.505E-3      125.15        1.429E-3      123.51        0.61295       171.51         
1029.5900     0.45964       -47.83        1.544E-3      121.65        1.444E-3      117.74        0.61322       171.52         
1032.5800     0.45729       -47.97        1.47E-3       117.91        1.394E-3      121.94        0.61299       171.54         
1035.5700     0.45455       -48.13        1.411E-3      112.70        1.379E-3      115.37        0.61255       171.55         
1038.5600     0.4507        -48.35        1.466E-3      111.14        1.504E-3      111.19        0.61193       171.55         
1041.5500     0.44495       -48.64        1.453E-3      107.76        1.317E-3      106.22        0.61133       171.52         
1044.5400     0.43489       -48.95        1.328E-3      101.01        1.481E-3      106.05        0.61061       171.49         
1047.5300     0.41858       -48.25        1.381E-3      102.45        1.335E-3      101.91        0.60972       171.43         
1050.5200     0.41125       -46.17        1.444E-3      97.10         1.442E-3      98.24         0.60899       171.35         
1053.5100     0.41069       -45.03        1.444E-3      91.93         1.54E-3       96.43         0.60803       171.23         
1056.5000     0.40695       -44.33        1.434E-3      89.25         1.442E-3      94.33         0.6073        171.08         
1059.4900     0.40107       -43.56        1.496E-3      86.26         1.66E-3       83.38         0.60675       170.93         
1062.4800     0.3943        -42.66        1.505E-3      85.73         1.441E-3      88.56         0.60675       170.76         
1065.4700     0.38718       -41.63        1.512E-3      81.07         1.438E-3      83.29         0.60676       170.59         
1068.4600     0.37978       -40.45        1.518E-3      74.86         1.604E-3      76.93         0.60726       170.43         
1071.4500     0.37281       -39.16        1.588E-3      67.78         1.542E-3      68.30         0.60789       170.29         
1074.4400     0.36631       -37.74        1.518E-3      69.31         1.523E-3      64.56         0.60876       170.20         
1077.4300     0.36074       -36.26        1.501E-3      63.59         1.421E-3      63.73         0.60958       170.14         
1080.4200     0.356         -34.72        1.527E-3      59.68         1.537E-3      64.14         0.61041       170.11         
1083.4100     0.35254       -33.18        1.442E-3      54.84         1.564E-3      53.75         0.61107       170.13         
1086.4000     0.35017       -31.61        1.447E-3      53.59         1.48E-3       49.94         0.61193       170.16         
1089.3900     0.34933       -30.09        1.568E-3      45.44         1.427E-3      46.77         0.6124        170.20         
1092.3800     0.34947       -28.65        1.543E-3      41.56         1.647E-3      40.87         0.61256       170.27         
1095.3700     0.35005       -27.30        1.501E-3      39.74         1.494E-3      41.07         0.61264       170.37         
1098.3600     0.35142       -25.97        1.514E-3      34.29         1.64E-3       31.21         0.61201       170.43         
1101.3500     0.35323       -24.67        1.592E-3      27.21         1.577E-3      35.27         0.61141       170.50         
1104.3400     0.35555       -23.42        1.398E-3      24.64         1.599E-3      26.11         0.61012       170.56         
1107.3300     0.35831       -22.18        1.434E-3      21.38         1.664E-3      19.13         0.60878       170.57         
1110.3200     0.36141       -21.00        1.533E-3      15.30         1.504E-3      16.87         0.60722       170.53         
1113.3100     0.36446       -19.89        1.613E-3      10.80         1.444E-3      11.52         0.60528       170.43         
1116.3000     0.36737       -18.83        1.48E-3       10.64         1.409E-3      5.72          0.60347       170.29         
1119.2900     0.37003       -17.79        1.514E-3      2.61          1.494E-3      3.83          0.60158       170.11         
1122.2800     0.37237       -16.77        1.339E-3      3.94          1.454E-3      2.60          0.6002        169.86         
1125.2700     0.37453       -15.77        1.433E-3      -5.72         1.348E-3      -3.11         0.59898       169.58         
1128.2600     0.37632       -14.79        1.411E-3      -9.27         1.367E-3      -5.55         0.59807       169.25         
1131.2500     0.37784       -13.85        1.311E-3      -9.62         1.442E-3      -14.31        0.59752       168.93         
1134.2400     0.37943       -12.94        1.355E-3      -19.09        1.423E-3      -16.50        0.59732       168.60         
1137.2300     0.38105       -12.10        1.334E-3      -18.97        1.323E-3      -19.24        0.59771       168.27         
1140.2200     0.38281       -11.33        1.321E-3      -28.69        1.401E-3      -27.16        0.5983        167.97         
1143.2100     0.38424       -10.59        1.138E-3      -27.33        1.22E-3       -19.49        0.59913       167.71         
1146.2000     0.38618       -9.87         1.248E-3      -28.87        1.32E-3       -27.20        0.60038       167.49         
1149.1900     0.38818       -9.24         1.218E-3      -31.57        1.213E-3      -30.97        0.60193       167.32         
1152.1800     0.39052       -8.66         1.239E-3      -37.88        1.249E-3      -34.88        0.6034        167.22         
1155.1700     0.3932        -8.15         1.243E-3      -43.09        1.211E-3      -34.20        0.60469       167.17         
1158.1600     0.39602       -7.70         1.288E-3      -41.96        1.294E-3      -40.00        0.6055        167.19         
1161.1500     0.39879       -7.27         1.208E-3      -44.48        1.327E-3      -44.80        0.60622       167.25         
1164.1400     0.40181       -6.91         1.33E-3       -46.00        1.263E-3      -45.18        0.6065        167.32         
1167.1300     0.40475       -6.57         1.192E-3      -51.74        1.344E-3      -46.94        0.60644       167.41         
1170.1200     0.40751       -6.23         1.235E-3      -53.40        1.214E-3      -52.61        0.60613       167.48         
1173.1100     0.40993       -5.88         1.327E-3      -63.40        1.283E-3      -58.52        0.60521       167.57         
1176.1000     0.41235       -5.55         1.298E-3      -61.67        1.401E-3      -61.93        0.60385       167.61         
1179.0900     0.41434       -5.21         1.291E-3      -66.96        1.278E-3      -63.58        0.6023        167.63         
1182.0800     0.41592       -4.89         1.324E-3      -68.97        1.296E-3      -65.72        0.6006        167.60         
1185.0700     0.41704       -4.58         1.247E-3      -76.93        1.269E-3      -74.97        0.59879       167.49         
1188.0600     0.4178        -4.30         1.296E-3      -76.60        1.227E-3      -77.42        0.59672       167.33         
1191.0500     0.41793       -4.03         1.301E-3      -83.01        1.234E-3      -82.16        0.595         167.10         
1194.0400     0.41772       -3.73         1.223E-3      -87.36        1.321E-3      -85.54        0.5934        166.80         
1197.0300     0.4171        -3.45         1.29E-3       -88.82        1.244E-3      -87.48        0.59202       166.47         
1200.0200     0.41617       -3.22         1.293E-3      -94.45        1.318E-3      -91.64        0.59119       166.13         
1203.0100     0.41484       -3.03         1.232E-3      -99.76        1.297E-3      -95.72        0.5909        165.76         
1206.0000     0.41292       -2.89         1.156E-3      -99.58        1.25E-3       -100.61       0.59119       165.39         
1208.9900     0.41071       -2.78         1.187E-3      -103.64       1.307E-3      -107.41       0.59209       165.04         
1211.9800     0.4079        -2.68         1.171E-3      -105.34       1.229E-3      -106.32       0.59336       164.76         
1214.9700     0.40436       -2.60         1.231E-3      -110.79       1.278E-3      -114.31       0.59481       164.53         
1217.9600     0.40055       -2.47         1.211E-3      -112.08       1.244E-3      -111.58       0.59641       164.38         
1220.9500     0.39611       -2.26         1.287E-3      -119.80       1.199E-3      -121.92       0.59806       164.30         
1223.9400     0.39144       -1.99         1.148E-3      -123.46       1.073E-3      -120.34       0.59971       164.25         
1226.9300     0.38659       -1.60         1.08E-3       -120.45       1.198E-3      -125.22       0.60145       164.31         
1229.9200     0.38124       -1.15         1.181E-3      -125.20       1.253E-3      -127.44       0.60286       164.41         
1232.9100     0.37526       -0.60         1.252E-3      -133.26       1.067E-3      -130.88       0.6037        164.57         
1235.9000     0.36907       0.15          1.206E-3      -133.92       1.221E-3      -133.69       0.6043        164.75         
1238.8900     0.3625        1.11          1.259E-3      -136.77       1.167E-3      -140.70       0.60414       164.97         
1241.8800     0.35633       2.30          1.252E-3      -143.65       1.279E-3      -138.84       0.60359       165.19         
1244.8700     0.35079       3.68          1.233E-3      -140.03       1.323E-3      -143.79       0.60244       165.39         
1247.8600     0.34604       5.27          1.207E-3      -151.80       1.30E-3       -148.82       0.60066       165.54         
1250.8500     0.34231       7.04          1.302E-3      -155.02       1.326E-3      -153.43       0.59851       165.61         
1253.8400     0.33962       8.91          1.322E-3      -158.93       1.311E-3      -158.78       0.59611       165.61         
1256.8300     0.33812       10.84         1.33E-3       -166.66       1.325E-3      -160.99       0.59354       165.55         
1259.8200     0.33801       12.74         1.333E-3      -171.23       1.238E-3      -166.72       0.59093       165.41         
1262.8100     0.33887       14.59         1.357E-3      -174.47       1.317E-3      -174.49       0.58868       165.20         
1265.8000     0.34085       16.36         1.292E-3      -178.15       1.227E-3      -177.74       0.58665       164.88         
1268.7900     0.34397       18.01         1.264E-3      177.95        1.218E-3      178.19        0.5852        164.51         
1271.7800     0.34791       19.52         1.22E-3       174.21        1.17E-3       171.52        0.58439       164.10         
1274.7700     0.35241       20.85         1.171E-3      169.63        1.153E-3      167.45        0.58417       163.69         
1277.7600     0.35722       22.03         1.211E-3      168.15        1.105E-3      166.37        0.58416       163.28         
1280.7500     0.3622        23.12         1.179E-3      160.37        1.137E-3      164.63        0.58493       162.89         
1283.7400     0.36714       24.04         1.156E-3      154.13        1.15E-3       162.40        0.58614       162.54         
1286.7300     0.3721        24.91         1.034E-3      158.45        1.049E-3      151.97        0.58782       162.25         
1289.7200     0.37684       25.70         1.129E-3      154.37        1.058E-3      153.91        0.58991       162.03         
1292.7100     0.38145       26.46         9.905E-4      153.09        1.016E-3      150.28        0.59191       161.92         
1295.7000     0.38573       27.19         1.006E-3      152.01        9.681E-4      145.28        0.59367       161.88         
1298.6900     0.39028       27.86         9.686E-4      146.02        9.856E-4      141.01        0.59535       161.93         
1301.6800     0.39479       28.55         1.052E-3      138.38        9.741E-4      139.73        0.59675       162.07         
1304.6700     0.3994        29.19         9.491E-4      137.23        9.473E-4      138.29        0.59742       162.24         
1307.6600     0.40384       29.82         1.04E-3       133.27        8.852E-4      137.68        0.59764       162.44         
1310.6500     0.40813       30.44         9.731E-4      137.15        9.027E-4      135.78        0.59701       162.66         
1313.6400     0.41224       31.03         8.976E-4      134.80        8.843E-4      132.34        0.59615       162.85         
1316.6300     0.41691       31.61         9.694E-4      130.85        9.647E-4      129.25        0.59447       163.03         
1319.6200     0.42154       32.13         9.485E-4      131.22        9.554E-4      126.16        0.59249       163.18         
1322.6100     0.42628       32.60         9.53E-4       122.41        1.009E-3      120.84        0.59012       163.25         
1325.6000     0.43108       32.93         9.56E-4       119.11        9.044E-4      121.75        0.58762       163.24         
1328.5900     0.43454       33.16         9.918E-4      123.09        9.859E-4      120.04        0.58497       163.11         
1331.5800     0.4372        33.56         9.361E-4      114.87        1.004E-3      112.72        0.5826        162.90         
1334.5700     0.44065       33.97         9.919E-4      110.93        1.009E-3      107.59        0.58048       162.62         
1337.5600     0.44391       34.27         9.771E-4      108.95        9.638E-4      105.46        0.57866       162.29         
1340.5500     0.44572       34.56         9.402E-4      103.68        8.991E-4      105.19        0.57732       161.91         
1343.5400     0.44751       35.02         1.022E-3      97.57         9.574E-4      96.98         0.57673       161.47         
1346.5300     0.44994       35.46         8.923E-4      95.31         9.933E-4      93.89         0.57678       161.02         
1349.5200     0.45243       35.87         8.697E-4      89.89         1.001E-3      90.68         0.57767       160.61         
1352.5100     0.45462       36.21         9.393E-4      90.46         9.585E-4      93.92         0.57903       160.22         
1355.5000     0.45681       36.57         8.998E-4      85.49         9.771E-4      84.41         0.58081       159.91         
1358.4900     0.45859       36.88         8.846E-4      87.03         1.012E-3      84.62         0.58268       159.69         
1361.4800     0.46013       37.21         9.265E-4      80.65         9.777E-4      82.85         0.58504       159.56         
1364.4700     0.46151       37.54         9.527E-4      84.38         9.503E-4      80.58         0.5871        159.51         
1367.4600     0.46264       37.88         9.85E-4       81.57         9.962E-4      73.35         0.5889        159.56         
1370.4500     0.46384       38.23         9.128E-4      77.82         9.597E-4      73.41         0.59022       159.67         
1373.4400     0.46493       38.58         9.635E-4      76.59         9.526E-4      69.72         0.59108       159.84         
1376.4300     0.46611       38.96         9.476E-4      71.80         1.008E-3      65.74         0.59146       160.05         
1379.4200     0.46755       39.34         1.021E-3      68.91         9.965E-4      66.04         0.59109       160.30         
1382.4100     0.46915       39.74         9.672E-4      66.92         1.028E-3      64.01         0.59026       160.55         
1385.4000     0.47073       40.14         1.038E-3      62.32         1.037E-3      60.04         0.58878       160.76         
1388.3900     0.47238       40.53         1.141E-3      58.40         1.051E-3      50.68         0.58693       160.91         
1391.3800     0.47402       40.95         1.08E-3       60.08         1.14E-3       54.16         0.58483       161.00         
1394.3700     0.47609       41.38         1.101E-3      51.56         1.168E-3      49.38         0.58228       161.02         
1397.3600     0.47854       41.71         1.138E-3      45.11         1.16E-3       43.46         0.57971       160.96         
1400.3500     0.48076       41.89         1.178E-3      42.64         1.165E-3      40.80         0.57722       160.83         
1403.3400     0.48086       41.96         1.186E-3      39.11         1.11E-3       37.12         0.57525       160.58         
1406.3300     0.47947       42.16         1.146E-3      32.66         1.216E-3      35.01         0.57357       160.27         
1409.3200     0.47699       42.49         1.169E-3      31.74         1.218E-3      31.14         0.57261       159.91         
1412.3100     0.47488       43.05         1.249E-3      27.96         1.219E-3      27.14         0.57236       159.51         
1415.3000     0.47413       43.61         1.277E-3      20.98         1.302E-3      25.66         0.57259       159.10         
1418.2900     0.4734        44.10         1.285E-3      19.41         1.281E-3      21.52         0.57346       158.72         
1421.2800     0.47206       44.55         1.293E-3      12.31         1.246E-3      15.54         0.57498       158.40         
1424.2700     0.47049       45.05         1.253E-3      6.47          1.287E-3      12.66         0.57664       158.12         
1427.2600     0.4689        45.60         1.323E-3      2.51          1.343E-3      7.38          0.57858       157.93         
1430.2500     0.46764       46.20         1.301E-3      0.20          1.295E-3      -0.25         0.58058       157.82         
1433.2400     0.46696       46.83         1.346E-3      -5.34         1.335E-3      -2.23         0.58239       157.78         
1436.2300     0.46659       47.49         1.369E-3      -9.50         1.384E-3      -9.88         0.58407       157.83         
1439.2200     0.4666        48.14         1.315E-3      -15.80        1.336E-3      -11.90        0.58519       157.97         
1442.2100     0.46701       48.81         1.364E-3      -19.92        1.383E-3      -15.89        0.58601       158.17         
1445.2000     0.46767       49.49         1.32E-3       -23.27        1.357E-3      -19.55        0.58604       158.39         
1448.1900     0.46845       50.18         1.379E-3      -30.01        1.376E-3      -25.46        0.58552       158.61         
1451.1800     0.46955       50.92         1.348E-3      -34.42        1.361E-3      -28.91        0.58454       158.83         
1454.1700     0.47068       51.64         1.285E-3      -35.25        1.36E-3       -33.65        0.58278       159.01         
1457.1600     0.47219       52.36         1.385E-3      -40.26        1.326E-3      -35.67        0.5806        159.15         
1460.1500     0.47346       53.08         1.395E-3      -43.86        1.304E-3      -42.23        0.57808       159.22         
1463.1400     0.47464       53.80         1.413E-3      -50.16        1.348E-3      -48.19        0.5755        159.21         
1466.1300     0.47556       54.52         1.379E-3      -51.47        1.315E-3      -53.28        0.57308       159.08         
1469.1200     0.47641       55.27         1.443E-3      -58.47        1.296E-3      -55.71        0.57091       158.86         
1472.1100     0.47749       56.03         1.411E-3      -59.10        1.312E-3      -58.87        0.56898       158.57         
1475.1000     0.4785        56.73         1.396E-3      -65.17        1.40E-3       -64.81        0.56769       158.19         
1478.0900     0.47954       57.40         1.368E-3      -69.29        1.293E-3      -68.39        0.56683       157.78         
1481.0800     0.48054       58.03         1.333E-3      -72.05        1.275E-3      -70.72        0.56657       157.35         
1484.0700     0.48174       58.63         1.396E-3      -75.57        1.304E-3      -77.92        0.56708       156.91         
1487.0600     0.48303       59.20         1.342E-3      -80.87        1.318E-3      -81.24        0.56822       156.49         
1490.0500     0.4846        59.76         1.298E-3      -86.42        1.303E-3      -82.26        0.56971       156.13         
1493.0400     0.48628       60.26         1.317E-3      -87.18        1.279E-3      -86.39        0.57192       155.82         
1496.0300     0.48827       60.72         1.331E-3      -95.21        1.266E-3      -91.01        0.57416       155.61         
1499.0200     0.49013       61.15         1.30E-3       -96.25        1.275E-3      -96.40        0.57651       155.46         
1502.0100     0.49224       61.61         1.366E-3      -100.11       1.203E-3      -97.34        0.57834       155.50         
1505.0000     0.49428       62.06         1.231E-3      -102.99       1.233E-3      -104.70       0.58014       155.56         
1507.9900     0.49653       62.50         1.293E-3      -104.69       1.252E-3      -107.58       0.58155       155.70         
1510.9800     0.49848       62.94         1.337E-3      -111.00       1.224E-3      -110.70       0.58238       155.91         
1513.9700     0.50018       63.40         1.255E-3      -115.09       1.214E-3      -112.99       0.58276       156.16         
1516.9600     0.50192       63.91         1.262E-3      -117.83       1.183E-3      -117.35       0.58231       156.45         
1519.9500     0.50332       64.43         1.20E-3       -121.67       1.25E-3       -118.55       0.5814        156.73         
1522.9400     0.50457       64.96         1.276E-3      -124.11       1.198E-3      -125.41       0.58006       156.98         
1525.9300     0.50543       65.49         1.222E-3      -124.68       1.165E-3      -133.02       0.57833       157.18         
1528.9200     0.50579       66.01         1.231E-3      -133.70       1.20E-3       -130.50       0.57608       157.29         
1531.9100     0.50595       66.55         1.183E-3      -135.20       1.225E-3      -134.74       0.57372       157.34         
1534.9000     0.50573       67.06         1.187E-3      -139.52       1.185E-3      -140.63       0.57128       157.30         
1537.8900     0.50552       67.57         1.185E-3      -140.77       1.157E-3      -143.53       0.56892       157.17         
1540.8800     0.50528       68.07         1.171E-3      -145.47       1.16E-3       -144.48       0.56705       156.96         
1543.8700     0.50502       68.58         1.191E-3      -147.92       1.191E-3      -149.78       0.56557       156.66         
1546.8600     0.50485       69.08         1.287E-3      -152.01       1.171E-3      -152.77       0.56467       156.28         
1549.8500     0.50475       69.55         1.147E-3      -156.04       1.25E-3       -155.93       0.5645        155.90         
1552.8400     0.50509       70.02         1.16E-3       -161.08       1.117E-3      -161.88       0.56478       155.48         
1555.8300     0.50573       70.49         1.11E-3       -162.80       1.233E-3      -167.37       0.5655        155.10         
1558.8200     0.50663       70.94         1.116E-3      -170.64       1.143E-3      -167.21       0.56669       154.75         
1561.8100     0.50803       71.41         1.12E-3       -171.36       1.104E-3      -173.53       0.56836       154.48         
1564.8000     0.50971       71.85         1.134E-3      -174.57       1.14E-3       -176.91       0.57011       154.25         
1567.7900     0.51179       72.30         1.119E-3      -179.34       1.067E-3      -177.51       0.57202       154.11         
1570.7800     0.51374       72.74         1.098E-3      176.83        1.068E-3      175.78        0.57371       154.06         
1573.7700     0.51575       73.19         1.171E-3      175.54        1.133E-3      173.78        0.57525       154.09         
1576.7600     0.51765       73.67         1.126E-3      174.05        1.116E-3      174.72        0.57652       154.20         
1579.7500     0.51946       74.16         1.163E-3      167.62        1.097E-3      172.86        0.57725       154.39         
1582.7400     0.52112       74.63         1.141E-3      162.88        1.058E-3      162.32        0.57766       154.61         
1585.7300     0.52223       75.06         1.114E-3      165.03        1.105E-3      160.45        0.57755       154.83         
1588.7200     0.52286       75.49         9.836E-4      151.56        1.069E-3      156.92        0.57687       155.06         
1591.7100     0.52292       75.89         1.058E-3      153.95        1.046E-3      154.81        0.5755        155.27         
1594.7000     0.52249       76.28         1.093E-3      146.39        1.131E-3      152.47        0.57376       155.42         
1597.6900     0.52189       76.63         1.125E-3      143.41        1.137E-3      147.19        0.57186       155.54         
1600.6800     0.52117       76.98         1.023E-3      145.55        1.126E-3      144.36        0.56982       155.58         
1603.6700     0.51998       77.27         1.149E-3      140.03        1.094E-3      139.16        0.56773       155.53         
1606.6600     0.51893       77.54         1.137E-3      133.83        1.149E-3      137.47        0.56578       155.40         
1609.6500     0.51749       77.77         9.904E-4      131.48        1.12E-3       132.38        0.56414       155.17         
1612.6400     0.51605       77.96         1.034E-3      131.44        1.037E-3      128.31        0.56296       154.89         
1615.6300     0.5145        78.15         9.552E-4      128.80        1.084E-3      127.70        0.56206       154.56         
1618.6200     0.51294       78.31         1.093E-3      129.90        1.136E-3      123.33        0.56164       154.20         
1621.6100     0.5114        78.48         1.191E-3      119.02        1.161E-3      119.25        0.5616        153.83         
1624.6000     0.50982       78.67         1.10E-3       118.18        1.059E-3      116.76        0.56238       153.47         
1627.5900     0.50814       78.87         1.117E-3      111.74        1.119E-3      115.54        0.56336       153.13         
1630.5800     0.50639       79.11         1.138E-3      104.77        1.141E-3      107.14        0.56484       152.87         
1633.5700     0.50443       79.40         1.148E-3      107.21        1.145E-3      106.41        0.56631       152.68         
1636.5600     0.50219       79.73         1.151E-3      103.48        1.106E-3      106.72        0.56803       152.55         
1639.5500     0.49978       80.11         1.126E-3      100.49        1.114E-3      99.81         0.5696        152.52         
1642.5400     0.49687       80.49         1.163E-3      93.58         1.11E-3       93.61         0.57119       152.57         
1645.5300     0.49353       80.89         1.087E-3      93.45         1.073E-3      93.07         0.57251       152.67         
1648.5200     0.48962       81.31         1.129E-3      89.21         1.08E-3       91.71         0.57305       152.84         
1651.5100     0.48496       81.73         1.122E-3      84.25         1.087E-3      90.70         0.57318       153.05         
1654.5000     0.47974       82.18         1.134E-3      81.61         1.051E-3      83.26         0.57286       153.28         
1657.4900     0.47435       82.62         1.151E-3      79.25         1.05E-3       80.89         0.57207       153.50         
1660.4800     0.46859       83.06         1.147E-3      75.33         1.055E-3      79.58         0.57078       153.73         
1663.4700     0.4626        83.50         1.134E-3      67.58         1.112E-3      75.99         0.5691        153.89         
1666.4600     0.45656       83.90         1.106E-3      69.32         1.019E-3      71.45         0.56721       153.97         
1669.4500     0.45025       84.29         1.11E-3       66.32         1.155E-3      63.06         0.56512       154.00         
1672.4400     0.4441        84.70         1.089E-3      62.56         1.074E-3      66.71         0.5629        153.92         
1675.4300     0.43814       85.10         1.081E-3      61.92         1.10E-3       59.92         0.56071       153.78         
1678.4200     0.43209       85.51         1.109E-3      56.49         1.067E-3      53.33         0.55874       153.54         
1681.4100     0.42611       85.94         1.098E-3      56.26         1.112E-3      55.65         0.55701       153.25         
1684.4000     0.4204        86.42         1.123E-3      46.43         1.112E-3      51.54         0.55589       152.88         
1687.3900     0.4145        86.93         1.041E-3      47.53         1.107E-3      49.41         0.55535       152.46         
1690.3800     0.40798       87.50         1.157E-3      45.27         1.036E-3      44.28         0.55543       152.02         
1693.3700     0.4008        88.16         1.123E-3      42.84         1.048E-3      44.22         0.55587       151.59         
1696.3600     0.39232       89.01         1.115E-3      36.35         1.149E-3      42.03         0.55692       151.21         
1699.3500     0.38226       90.19         1.124E-3      33.99         1.05E-3       34.86         0.55851       150.88         
1702.3400     0.37109       91.99         1.13E-3       30.63         1.14E-3       32.72         0.56029       150.62         
1705.3300     0.36185       94.61         1.064E-3      28.79         1.122E-3      30.98         0.56239       150.45         
1708.3200     0.35797       97.80         1.128E-3      26.96         1.103E-3      26.95         0.56436       150.37         
1711.3100     0.36019       100.78        1.152E-3      23.97         1.077E-3      26.60         0.56622       150.40         
1714.3000     0.36558       103.07        1.125E-3      22.13         1.134E-3      22.33         0.56797       150.50         
1717.2900     0.37114       104.74        1.053E-3      15.17         1.10E-3       20.75         0.56922       150.68         
1720.2800     0.37548       106.00        1.152E-3      12.96         1.189E-3      15.83         0.5701        150.94         
1723.2700     0.3785        107.01        1.155E-3      11.30         1.25E-3       12.56         0.5705        151.23         
1726.2600     0.38058       107.89        1.131E-3      11.03         1.171E-3      8.22          0.57033       151.54         
1729.2500     0.3822        108.67        1.20E-3       4.01          1.147E-3      5.61          0.56943       151.85         
1732.2400     0.38322       109.39        1.234E-3      1.21          1.23E-3       2.45          0.5682        152.12         
1735.2300     0.38435       110.02        1.233E-3      -2.69         1.244E-3      -2.32         0.56643       152.35         
1738.2200     0.38564       110.59        1.301E-3      -12.24        1.187E-3      -4.50         0.56424       152.52         
1741.2100     0.38683       111.08        1.204E-3      -9.36         1.23E-3       -8.67         0.56158       152.63         
1744.2000     0.38832       111.53        1.23E-3       -15.55        1.244E-3      -16.30        0.55898       152.61         
1747.1900     0.38971       111.98        1.251E-3      -17.42        1.267E-3      -19.01        0.55652       152.48         
1750.1800     0.39115       112.41        1.224E-3      -21.22        1.255E-3      -20.74        0.55422       152.27         
1753.1700     0.39264       112.86        1.221E-3      -23.95        1.308E-3      -21.50        0.55232       151.99         
1756.1600     0.394         113.37        1.211E-3      -32.16        1.287E-3      -27.05        0.55061       151.63         
1759.1500     0.3952        113.94        1.224E-3      -33.90        1.264E-3      -29.81        0.54959       151.23         
1762.1400     0.39628       114.54        1.368E-3      -36.18        1.235E-3      -33.04        0.54908       150.80         
1765.1300     0.39739       115.18        1.322E-3      -38.62        1.352E-3      -37.62        0.54934       150.34         
1768.1200     0.39833       115.78        1.318E-3      -44.03        1.259E-3      -40.44        0.54996       149.92         
1771.1100     0.39903       116.27        1.362E-3      -46.96        1.33E-3       -46.14        0.55106       149.54         
1774.1000     0.39815       116.67        1.296E-3      -46.97        1.324E-3      -48.12        0.5526        149.24         
1777.0900     0.39612       117.12        1.279E-3      -53.84        1.319E-3      -50.10        0.55455       149.02         
1780.0800     0.39349       117.55        1.413E-3      -56.07        1.365E-3      -53.15        0.55649       148.90         
1783.0700     0.39055       117.94        1.209E-3      -60.42        1.259E-3      -58.38        0.55843       148.87         
1786.0600     0.38709       118.26        1.388E-3      -64.67        1.32E-3       -61.34        0.56023       148.91         
1789.0500     0.38325       118.53        1.327E-3      -66.11        1.354E-3      -63.19        0.56162       149.03         
1792.0400     0.37896       118.68        1.259E-3      -70.31        1.345E-3      -70.33        0.56257       149.21         
1795.0300     0.37468       118.82        1.361E-3      -73.81        1.363E-3      -74.13        0.56282       149.43         
1798.0200     0.37034       118.90        1.38E-3       -76.29        1.367E-3      -73.96        0.56269       149.67         
1801.0100     0.36601       118.95        1.357E-3      -77.95        1.333E-3      -80.61        0.56187       149.91         
1804.0000     0.36191       118.95        1.311E-3      -86.17        1.313E-3      -85.54        0.56067       150.12         
1806.9900     0.35776       118.98        1.364E-3      -82.97        1.287E-3      -89.22        0.55927       150.27         
1809.9800     0.35374       118.98        1.393E-3      -92.47        1.383E-3      -89.12        0.55744       150.36         
1812.9700     0.34958       119.03        1.411E-3      -92.48        1.375E-3      -92.40        0.5554        150.38         
1815.9600     0.3453        119.13        1.39E-3       -99.40        1.392E-3      -97.23        0.55318       150.31         
1818.9500     0.34076       119.29        1.408E-3      -100.22       1.437E-3      -99.04        0.55121       150.17         
1821.9400     0.33571       119.51        1.46E-3       -102.49       1.453E-3      -103.86       0.54954       149.93         
1824.9300     0.33005       119.77        1.479E-3      -109.13       1.418E-3      -106.09       0.54823       149.62         
1827.9200     0.32381       120.11        1.501E-3      -111.28       1.434E-3      -109.99       0.54728       149.27         
1830.9100     0.31666       120.49        1.509E-3      -113.79       1.471E-3      -114.24       0.54704       148.88         
1833.9000     0.30871       120.96        1.489E-3      -120.32       1.444E-3      -115.10       0.54746       148.52         
1836.8900     0.30009       121.47        1.482E-3      -119.07       1.48E-3       -122.47       0.54847       148.17         
1839.8800     0.29078       122.04        1.537E-3      -127.38       1.471E-3      -125.50       0.54999       147.86         
1842.8700     0.28107       122.63        1.545E-3      -125.96       1.54E-3       -127.46       0.55189       147.65         
1845.8600     0.27072       123.25        1.507E-3      -130.72       1.513E-3      -133.99       0.55403       147.50         
1848.8500     0.25991       123.87        1.537E-3      -136.17       1.522E-3      -136.55       0.55607       147.42         
1851.8400     0.24905       124.53        1.603E-3      -139.19       1.582E-3      -140.19       0.55806       147.49         
1854.8300     0.23802       125.32        1.611E-3      -142.59       1.597E-3      -143.07       0.55964       147.61         
1857.8200     0.22701       126.17        1.62E-3       -146.91       1.561E-3      -150.58       0.56105       147.83         
1860.8100     0.21633       127.19        1.664E-3      -146.79       1.581E-3      -148.28       0.56181       148.11         
1863.8000     0.20594       128.38        1.627E-3      -153.67       1.599E-3      -153.31       0.56197       148.43         
1866.7900     0.19592       129.82        1.647E-3      -159.17       1.621E-3      -158.08       0.56159       148.74         
1869.7800     0.18654       131.58        1.619E-3      -163.06       1.625E-3      -161.51       0.56041       149.06         
1872.7700     0.17779       133.70        1.683E-3      -167.85       1.687E-3      -165.90       0.55869       149.32         
1875.7600     0.16957       136.28        1.605E-3      -171.38       1.675E-3      -168.42       0.55644       149.55         
1878.7500     0.16225       139.26        1.728E-3      -175.74       1.691E-3      -173.85       0.55381       149.69         
1881.7400     0.15576       142.81        1.704E-3      179.34        1.656E-3      179.04        0.55085       149.71         
1884.7300     0.15034       146.86        1.736E-3      174.69        1.782E-3      177.43        0.54802       149.61         
1887.7200     0.1461        151.38        1.701E-3      171.13        1.682E-3      172.78        0.54544       149.40         
1890.7100     0.14315       156.14        1.765E-3      168.46        1.801E-3      167.49        0.54303       149.09         
1893.7000     0.14145       161.23        1.804E-3      162.49        1.714E-3      163.45        0.54117       148.70         
1896.6900     0.14123       166.39        1.815E-3      154.92        1.767E-3      154.81        0.54012       148.24         
1899.6800     0.14249       171.53        1.77E-3       153.17        1.79E-3       153.93        0.53975       147.73         
1902.6700     0.14493       176.35        1.746E-3      150.94        1.714E-3      150.06        0.54017       147.20         
1905.6600     0.14852       -179.28       1.778E-3      142.21        1.753E-3      146.48        0.54154       146.70         
1908.6500     0.1528        -175.41       1.725E-3      140.40        1.792E-3      139.53        0.54345       146.26         
1911.6400     0.15725       -172.11       1.75E-3       134.24        1.751E-3      135.08        0.54602       145.90         
1914.6300     0.16187       -169.34       1.743E-3      130.83        1.78E-3       130.08        0.54896       145.67         
1917.6200     0.16639       -166.93       1.677E-3      126.20        1.729E-3      127.25        0.55198       145.56         
1920.6100     0.17075       -164.95       1.699E-3      118.88        1.571E-3      122.09        0.5548        145.59         
1923.6000     0.17516       -163.32       1.617E-3      120.70        1.648E-3      120.81        0.55726       145.74         
1926.5900     0.17916       -161.95       1.565E-3      113.36        1.57E-3       116.39        0.55923       145.97         
1929.5800     0.18266       -160.87       1.531E-3      109.63        1.50E-3       110.69        0.56059       146.30         
1932.5700     0.18592       -159.87       1.567E-3      107.69        1.503E-3      106.59        0.56106       146.68         
1935.5600     0.18896       -158.94       1.533E-3      100.23        1.445E-3      102.30        0.56085       147.09         
1938.5500     0.19149       -158.14       1.512E-3      99.17         1.502E-3      100.62        0.55972       147.49         
1941.5400     0.19389       -157.29       1.373E-3      93.25         1.50E-3       95.96         0.55791       147.85         
1944.5300     0.19606       -156.49       1.419E-3      91.04         1.506E-3      89.67         0.55558       148.14         
1947.5200     0.19789       -155.65       1.391E-3      85.33         1.363E-3      82.17         0.55278       148.33         
1950.5100     0.19938       -154.74       1.375E-3      82.05         1.359E-3      81.10         0.54954       148.42         
1953.5000     0.20038       -153.70       1.444E-3      80.28         1.349E-3      80.51         0.54622       148.40         
1956.4900     0.20096       -152.61       1.423E-3      75.55         1.417E-3      76.22         0.54305       148.22         
1959.4800     0.20126       -151.43       1.331E-3      72.82         1.288E-3      75.02         0.54034       147.92         
1962.4700     0.20103       -150.16       1.298E-3      70.02         1.343E-3      69.98         0.53812       147.50         
1965.4600     0.20033       -148.82       1.364E-3      63.75         1.386E-3      64.46         0.53672       146.97         
1968.4500     0.1992        -147.41       1.372E-3      60.77         1.336E-3      61.98         0.53639       146.39         
1971.4400     0.19733       -145.90       1.304E-3      60.76         1.156E-3      55.48         0.53688       145.82         
1974.4300     0.19524       -144.34       1.254E-3      55.35         1.201E-3      54.55         0.53842       145.27         
1977.4200     0.19301       -142.66       1.162E-3      49.94         1.252E-3      47.78         0.54065       144.80         
1980.4100     0.19054       -140.82       1.18E-3       45.00         1.118E-3      48.87         0.5434        144.46         
1983.4000     0.18809       -138.89       1.132E-3      41.35         1.085E-3      44.83         0.54648       144.23         
1986.3900     0.18582       -136.81       1.129E-3      31.81         1.055E-3      38.16         0.5497        144.12         
1989.3800     0.18379       -134.62       1.102E-3      30.66         9.997E-4      33.21         0.55249       144.17         
1992.3700     0.18222       -132.34       1.012E-3      31.66         1.074E-3      31.81         0.5551        144.34         
1995.3600     0.18082       -129.91       1.048E-3      26.84         1.083E-3      27.11         0.55701       144.62         
1998.3500     0.18007       -127.41       1.014E-3      23.10         9.392E-4      24.04         0.55818       145.02         
2001.3400     0.17979       -124.81       1.013E-3      17.10         1.017E-3      17.61         0.55871       145.46         
2004.3300     0.1804        -122.21       8.955E-4      16.08         9.381E-4      13.47         0.55829       145.93         
2007.3200     0.18158       -119.56       9.616E-4      10.65         8.787E-4      9.59          0.55696       146.41         
2010.3100     0.18323       -116.90       9.604E-4      15.92         8.997E-4      13.70         0.55477       146.83         
2013.3000     0.18561       -114.23       8.599E-4      3.92          8.619E-4      8.63          0.5519        147.19         
2016.2900     0.18863       -111.56       9.449E-4      6.81          8.747E-4      5.21          0.54832       147.41         
2019.2800     0.19212       -108.90       7.277E-4      2.67          9.095E-4      -0.33         0.54435       147.50         
2022.2700     0.19666       -106.34       8.097E-4      2.12          7.316E-4      -7.07         0.54025       147.45         
2025.2600     0.20135       -103.92       8.117E-4      -4.47         7.265E-4      -2.16         0.53668       147.18         
2028.2500     0.20655       -101.58       7.606E-4      -2.48         7.684E-4      -9.49         0.53342       146.78         
2031.2400     0.2123        -99.36        7.537E-4      6.82          7.874E-4      -16.50        0.53086       146.24         
2034.2300     0.21882       -97.37        6.702E-4      -21.59        7.218E-4      -16.80        0.52954       145.60         
2037.2200     0.2253        -95.50        7.392E-4      -18.13        6.12E-4       -15.42        0.5289        144.92         
2040.2100     0.23213       -93.77        6.804E-4      -20.88        6.191E-4      -13.18        0.52949       144.22         
2043.2000     0.23904       -92.22        5.732E-4      -23.29        5.315E-4      -18.89        0.53114       143.55         
2046.1900     0.24625       -90.76        5.545E-4      -17.87        5.928E-4      -21.17        0.53335       142.98         
2049.1800     0.25371       -89.51        6.576E-4      -23.54        6.038E-4      -26.45        0.5362        142.50         
2052.1700     0.26095       -88.39        5.203E-4      -27.84        5.715E-4      -24.03        0.53958       142.17         
2055.1600     0.26807       -87.38        4.879E-4      -24.77        5.795E-4      -29.57        0.54312       141.99         
2058.1500     0.27516       -86.42        5.042E-4      -22.76        6.50E-4       -22.61        0.54665       141.97         
2061.1400     0.2821        -85.53        5.481E-4      -13.72        5.118E-4      -24.12        0.54985       142.11         
2064.1300     0.2892        -84.76        5.287E-4      -20.53        5.812E-4      -16.68        0.55251       142.38         
2067.1200     0.29595       -84.03        4.87E-4       -29.81        5.03E-4       -24.58        0.55416       142.77         
2070.1100     0.30237       -83.35        4.601E-4      -20.73        4.60E-4       -26.49        0.55526       143.25         
2073.1000     0.30877       -82.70        4.571E-4      -21.42        4.802E-4      -29.99        0.55507       143.76         
2076.0900     0.31499       -82.12        5.396E-4      -38.25        5.007E-4      -27.65        0.554         144.27         
2079.0800     0.32103       -81.57        4.811E-4      -25.56        4.691E-4      -21.94        0.55197       144.74         
2082.0700     0.32675       -81.05        4.991E-4      -21.64        5.568E-4      -28.18        0.54937       145.10         
2085.0600     0.33217       -80.62        4.048E-4      -38.43        4.82E-4       -33.01        0.54609       145.37         
2088.0500     0.33714       -80.18        5.203E-4      -35.77        5.377E-4      -29.91        0.54261       145.47         
2091.0400     0.34179       -79.76        4.245E-4      -31.48        4.769E-4      -40.31        0.53919       145.44         
2094.0300     0.34629       -79.34        5.12E-4       -22.59        5.697E-4      -30.45        0.53596       145.27         
2097.0200     0.35036       -78.95        6.222E-4      -36.59        5.438E-4      -36.32        0.53323       144.94         
2100.0100     0.3544        -78.54        5.692E-4      -41.46        5.67E-4       -36.57        0.53089       144.48         
2103.0000     0.35828       -78.12        5.024E-4      -37.05        5.294E-4      -32.97        0.52974       143.93         
2105.9900     0.36208       -77.67        4.917E-4      -33.58        5.476E-4      -42.36        0.52925       143.32         
2108.9800     0.36585       -77.18        5.628E-4      -38.23        5.41E-4       -44.05        0.52987       142.69         
2111.9700     0.36969       -76.63        5.665E-4      -42.14        5.241E-4      -41.67        0.5314        142.11         
2114.9600     0.37383       -76.10        5.213E-4      -47.84        4.866E-4      -43.07        0.53365       141.59         
2117.9500     0.37789       -75.48        5.897E-4      -49.86        5.075E-4      -59.03        0.53669       141.20         
2120.9400     0.38226       -74.83        5.361E-4      -55.02        5.546E-4      -50.60        0.54013       140.94         
2123.9300     0.3868        -74.17        5.274E-4      -50.67        5.521E-4      -50.58        0.54367       140.85         
2126.9200     0.39181       -73.52        5.384E-4      -61.41        4.927E-4      -54.39        0.547         140.93         
2129.9100     0.39716       -72.97        5.497E-4      -63.82        6.119E-4      -60.79        0.54985       141.15         
2132.9000     0.40245       -72.50        5.582E-4      -53.67        5.888E-4      -63.48        0.55224       141.52         
2135.8900     0.4073        -72.17        5.824E-4      -55.41        5.167E-4      -61.43        0.55375       141.99         
2138.8800     0.41056       -71.95        5.344E-4      -62.26        6.075E-4      -65.90        0.55436       142.52         
2141.8700     0.41299       -71.65        5.622E-4      -65.67        6.694E-4      -60.03        0.55391       143.09         
2144.8600     0.41483       -71.33        5.261E-4      -74.35        6.016E-4      -71.29        0.55265       143.64         
2147.8500     0.41661       -70.95        6.263E-4      -76.35        6.106E-4      -72.78        0.55063       144.16         
2150.8400     0.41846       -70.58        6.26E-4       -68.18        5.965E-4      -71.91        0.54792       144.58         
2153.8300     0.42046       -70.25        5.943E-4      -77.13        5.66E-4       -88.47        0.5447        144.90         
2156.8200     0.42266       -69.96        5.88E-4       -79.88        7.248E-4      -85.25        0.541         145.07         
2159.8100     0.42496       -69.73        6.817E-4      -80.22        6.771E-4      -82.95        0.53711       145.11         
2162.8000     0.42751       -69.52        6.017E-4      -77.47        8.072E-4      -89.14        0.53332       144.96         
2165.7900     0.43019       -69.35        6.821E-4      -81.71        7.43E-4       -78.05        0.52987       144.65         
2168.7800     0.43318       -69.18        7.308E-4      -86.22        6.675E-4      -86.49        0.52699       144.20         
2171.7700     0.43617       -69.05        6.267E-4      -88.99        6.729E-4      -85.69        0.5248        143.64         
2174.7600     0.43929       -68.90        7.599E-4      -93.08        7.394E-4      -97.72        0.5236        142.99         
2177.7500     0.44236       -68.75        6.886E-4      -94.82        7.155E-4      -94.19        0.52324       142.31         
2180.7400     0.44506       -68.56        6.953E-4      -96.73        8.009E-4      -92.82        0.52415       141.63         
2183.7300     0.44756       -68.40        7.034E-4      -112.50       6.906E-4      -107.95       0.52584       141.03         
2186.7200     0.44977       -68.19        7.932E-4      -105.12       7.26E-4       -97.98        0.52827       140.52         
2189.7100     0.45137       -67.95        7.536E-4      -105.48       7.694E-4      -104.28       0.531         140.13         
2192.7000     0.4524        -67.70        7.096E-4      -107.73       8.207E-4      -105.05       0.53425       139.91         
2195.6900     0.45288       -67.46        7.421E-4      -111.73       8.654E-4      -107.84       0.53735       139.84         
2198.6800     0.45267       -67.19        7.503E-4      -117.23       8.142E-4      -112.10       0.54023       139.93         
2201.6700     0.45193       -66.94        8.149E-4      -119.00       7.743E-4      -123.11       0.54278       140.15         
2204.6600     0.45057       -66.69        8.471E-4      -114.10       8.253E-4      -122.96       0.54463       140.47         
2207.6500     0.4489        -66.48        7.887E-4      -123.04       7.73E-4       -122.29       0.54557       140.88         
2210.6400     0.44679       -66.33        8.159E-4      -128.71       7.832E-4      -129.00       0.54603       141.31         
2213.6300     0.44473       -66.20        9.035E-4      -128.52       8.633E-4      -131.39       0.54542       141.77         
2216.6200     0.44233       -66.09        8.941E-4      -134.25       7.717E-4      -126.94       0.5442        142.20         
2219.6100     0.44007       -66.00        8.363E-4      -140.94       9.74E-4       -131.84       0.54226       142.57         
2222.6000     0.43806       -65.96        8.75E-4       -137.21       8.405E-4      -132.15       0.53966       142.86         
2225.5900     0.43625       -65.91        8.881E-4      -141.29       9.097E-4      -141.42       0.53666       143.02         
2228.5800     0.43468       -65.85        8.57E-4       -140.69       9.753E-4      -142.81       0.53347       143.07         
2231.5700     0.43347       -65.76        8.328E-4      -146.96       8.669E-4      -147.36       0.53026       142.96         
2234.5600     0.43224       -65.63        9.457E-4      -151.32       9.306E-4      -149.46       0.52726       142.72         
2237.5500     0.43104       -65.44        9.276E-4      -147.36       8.224E-4      -143.99       0.52456       142.33         
2240.5400     0.42978       -65.17        9.627E-4      -155.03       1.024E-3      -158.63       0.52275       141.82         
2243.5300     0.42846       -64.85        8.972E-4      -160.49       9.675E-4      -162.63       0.52151       141.25         
2246.5200     0.42687       -64.42        1.011E-3      -162.71       1.128E-3      -161.94       0.52126       140.62         
2249.5100     0.42507       -63.94        9.652E-4      -170.52       9.304E-4      -168.27       0.52188       140.01         
2252.5000     0.4229        -63.42        1.007E-3      -171.48       1.033E-3      -175.91       0.52337       139.42         
2255.4900     0.4203        -62.86        1.004E-3      179.16        9.002E-4      -178.12       0.52571       138.93         
2258.4800     0.41738       -62.27        1.029E-3      179.52        9.473E-4      176.19        0.52857       138.56         
2261.4700     0.41394       -61.69        1.087E-3      178.08        1.056E-3      -174.50       0.53159       138.32         
2264.4600     0.41018       -61.12        1.059E-3      176.93        9.588E-4      175.59        0.53486       138.23         
2267.4500     0.40606       -60.57        1.028E-3      175.37        1.01E-3       169.50        0.53794       138.27         
2270.4400     0.40179       -60.10        1.016E-3      165.33        1.058E-3      161.53        0.5406        138.45         
2273.4300     0.3976        -59.66        1.091E-3      166.24        1.031E-3      164.38        0.54292       138.74         
2276.4200     0.39352       -59.31        1.072E-3      159.45        1.029E-3      159.52        0.5445        139.13         
2279.4100     0.38978       -59.03        1.068E-3      155.94        1.129E-3      158.29        0.54545       139.56         
2282.4000     0.38626       -58.80        1.079E-3      155.97        9.574E-4      156.67        0.54559       140.05         
2285.3900     0.38343       -58.58        1.102E-3      156.57        1.016E-3      150.65        0.54499       140.54         
2288.3800     0.38063       -58.36        1.022E-3      147.78        1.007E-3      146.70        0.54353       140.99         
2291.3700     0.37848       -58.10        1.052E-3      147.27        9.55E-4       144.07        0.54144       141.37         
2294.3600     0.37658       -57.83        9.594E-4      138.81        9.796E-4      141.04        0.53876       141.67         
2297.3500     0.37487       -57.49        1.033E-3      142.69        1.04E-3       141.50        0.53565       141.85         
2300.3400     0.37321       -57.07        9.802E-4      133.41        1.093E-3      127.51        0.53222       141.88         
2303.3300     0.37162       -56.56        1.029E-3      129.60        1.12E-3       127.20        0.52892       141.77         
2306.3200     0.37001       -55.96        1.11E-3       125.58        1.144E-3      126.32        0.52597       141.52         
2309.3100     0.36827       -55.28        1.024E-3      124.40        1.039E-3      121.59        0.52329       141.14         
2312.3000     0.36648       -54.55        1.056E-3      121.62        1.073E-3      116.77        0.52146       140.66         
2315.2900     0.36409       -53.76        1.012E-3      117.11        1.106E-3      114.00        0.52033       140.11         
2318.2800     0.36128       -52.93        1.016E-3      117.25        9.251E-4      114.27        0.51999       139.53         
2321.2700     0.35823       -52.12        1.021E-3      107.69        9.943E-4      107.37        0.52057       138.95         
2324.2600     0.35484       -51.31        1.049E-3      106.35        1.023E-3      107.72        0.5218        138.42         
2327.2500     0.35124       -50.54        1.097E-3      108.63        1.059E-3      104.72        0.52366       137.95         
2330.2400     0.34771       -49.82        9.354E-4      101.90        9.462E-4      105.80        0.52619       137.59         
2333.2300     0.34441       -49.21        9.249E-4      94.67         1.041E-3      106.20        0.52908       137.34         
2336.2200     0.34128       -48.66        9.616E-4      93.04         9.892E-4      91.49         0.53212       137.24         
2339.2100     0.33865       -48.22        9.489E-4      92.66         1.046E-3      94.19         0.5351        137.25         
2342.2000     0.33661       -47.82        9.006E-4      88.80         8.959E-4      87.66         0.53779       137.41         
2345.1900     0.33528       -47.50        1.054E-3      92.08         9.603E-4      83.02         0.54007       137.69         
2348.1800     0.33449       -47.18        1.052E-3      85.10         1.083E-3      87.96         0.54167       138.06         
2351.1700     0.33433       -46.93        1.003E-3      85.55         1.074E-3      84.92         0.54265       138.51         
2354.1600     0.33466       -46.69        9.813E-4      78.02         9.995E-4      76.74         0.54265       138.97         
2357.1500     0.33547       -46.44        9.556E-4      73.45         1.191E-3      78.61         0.54194       139.44         
2360.1400     0.3367        -46.20        9.764E-4      74.71         9.452E-4      75.34         0.54037       139.87         
2363.1300     0.33796       -45.91        1.005E-3      66.94         1.077E-3      68.01         0.53815       140.21         
2366.1200     0.33931       -45.61        1.053E-3      69.94         1.09E-3       67.05         0.53545       140.46         
2369.1100     0.34047       -45.33        1.005E-3      65.28         9.705E-4      68.13         0.53266       140.59         
2372.1000     0.34123       -45.01        9.922E-4      59.00         9.69E-4       65.99         0.52966       140.60         
2375.0900     0.3415        -44.69        9.123E-4      61.52         1.11E-3       56.84         0.52652       140.46         
2378.0800     0.34091       -44.39        9.718E-4      51.19         1.125E-3      53.71         0.52388       140.22         
2381.0700     0.33985       -44.15        9.51E-4       53.32         9.138E-4      49.89         0.52188       139.87         
2384.0600     0.33795       -43.97        1.081E-3      53.34         9.782E-4      51.71         0.52013       139.42         
2387.0500     0.33575       -43.87        8.938E-4      44.38         1.02E-3       46.88         0.51915       138.90         
2390.0400     0.33293       -43.89        9.889E-4      45.88         1.033E-3      40.74         0.51887       138.34         
2393.0300     0.32995       -44.04        8.984E-4      40.30         8.586E-4      38.08         0.51985       137.80         
2396.0200     0.32662       -44.31        1.026E-3      37.70         1.00E-3       38.76         0.52144       137.29         
2399.0100     0.32343       -44.67        9.41E-4       32.60         8.697E-4      28.62         0.52388       136.92         
2402.0000     0.32013       -45.09        9.543E-4      26.92         1.098E-3      34.43         0.52686       136.63         
2404.9900     0.31706       -45.59        9.171E-4      24.41         8.581E-4      31.45         0.53001       136.51         
2407.9800     0.3141        -46.15        1.059E-3      22.93         1.04E-3       26.96         0.53311       136.53         
2410.9700     0.31136       -46.69        1.043E-3      27.70         1.006E-3      19.93         0.53591       136.71         
2413.9600     0.30903       -47.23        9.701E-4      17.44         1.032E-3      22.52         0.53822       136.99         
2416.9500     0.30672       -47.72        1.025E-3      16.95         1.069E-3      14.89         0.53984       137.41         
2419.9400     0.30454       -48.15        9.706E-4      11.82         1.01E-3       21.45         0.54061       137.85         
2422.9300     0.30237       -48.50        9.159E-4      9.23          9.995E-4      16.24         0.54052       138.35         
2425.9200     0.30006       -48.78        9.443E-4      8.68          9.925E-4      14.81         0.53972       138.84         
2428.9100     0.29728       -48.98        9.851E-4      9.11          9.569E-4      9.66          0.53801       139.29         
2431.9000     0.29409       -49.19        9.251E-4      1.18          1.054E-3      4.85          0.53564       139.68         
2434.8900     0.28984       -49.31        1.014E-3      3.29          9.075E-4      -1.62         0.53269       139.97         
2437.8800     0.28503       -49.46        9.465E-4      -0.98         9.103E-4      -2.73         0.52926       140.12         
2440.8700     0.27943       -49.63        9.797E-4      2.26          1.005E-3      -4.90         0.52546       140.14         
2443.8600     0.27323       -49.81        9.921E-4      -7.26         9.754E-4      -14.64        0.52191       139.99         
2446.8500     0.26676       -50.07        9.501E-4      -12.01        9.499E-4      -12.76        0.51826       139.68         
2449.8400     0.25979       -50.38        9.912E-4      -11.09        1.067E-3      -10.48        0.51526       139.19         
2452.8300     0.25274       -50.77        9.246E-4      -18.00        9.776E-4      -11.86        0.51316       138.58         
2455.8200     0.24554       -51.25        9.848E-4      -8.04         1.038E-3      -13.23        0.51197       137.88         
2458.8100     0.23866       -51.76        1.004E-3      -17.32        1.071E-3      -19.89        0.51194       137.13         
2461.8000     0.23217       -52.32        1.065E-3      -25.07        9.727E-4      -24.37        0.51309       136.40         
2464.7900     0.22595       -52.95        9.393E-4      -26.04        1.06E-3       -25.64        0.51521       135.74         
2467.7800     0.22023       -53.54        1.061E-3      -27.38        1.015E-3      -30.44        0.5179        135.20         
2470.7700     0.21505       -54.03        9.827E-4      -36.23        1.04E-3       -29.74        0.52138       134.80         
2473.7600     0.21038       -54.47        1.103E-3      -38.78        1.047E-3      -34.02        0.52519       134.56         
2476.7500     0.20601       -54.80        1.018E-3      -34.85        1.064E-3      -34.20        0.52899       134.48         
2479.7400     0.20197       -54.93        1.053E-3      -43.64        1.056E-3      -38.54        0.53256       134.57         
2482.7300     0.19781       -54.94        1.085E-3      -45.72        1.014E-3      -40.61        0.53567       134.81         
2485.7200     0.1938        -54.89        9.904E-4      -49.17        1.041E-3      -49.29        0.5384        135.18         
2488.7100     0.1889        -54.71        1.089E-3      -53.25        1.064E-3      -45.97        0.54025       135.65         
2491.7000     0.18326       -54.34        9.937E-4      -53.59        9.534E-4      -54.45        0.54124       136.20         
2494.6900     0.17682       -53.80        1.048E-3      -54.70        1.106E-3      -57.31        0.54129       136.76         
2497.6800     0.16985       -53.03        1.058E-3      -56.37        1.09E-3       -61.62        0.54047       137.34         
2500.6700     0.16271       -51.97        1.077E-3      -65.80        1.061E-3      -63.24        0.53858       137.86         
2503.6600     0.15595       -50.87        1.007E-3      -64.42        1.094E-3      -66.17        0.53612       138.28         
2506.6500     0.14938       -49.63        1.073E-3      -68.05        1.031E-3      -72.52        0.53286       138.58         
2509.6400     0.14301       -48.48        1.063E-3      -71.70        1.147E-3      -72.17        0.52905       138.72         
2512.6300     0.13703       -47.31        1.116E-3      -76.99        1.098E-3      -77.81        0.52512       138.69         
2515.6200     0.13169       -46.25        1.091E-3      -83.44        1.034E-3      -74.27        0.52142       138.46         
2518.6100     0.12711       -45.26        1.009E-3      -82.64        9.812E-4      -82.29        0.5182        138.07         
2521.6000     0.12315       -44.46        1.005E-3      -83.85        1.035E-3      -82.01        0.51569       137.55         
2524.5900     0.11996       -43.60        1.15E-3       -91.15        1.082E-3      -89.86        0.51414       136.92         
2527.5800     0.11732       -42.67        1.09E-3       -90.72        1.047E-3      -94.04        0.51361       136.22         
2530.5700     0.11574       -41.70        1.089E-3      -92.89        1.042E-3      -91.64        0.51411       135.54         
2533.5600     0.11487       -40.49        1.155E-3      -97.15        1.093E-3      -97.72        0.51562       134.89         
2536.5500     0.11482       -39.13        1.101E-3      -104.93       1.109E-3      -105.55       0.51831       134.35         
2539.5400     0.11545       -37.59        1.106E-3      -105.80       1.071E-3      -102.82       0.52143       133.91         
2542.5300     0.11638       -35.93        1.096E-3      -109.24       1.055E-3      -109.91       0.52513       133.64         
2545.5200     0.1174        -34.14        1.02E-3       -111.51       1.168E-3      -112.94       0.52894       133.54         
2548.5100     0.11867       -32.23        1.079E-3      -118.75       1.04E-3       -111.95       0.53259       133.63         
2551.5000     0.11985       -30.26        1.107E-3      -119.72       1.12E-3       -117.79       0.53603       133.87         
2554.4900     0.12117       -28.39        1.092E-3      -116.67       1.063E-3      -123.98       0.53869       134.26         
2557.4800     0.12224       -26.70        1.061E-3      -130.24       1.039E-3      -125.83       0.54063       134.78         
2560.4700     0.12304       -25.21        1.051E-3      -131.80       1.128E-3      -128.42       0.54164       135.35         
2563.4600     0.12386       -24.10        1.121E-3      -132.39       9.828E-4      -127.85       0.54159       135.97         
2566.4500     0.12422       -23.42        9.344E-4      -132.08       1.04E-3       -138.90       0.54048       136.56         
2569.4400     0.12432       -23.13        1.038E-3      -138.89       9.837E-4      -141.43       0.53822       137.09         
2572.4300     0.1242        -23.24        1.09E-3       -144.80       1.082E-3      -143.35       0.53511       137.50         
2575.4200     0.12394       -23.70        9.475E-4      -144.31       1.011E-3      -145.67       0.53163       137.76         
2578.4100     0.12384       -24.57        1.11E-3       -141.81       1.076E-3      -146.89       0.52748       137.87         
2581.4000     0.12403       -25.77        1.071E-3      -153.05       1.04E-3       -157.70       0.5234        137.78         
2584.3900     0.12458       -27.22        1.025E-3      -156.40       1.043E-3      -151.53       0.51979       137.52         
2587.3800     0.12533       -28.68        1.104E-3      -159.98       9.85E-4       -153.91       0.51636       137.09         
2590.3700     0.12654       -30.14        8.88E-4       -161.67       1.02E-3       -163.50       0.51387       136.53         
2593.3600     0.12814       -31.60        9.845E-4      -168.76       1.009E-3      -165.97       0.51252       135.85         
2596.3500     0.12993       -32.93        9.848E-4      -166.77       9.505E-4      -169.16       0.51239       135.12         
2599.3400     0.13165       -34.16        9.209E-4      -174.46       9.862E-4      -171.90       0.51323       134.41         
2602.3300     0.13298       -35.25        9.688E-4      -174.12       1.053E-3      -175.98       0.51523       133.75         
2605.3200     0.13398       -36.28        1.007E-3      175.25        8.811E-4      -179.70       0.51818       133.22         
2608.3100     0.1343        -37.04        9.475E-4      175.61        8.802E-4      175.53        0.52191       132.82         
2611.3000     0.13398       -37.86        9.843E-4      173.76        8.992E-4      173.55        0.5258        132.60         
2614.2900     0.13299       -38.67        9.349E-4      172.88        9.572E-4      175.43        0.53014       132.58         
2617.2800     0.13113       -39.51        8.766E-4      162.41        9.526E-4      171.93        0.53403       132.76         
2620.2700     0.1288        -40.51        8.274E-4      165.46        9.321E-4      164.20        0.53756       133.09         
2623.2600     0.1258        -41.72        8.838E-4      157.84        8.779E-4      163.58        0.54037       133.57         
2626.2500     0.12252       -43.08        8.88E-4       159.46        7.865E-4      156.12        0.54209       134.16         
2629.2400     0.11891       -44.71        9.08E-4       155.18        8.591E-4      159.20        0.54289       134.79         
2632.2300     0.11527       -46.59        8.026E-4      151.85        8.408E-4      152.87        0.5424        135.46         
2635.2200     0.11162       -48.65        8.671E-4      148.16        7.659E-4      150.95        0.54057       136.07         
2638.2100     0.10842       -50.86        8.282E-4      145.05        7.53E-4       145.66        0.53807       136.63         
2641.2000     0.10541       -53.13        8.005E-4      138.35        8.159E-4      145.85        0.53472       137.05         
2644.1900     0.10287       -55.30        7.393E-4      144.84        8.203E-4      142.11        0.53071       137.31         
2647.1800     0.10079       -57.41        7.495E-4      136.55        7.533E-4      143.51        0.52637       137.39         
2650.1700     0.09871       -59.30        7.142E-4      131.24        6.723E-4      132.12        0.52205       137.31         
2653.1600     0.09684       -60.97        7.264E-4      131.60        7.223E-4      131.75        0.51805       137.00         
2656.1500     0.09493       -62.22        6.476E-4      131.87        7.235E-4      132.45        0.51453       136.55         
2659.1400     0.09291       -63.29        8.354E-4      128.05        7.836E-4      128.40        0.51203       135.92         
2662.1300     0.09025       -64.05        6.961E-4      122.15        6.63E-4       127.54        0.51038       135.21         
2665.1200     0.08722       -64.59        5.741E-4      125.57        6.494E-4      124.86        0.51015       134.44         
2668.1100     0.08373       -64.99        6.191E-4      118.84        7.176E-4      129.54        0.51102       133.68         
2671.1000     0.07974       -65.25        5.96E-4       113.65        6.608E-4      115.14        0.51296       133.00         
2674.0900     0.07532       -65.36        6.646E-4      114.24        5.615E-4      112.86        0.51598       132.43         
2677.0800     0.07062       -65.61        6.964E-4      114.22        6.272E-4      113.73        0.51966       132.01         
2680.0700     0.06573       -65.88        6.553E-4      108.01        6.502E-4      110.71        0.52382       131.79         
2683.0600     0.06056       -66.30        6.268E-4      111.24        6.355E-4      109.10        0.52806       131.77         
2686.0500     0.05573       -67.23        6.346E-4      107.09        6.63E-4       106.80        0.53192       131.90         
2689.0400     0.05066       -68.41        6.229E-4      104.12        6.154E-4      98.07         0.53513       132.21         
2692.0300     0.04588       -69.75        6.869E-4      104.64        6.526E-4      105.68        0.53758       132.66         
2695.0200     0.04137       -71.35        6.601E-4      104.21        5.677E-4      105.11        0.53898       133.20         
2698.0100     0.03712       -72.82        6.267E-4      104.34        6.483E-4      95.21         0.53924       133.77         
2701.0000     0.03346       -74.36        5.92E-4       103.69        6.30E-4       106.66        0.5384        134.33         
2703.9900     0.03002       -75.68        5.633E-4      94.49         6.012E-4      92.78         0.53689       134.84         
2706.9800     0.02662       -76.88        5.372E-4      89.32         6.176E-4      94.01         0.53423       135.28         
2709.9700     0.02338       -77.33        5.597E-4      94.97         6.507E-4      92.42         0.53093       135.60         
2712.9600     0.01981       -76.62        7.106E-4      89.67         6.16E-4       87.24         0.5273        135.75         
2715.9500     0.01623       -73.12        5.539E-4      78.48         6.368E-4      84.72         0.5233        135.73         
2718.9400     0.01226       -65.07        5.969E-4      86.81         6.099E-4      84.82         0.51955       135.53         
2721.9300     0.00893       -48.42        6.555E-4      82.24         6.751E-4      84.76         0.51612       135.17         
2724.9200     0.00735       -15.31        5.656E-4      73.58         6.874E-4      73.24         0.51321       134.63         
2727.9100     0.009         19.41         6.545E-4      73.87         5.998E-4      76.33         0.51143       133.97         
2730.9000     0.01252       38.08         6.396E-4      82.49         6.35E-4       74.39         0.51079       133.23         
2733.8900     0.01671       48.95         7.026E-4      73.85         6.73E-4       78.35         0.51146       132.47         
2736.8800     0.02125       55.90         6.573E-4      65.95         5.947E-4      75.89         0.51339       131.76         
2739.8700     0.02587       60.91         6.175E-4      67.62         6.618E-4      59.17         0.51636       131.16         
2742.8600     0.03058       64.33         6.621E-4      63.56         6.171E-4      58.44         0.52035       130.69         
2745.8500     0.03539       66.07         6.804E-4      56.91         5.836E-4      63.59         0.52467       130.43         
2748.8400     0.03996       67.07         6.801E-4      56.18         6.117E-4      61.00         0.52914       130.34         
2751.8300     0.04416       67.52         6.754E-4      60.60         6.682E-4      65.11         0.53346       130.42         
2754.8200     0.04781       67.47         5.945E-4      57.91         6.608E-4      50.54         0.53722       130.71         
2757.8100     0.05118       67.40         6.474E-4      52.11         6.73E-4       56.90         0.54043       131.16         
2760.8000     0.05439       67.26         6.032E-4      53.28         6.276E-4      52.11         0.54286       131.69         
2763.7900     0.0577        66.98         6.055E-4      45.32         5.894E-4      49.71         0.54391       132.31         
2766.7800     0.06087       66.44         6.546E-4      45.21         5.934E-4      46.24         0.54418       132.99         
2769.7700     0.06413       65.90         6.702E-4      33.24         5.57E-4       46.90         0.54326       133.64         
2772.7600     0.06773       65.09         6.036E-4      42.92         5.69E-4       40.18         0.54131       134.26         
2775.7500     0.07125       64.34         6.176E-4      42.26         6.256E-4      36.84         0.53837       134.79         
2778.7400     0.07505       63.60         6.244E-4      40.72         6.533E-4      29.49         0.5347        135.17         
2781.7300     0.0787        62.93         5.653E-4      31.74         6.564E-4      36.59         0.53028       135.41         
2784.7200     0.08242       62.41         6.605E-4      28.48         6.212E-4      26.37         0.52567       135.46         
2787.7100     0.08626       62.06         6.374E-4      28.03         5.627E-4      21.95         0.52097       135.31         
2790.7000     0.09007       61.78         6.69E-4       22.31         5.399E-4      24.76         0.51673       134.95         
2793.6900     0.09399       61.67         5.973E-4      15.76         6.134E-4      14.35         0.5132        134.43         
2796.6800     0.09791       61.49         5.462E-4      14.61         6.119E-4      19.86         0.51062       133.75         
2799.6700     0.10145       61.34         6.004E-4      12.58         5.922E-4      10.76         0.50944       133.01         
2802.6600     0.10481       61.18         6.05E-4       16.39         5.633E-4      4.90          0.50944       132.19         
2805.6500     0.108         60.97         6.144E-4      10.04         6.253E-4      8.60          0.51067       131.40         
2808.6400     0.11093       60.86         5.512E-4      5.77          6.034E-4      3.00          0.51303       130.72         
2811.6300     0.11379       60.73         5.936E-4      7.25          5.524E-4      0.50          0.51624       130.15         
2814.6200     0.11637       60.60         5.069E-4      0.30          5.662E-4      -3.67         0.52006       129.76         
2817.6100     0.11894       60.48         5.501E-4      1.92          5.303E-4      5.96          0.52407       129.53         
2820.6000     0.12143       60.33         5.998E-4      -11.60        5.602E-4      4.09          0.52808       129.47         
2823.5900     0.124         60.20         4.81E-4       -6.88         4.535E-4      -5.52         0.53205       129.59         
2826.5800     0.12652       60.03         5.906E-4      -2.53         4.978E-4      -4.07         0.53544       129.86         
2829.5700     0.12888       59.83         5.333E-4      -4.95         5.206E-4      -10.39        0.53798       130.26         
2832.5600     0.13139       59.79         5.778E-4      -23.72        5.779E-4      -10.51        0.53983       130.78         
2835.5500     0.1338        59.82         4.81E-4       -21.12        5.834E-4      -9.47         0.54044       131.34         
2838.5400     0.13644       60.01         4.944E-4      -18.33        5.807E-4      -6.10         0.54003       131.93         
2841.5300     0.13913       60.19         5.824E-4      -9.52         5.912E-4      -10.26        0.53872       132.48         
2844.5200     0.14179       60.45         5.395E-4      -18.14        5.552E-4      -23.60        0.53652       132.95         
2847.5100     0.14458       60.75         5.384E-4      -21.55        6.80E-4       -26.58        0.53347       133.33         
2850.5000     0.14698       61.00         5.10E-4       -17.81        6.296E-4      -25.83        0.52991       133.57         
2853.4900     0.1491        61.33         5.613E-4      -29.67        5.586E-4      -24.55        0.52585       133.64         
2856.4800     0.15068       61.67         5.475E-4      -41.36        6.643E-4      -40.45        0.52198       133.54         
2859.4700     0.15189       62.19         6.025E-4      -39.66        6.131E-4      -35.22        0.51862       133.26         
2862.4600     0.15317       62.80         5.421E-4      -48.06        4.495E-4      -41.43        0.51575       132.83         
2865.4500     0.1543        63.45         5.25E-4       -50.61        5.527E-4      -47.50        0.51371       132.27         
2868.4400     0.15566       64.20         5.691E-4      -52.95        5.971E-4      -45.94        0.51258       131.64         
2871.4300     0.1572        64.97         6.844E-4      -51.00        5.834E-4      -59.91        0.51249       130.95         
2874.4200     0.15908       65.67         5.621E-4      -53.39        5.645E-4      -54.05        0.51334       130.26         
2877.4100     0.16132       66.34         5.665E-4      -64.96        5.703E-4      -56.28        0.51515       129.63         
2880.4000     0.16363       66.96         5.571E-4      -67.83        5.016E-4      -66.94        0.51767       129.09         
2883.3900     0.16592       67.65         5.96E-4       -58.93        5.387E-4      -66.80        0.52115       128.66         
2886.3800     0.16858       68.45         5.55E-4       -77.15        5.65E-4       -76.96        0.5249        128.38         
2889.3700     0.17187       69.30         5.315E-4      -70.77        5.918E-4      -70.32        0.52885       128.27         
2892.3600     0.1754        70.22         5.727E-4      -72.66        4.794E-4      -86.05        0.53257       128.31         
2895.3500     0.17971       71.17         4.315E-4      -93.45        6.361E-4      -78.33        0.53604       128.52         
2898.3400     0.18406       72.08         5.226E-4      -82.01        5.735E-4      -72.20        0.53887       128.86         
2901.3300     0.18868       73.00         5.953E-4      -90.64        5.675E-4      -85.91        0.54076       129.30         
2904.3200     0.19323       73.91         5.132E-4      -92.32        4.684E-4      -85.73        0.54183       129.80         
2907.3100     0.19782       74.84         4.827E-4      -96.08        5.842E-4      -89.67        0.54182       130.34         
2910.3000     0.2021        75.70         4.584E-4      -96.05        5.762E-4      -85.07        0.54103       130.84         
2913.2900     0.20656       76.53         5.198E-4      -97.62        5.49E-4       -99.03        0.53941       131.31         
2916.2800     0.21082       77.28         4.491E-4      -90.00        4.836E-4      -86.37        0.53716       131.70         
2919.2700     0.21511       77.88         5.28E-4       -104.16       4.997E-4      -88.86        0.53441       131.97         
2922.2600     0.21911       78.35         5.279E-4      -105.96       5.168E-4      -104.69       0.5314        132.12         
2925.2500     0.22282       78.79         5.381E-4      -105.76       5.187E-4      -97.49        0.52826       132.13         
2928.2400     0.22644       79.17         4.967E-4      -101.28       5.289E-4      -111.27       0.52535       131.98         
2931.2300     0.23025       79.48         4.932E-4      -115.77       4.444E-4      -115.09       0.5225        131.70         
2934.2200     0.23439       79.70         3.526E-4      -120.19       4.883E-4      -117.95       0.52009       131.27         
2937.2100     0.23902       79.90         3.965E-4      -118.66       5.254E-4      -118.27       0.51864       130.76         
2940.2000     0.24385       79.97         4.262E-4      -118.36       4.675E-4      -128.89       0.51804       130.18         
2943.1900     0.24897       80.02         4.407E-4      -115.71       4.174E-4      -131.23       0.51834       129.58         
2946.1800     0.25409       80.04         3.679E-4      -106.52       4.75E-4       -111.46       0.51972       128.98         
2949.1700     0.25945       80.15         4.605E-4      -129.16       3.138E-4      -114.22       0.52199       128.47         
2952.1600     0.26488       80.31         3.558E-4      -119.58       3.515E-4      -124.26       0.52484       128.07         
2955.1500     0.27061       80.51         3.338E-4      -121.83       4.208E-4      -126.61       0.52803       127.79         
2958.1400     0.27644       80.75         3.75E-4       -124.70       4.566E-4      -128.02       0.53138       127.67         
2961.1300     0.28197       81.02         2.771E-4      -137.26       4.537E-4      -133.69       0.53475       127.70         
2964.1200     0.28722       81.36         3.731E-4      -126.56       3.884E-4      -131.76       0.53786       127.89         
2967.1100     0.29173       81.72         2.599E-4      -143.31       4.788E-4      -132.55       0.54034       128.20         
2970.1000     0.29602       82.13         4.233E-4      -140.49       2.226E-4      -139.86       0.54236       128.61         
2973.0900     0.2996        82.53         3.41E-4       -148.44       3.172E-4      -130.81       0.54333       129.09         
2976.0800     0.30299       82.90         3.569E-4      -146.31       3.204E-4      -134.43       0.5436        129.62         
2979.0700     0.30599       83.29         4.336E-4      -148.80       4.211E-4      -139.92       0.54296       130.17         
2982.0600     0.30873       83.59         3.312E-4      -160.74       2.597E-4      -148.02       0.54158       130.68         
2985.0500     0.31129       83.81         3.271E-4      -172.12       2.454E-4      -155.94       0.53944       131.12         
2988.0400     0.31385       83.96         3.205E-4      -164.54       3.895E-4      -144.61       0.5365        131.45         
2991.0300     0.31637       84.01         3.316E-4      -163.18       3.513E-4      -138.20       0.53295       131.65         
2994.0200     0.31885       83.99         3.468E-4      -154.16       3.737E-4      -160.65       0.52925       131.70         
2997.0100     0.32177       83.94         3.787E-4      -154.61       4.076E-4      -164.99       0.52549       131.57         
3000.0000     0.32452       83.91         4.315E-4      -166.33       4.425E-4      -149.66       0.52107       131.19         
