!    08/05/2026   14:59:58 
! Ref Plane: 0.000 mm
# MHZ S MA R  50
!
10.0000       1.00121       -178.82       6.354E-5      -55.42        1.816E-5      58.53         0.39474       -9.50          
12.9900       1.0017        -178.52       6.901E-5      -20.60        1.996E-5      83.74         0.39079       -10.69         
15.9800       1.00185       -178.23       6.157E-5      150.97        7.66E-5       146.80        0.38522       -13.24         
18.9700       1.00214       -177.94       3.483E-5      145.56        5.716E-5      53.25         0.37366       -15.96         
21.9600       1.0024        -177.65       4.287E-5      95.89         5.777E-5      92.07         0.34813       -16.71         
24.9500       1.00265       -177.35       1.159E-4      28.87         8.36E-5       41.40         0.35582       -14.01         
27.9400       1.00291       -177.06       9.189E-5      116.89        1.279E-4      10.49         0.36899       -16.15         
30.9300       1.00307       -176.77       1.177E-4      -30.33        1.178E-4      -8.18         0.37277       -19.18         
33.9200       1.00335       -176.48       9.089E-5      -76.57        4.128E-6      66.68         0.3703        -21.77         
36.9100       1.00331       -176.18       6.949E-5      -55.95        9.27E-5       -29.32        0.36871       -23.58         
39.9000       1.00339       -175.89       4.391E-5      -73.48        7.62E-5       -39.76        0.36946       -25.58         
42.8900       1.00335       -175.60       9.553E-5      -98.35        1.139E-4      -60.99        0.36947       -27.68         
45.8800       1.00353       -175.31       9.04E-5       -1.51         9.602E-5      -27.17        0.36884       -29.71         
48.8700       1.00353       -174.96       1.888E-4      21.22         1.461E-4      -36.89        0.36543       -31.74         
51.8600       1.00339       -174.71       8.332E-5      -83.85        1.755E-4      -50.69        0.3574        -33.40         
54.8500       1.00457       -174.50       4.975E-5      -71.54        1.635E-4      -54.38        0.35205       -33.08         
57.8400       1.00353       -174.11       9.856E-5      -173.42       1.37E-4       -95.45        0.35918       -33.26         
60.8300       1.00372       -173.81       7.00E-5       -111.11       1.382E-4      -108.09       0.36501       -34.62         
63.8200       1.00375       -173.51       1.157E-4      -136.58       8.418E-5      -152.22       0.36712       -36.17         
66.8100       1.00392       -173.20       2.453E-5      -102.94       9.518E-5      -58.02        0.36762       -37.65         
69.8000       1.00418       -172.88       7.884E-5      -146.39       4.919E-5      20.95         0.36762       -39.20         
72.7900       1.00458       -172.57       9.378E-5      170.81        8.586E-5      -133.40       0.36532       -40.86         
75.7800       1.00472       -172.26       1.159E-4      -102.52       1.023E-4      -117.50       0.36084       -42.31         
78.7700       1.00473       -171.92       1.286E-4      -102.31       1.16E-4       -107.35       0.35624       -43.30         
81.7600       1.00499       -171.60       1.212E-4      -157.12       8.584E-5      -58.99        0.35425       -44.06         
84.7500       1.0051        -171.33       8.816E-5      -110.62       1.42E-4       -153.84       0.35408       -45.08         
87.7400       1.00516       -171.04       1.765E-5      79.68         9.769E-5      -143.97       0.3544        -46.32         
90.7300       1.00537       -170.76       5.127E-5      -116.80       3.867E-5      -147.22       0.35388       -47.70         
93.7200       1.00596       -170.40       5.354E-5      108.40        5.576E-5      99.22         0.3532        -48.88         
96.7100       1.00558       -170.15       3.682E-5      -169.34       4.939E-6      -107.94       0.35387       -49.95         
99.7000       1.00555       -169.86       2.142E-5      -83.04        4.396E-5      91.45         0.35658       -51.05         
102.6900      1.00541       -169.58       5.331E-5      175.70        1.07E-4       -168.00       0.36039       -52.39         
105.6800      1.00535       -169.29       3.223E-5      158.26        1.168E-4      -128.25       0.36405       -53.83         
108.6700      1.00537       -169.02       3.876E-5      169.63        2.862E-5      29.88         0.36746       -55.23         
111.6600      1.00522       -168.72       7.44E-5       113.02        4.89E-5       -45.01        0.3713        -56.52         
114.6500      1.00511       -168.40       3.353E-5      150.92        5.727E-5      45.24         0.37591       -57.84         
117.6400      1.00502       -168.11       1.771E-5      103.78        7.648E-5      50.17         0.38006       -59.28         
120.6300      1.0053        -167.80       5.037E-5      146.72        1.057E-4      -114.31       0.38231       -60.69         
123.6200      1.00549       -167.49       5.047E-5      -109.04       6.049E-5      -142.78       0.38312       -61.85         
126.6100      1.00552       -167.17       4.615E-5      -162.66       5.022E-5      -115.66       0.38402       -62.79         
129.6000      1.00533       -166.83       9.227E-5      -173.56       1.032E-4      173.09        0.38559       -63.68         
132.5900      1.00536       -166.52       1.076E-4      -155.09       8.079E-5      -168.71       0.38729       -64.56         
135.5800      1.00537       -166.18       1.024E-4      171.32        1.189E-4      -143.08       0.38891       -65.46         
138.5700      1.00531       -165.87       1.381E-4      177.83        1.627E-4      166.51        0.39027       -66.40         
141.5600      1.00549       -165.59       1.217E-4      -177.32       1.295E-4      159.57        0.39142       -67.37         
144.5500      1.00584       -165.31       9.338E-5      176.49        1.066E-4      174.81        0.39238       -68.40         
147.5400      1.00623       -165.01       9.935E-5      160.35        1.444E-4      173.88        0.3929        -69.49         
150.5300      1.0065        -164.71       1.225E-4      170.11        8.715E-5      176.62        0.39318       -70.67         
153.5200      1.00659       -164.41       1.406E-4      134.16        2.392E-4      163.07        0.39312       -71.90         
156.5100      1.00654       -164.11       1.16E-4       153.60        1.033E-4      129.50        0.39319       -73.19         
159.5000      1.00665       -163.82       1.482E-4      138.97        1.139E-4      159.15        0.3934        -74.51         
162.4900      1.00662       -163.56       1.596E-4      146.68        1.153E-4      157.86        0.3936        -75.80         
165.4800      1.00659       -163.29       1.658E-4      123.09        1.549E-4      129.58        0.39381       -77.11         
168.4700      1.00655       -163.00       2.207E-4      131.80        1.453E-4      112.06        0.39413       -78.33         
171.4600      1.00654       -162.69       1.623E-4      134.20        2.047E-4      160.32        0.39433       -79.49         
174.4500      1.0067        -162.39       2.41E-4       118.31        1.786E-4      101.00        0.39455       -80.55         
177.4400      1.00645       -162.08       1.676E-4      120.29        1.72E-4       126.23        0.3947        -81.47         
180.4300      1.00607       -161.77       1.971E-4      78.19         1.319E-4      116.58        0.39488       -82.25         
183.4200      1.00567       -161.45       2.528E-4      97.86         1.934E-4      113.44        0.39547       -82.89         
186.4100      1.00533       -161.14       1.94E-4       92.79         2.156E-4      110.07        0.39688       -83.42         
189.4000      1.00504       -160.82       2.175E-4      82.43         2.575E-4      73.25         0.39898       -83.97         
192.3900      1.00472       -160.50       2.226E-4      82.62         3.001E-4      70.78         0.40086       -84.57         
195.3800      1.00469       -160.22       2.182E-4      76.01         2.019E-4      64.01         0.40207       -85.13         
198.3700      1.00491       -159.93       2.472E-4      55.64         2.49E-4       66.01         0.40296       -85.61         
201.3600      1.00537       -159.63       2.552E-4      43.91         2.291E-4      43.66         0.40376       -86.05         
204.3500      1.00573       -159.32       2.277E-4      43.30         1.965E-4      34.08         0.40453       -86.48         
207.3400      1.00603       -159.00       2.471E-4      35.81         2.684E-4      41.39         0.40514       -86.97         
210.3300      1.00648       -158.67       2.588E-4      29.20         2.291E-4      26.05         0.40583       -87.57         
213.3200      1.00637       -158.37       2.491E-4      11.56         3.385E-4      7.66          0.40674       -88.26         
216.3100      1.00622       -158.09       2.565E-4      -6.69         2.565E-4      -7.77         0.40776       -89.04         
219.3000      1.00664       -157.82       2.789E-4      -35.25        2.414E-4      -13.76        0.4087        -89.89         
222.2900      1.00719       -157.53       2.176E-4      -33.53        2.584E-4      -52.98        0.40943       -90.81         
225.2800      1.00764       -157.18       1.597E-4      -74.51        2.869E-4      -57.25        0.41016       -91.74         
228.2700      1.00784       -156.84       2.256E-4      -80.37        1.55E-4       -92.27        0.4108        -92.65         
231.2600      1.00755       -156.52       1.176E-4      -69.43        1.385E-4      -92.31        0.41173       -93.56         
234.2500      1.00722       -156.20       9.305E-5      -106.80       1.194E-4      -36.54        0.41269       -94.45         
237.2400      1.00672       -155.88       1.487E-4      -107.83       1.068E-4      -113.99       0.41393       -95.34         
240.2300      1.00591       -155.56       6.938E-5      -127.40       3.649E-5      16.16         0.41567       -96.16         
243.2200      1.0053        -155.25       1.377E-4      -157.12       1.199E-4      -134.40       0.41772       -96.92         
246.2100      1.0049        -154.94       9.147E-5      161.06        6.255E-5      120.51        0.42004       -97.62         
249.2000      1.00465       -154.63       1.233E-4      133.36        1.59E-4       126.39        0.42238       -98.26         
252.1900      1.00473       -154.33       1.671E-4      121.12        1.005E-4      172.94        0.42486       -98.83         
255.1800      1.00472       -154.04       1.594E-4      96.73         1.14E-4       81.65         0.42705       -99.32         
258.1700      1.00497       -153.73       1.418E-4      76.41         1.857E-4      91.36         0.42898       -99.77         
261.1600      1.00534       -153.41       1.388E-4      49.91         2.029E-4      74.03         0.4307        -100.15        
264.1500      1.00554       -153.08       2.038E-4      50.98         1.736E-4      44.60         0.43203       -100.53        
267.1400      1.00576       -152.78       1.919E-4      28.60         2.40E-4       16.31         0.43313       -100.90        
270.1300      1.00597       -152.50       1.741E-4      -0.61         1.592E-4      18.08         0.43415       -101.28        
273.1200      1.00684       -152.24       1.378E-4      3.70          1.626E-4      17.80         0.43498       -101.68        
276.1100      1.00795       -151.96       8.457E-5      -12.57        1.805E-4      -51.27        0.43572       -102.06        
279.1000      1.00874       -151.63       1.17E-4       -34.83        1.758E-4      -39.52        0.43671       -102.49        
282.0900      1.00887       -151.27       8.505E-5      -29.18        1.65E-4       -32.12        0.43772       -102.94        
285.0800      1.00832       -150.91       9.514E-5      -38.74        1.424E-4      -9.23         0.43866       -103.48        
288.0700      1.00791       -150.54       5.726E-5      -34.14        6.974E-5      -30.58        0.4394        -104.08        
291.0600      1.00743       -150.22       7.693E-5      -78.41        1.337E-4      -104.18       0.44006       -104.75        
294.0500      1.00658       -149.89       8.787E-6      29.97         1.033E-4      2.17          0.44101       -105.48        
297.0400      1.00563       -149.56       1.121E-4      -115.99       3.89E-5       -7.33         0.44211       -106.24        
300.0300      1.00496       -149.23       4.487E-5      -72.91        1.352E-4      -59.56        0.4436        -106.99        
303.0200      1.00429       -148.90       1.992E-5      -132.68       4.731E-5      -45.44        0.44525       -107.73        
306.0100      1.00384       -148.59       5.069E-5      -109.11       7.947E-5      -99.56        0.44721       -108.45        
309.0000      1.00354       -148.28       5.674E-5      -150.47       3.911E-5      -75.71        0.44926       -109.13        
311.9900      1.00331       -147.97       1.584E-5      115.56        7.027E-5      -47.90        0.45133       -109.74        
314.9800      1.00309       -147.66       5.558E-5      -110.57       9.149E-5      -100.11       0.45318       -110.30        
317.9700      1.00277       -147.37       3.351E-5      -134.43       2.006E-5      -95.02        0.45499       -110.84        
320.9600      1.00261       -147.08       2.408E-5      131.40        1.067E-4      108.68        0.45693       -111.32        
323.9500      1.00306       -146.81       3.349E-5      -178.76       6.977E-5      141.64        0.45865       -111.77        
326.9400      1.00394       -146.53       1.528E-5      16.62         9.043E-5      125.19        0.46023       -112.18        
329.9300      1.00508       -146.21       5.457E-5      130.76        6.795E-5      37.24         0.46167       -112.56        
332.9200      1.00602       -145.88       7.512E-5      66.62         1.254E-4      102.92        0.46287       -112.93        
335.9100      1.007         -145.51       5.928E-5      76.34         7.746E-5      81.66         0.46394       -113.28        
338.9000      1.00732       -145.11       1.149E-4      88.53         1.194E-4      36.10         0.4648        -113.61        
341.8900      1.00718       -144.73       7.005E-5      62.33         1.158E-4      -13.53        0.46522       -113.95        
344.8800      1.00686       -144.36       2.844E-5      59.99         3.302E-5      6.99          0.46527       -114.34        
347.8700      1.00644       -144.02       9.853E-5      35.07         1.183E-4      36.01         0.46542       -114.78        
350.8600      1.0061        -143.67       5.36E-5       -57.41        7.723E-5      -26.63        0.46536       -115.27        
353.8500      1.00568       -143.33       7.657E-5      4.52          1.50E-4       -3.64         0.4656        -115.80        
356.8400      1.00517       -142.99       9.971E-5      -35.02        1.344E-4      -20.90        0.46599       -116.36        
359.8300      1.00455       -142.66       7.965E-5      -56.28        9.45E-5       -34.53        0.46656       -116.94        
362.8200      1.00409       -142.33       1.423E-4      -3.39         1.401E-4      -22.32        0.46733       -117.51        
365.8100      1.00348       -142.00       7.382E-5      -55.38        7.193E-5      -52.24        0.46842       -118.09        
368.8000      1.00263       -141.70       6.415E-5      -46.27        1.021E-4      -39.78        0.46935       -118.66        
371.7900      1.0018        -141.42       5.522E-5      -35.97        3.668E-5      148.12        0.47049       -119.22        
374.7800      1.00181       -141.14       2.197E-5      -133.47       3.547E-5      -173.28       0.47189       -119.76        
377.7700      1.00179       -140.89       1.004E-4      39.98         9.191E-5      -28.11        0.47325       -120.27        
380.7600      1.00268       -140.60       1.094E-4      17.78         1.184E-4      55.88         0.47496       -120.75        
383.7500      1.00364       -140.28       6.744E-5      -37.41        7.789E-5      -22.90        0.47676       -121.19        
386.7400      1.00463       -139.96       1.014E-4      -23.26        1.676E-4      -27.57        0.47872       -121.55        
389.7300      1.00556       -139.61       8.478E-5      -16.66        7.712E-5      -0.21         0.48069       -121.85        
392.7200      1.006         -139.24       8.689E-5      -55.70        1.298E-4      -10.87        0.48238       -122.13        
395.7100      1.00594       -138.86       1.058E-4      -48.32        3.644E-5      109.47        0.48386       -122.35        
398.7000      1.0056        -138.49       1.21E-4       -50.25        1.839E-4      -14.83        0.48493       -122.55        
401.6900      1.00523       -138.12       6.694E-5      -39.47        4.76E-5       -59.62        0.48564       -122.76        
404.6800      1.00493       -137.77       6.418E-5      82.60         5.726E-5      27.45         0.48612       -122.97        
407.6700      1.00465       -137.41       5.201E-5      16.12         1.683E-4      24.23         0.48629       -123.18        
410.6600      1.00447       -137.04       1.582E-4      -7.39         2.224E-4      19.11         0.48619       -123.42        
413.6500      1.00401       -136.68       2.057E-4      -23.19        1.217E-4      -31.07        0.48627       -123.70        
416.6400      1.0031        -136.33       1.848E-4      -41.74        2.154E-4      -42.52        0.48625       -123.98        
419.6300      1.00188       -135.98       1.718E-4      -63.75        2.115E-4      -56.94        0.48639       -124.31        
422.6200      1.0003        -135.67       1.807E-4      -65.32        1.247E-4      -76.24        0.48637       -124.64        
425.6100      0.99893       -135.36       1.646E-4      -65.28        1.844E-4      -63.47        0.48634       -125.03        
428.6000      0.99813       -135.08       1.159E-4      -73.05        2.073E-4      -78.40        0.48623       -125.48        
431.5900      0.99788       -134.79       1.561E-4      -93.59        1.127E-4      -77.04        0.48623       -125.96        
434.5800      0.99857       -134.49       1.404E-4      -85.05        1.515E-4      -141.64       0.48646       -126.49        
437.5700      0.9995        -134.18       6.689E-5      -68.28        1.591E-4      -35.34        0.48686       -127.02        
440.5600      1.00038       -133.86       1.18E-4       -90.05        2.393E-4      -122.29       0.48764       -127.56        
443.5500      1.00111       -133.53       1.266E-4      -70.01        2.054E-4      -88.34        0.48884       -128.08        
446.5400      1.00147       -133.18       4.642E-5      -106.13       9.358E-5      -116.47       0.49032       -128.53        
449.5300      1.00152       -132.83       4.538E-5      -56.13        1.114E-4      169.09        0.49185       -128.92        
452.5200      1.00146       -132.48       4.45E-5       -133.63       1.269E-4      -79.79        0.49325       -129.27        
455.5100      1.00123       -132.14       4.567E-5      -100.61       1.476E-4      11.97         0.49471       -129.56        
458.5000      1.00112       -131.79       6.172E-5      -89.67        1.485E-4      -76.43        0.49614       -129.82        
461.4900      1.00124       -131.44       1.97E-4       -35.57        1.625E-4      -11.01        0.49749       -130.04        
464.4800      1.00161       -131.06       9.863E-5      -34.02        1.452E-4      -35.90        0.4987        -130.23        
467.4700      1.00152       -130.66       1.375E-4      -54.70        1.432E-4      -45.46        0.49988       -130.40        
470.4600      1.00076       -130.25       1.122E-4      -101.41       1.192E-4      -85.57        0.50091       -130.55        
473.4500      0.99956       -129.86       1.875E-4      -92.37        2.192E-4      -107.18       0.50188       -130.68        
476.4400      0.99855       -129.52       1.576E-4      -114.87       2.154E-5      -107.69       0.50251       -130.80        
479.4300      0.99769       -129.21       1.054E-4      -109.72       2.186E-4      -88.01        0.50289       -130.94        
482.4200      0.99706       -128.91       1.565E-4      -125.37       2.24E-4       -115.65       0.50275       -131.09        
485.4100      0.99693       -128.64       1.249E-4      -119.72       1.69E-4       -133.34       0.50226       -131.30        
488.4000      0.99721       -128.34       1.246E-4      -127.08       1.135E-4      -138.55       0.50138       -131.57        
491.3900      0.99791       -128.04       1.318E-4      -139.67       1.123E-4      158.60        0.50043       -131.92        
494.3800      0.9983        -127.72       1.329E-4      -138.11       1.566E-4      -132.55       0.49945       -132.34        
497.3700      0.99847       -127.39       6.802E-5      -175.71       1.298E-4      -149.82       0.49863       -132.82        
500.3600      0.99834       -127.05       8.316E-5      174.58        1.346E-4      -145.86       0.49802       -133.35        
503.3500      0.9979        -126.72       1.365E-4      164.40        2.179E-4      -126.06       0.49773       -133.90        
506.3400      0.99735       -126.40       2.969E-5      -173.06       1.868E-5      -158.92       0.4977        -134.46        
509.3300      0.99693       -126.07       4.257E-5      -130.70       7.513E-5      -139.46       0.49772       -135.04        
512.3200      0.99673       -125.74       8.649E-5      85.83         8.674E-5      24.86         0.49815       -135.61        
515.3100      0.99668       -125.40       1.713E-5      89.80         1.783E-5      -153.51       0.49863       -136.20        
518.3000      0.99663       -125.01       1.859E-5      -13.48        3.111E-5      162.08        0.49971       -136.77        
521.2900      0.99615       -124.62       4.347E-5      128.21        7.934E-5      -99.92        0.50134       -137.31        
524.2800      0.99504       -124.22       3.744E-5      76.14         5.138E-5      51.86         0.5033        -137.80        
527.2700      0.99363       -123.84       5.196E-5      -26.97        1.505E-4      -6.83         0.50561       -138.23        
530.2600      0.99231       -123.50       1.022E-4      -24.50        1.708E-4      -2.48         0.50829       -138.59        
533.2500      0.99142       -123.17       1.778E-4      -32.56        1.41E-4       -18.88        0.51087       -138.87        
536.2400      0.99092       -122.88       1.173E-4      -41.13        1.772E-4      -1.62         0.51349       -139.07        
539.2300      0.99094       -122.59       1.10E-4       -74.52        1.301E-4      -91.21        0.51583       -139.21        
542.2200      0.99142       -122.29       1.751E-4      -67.69        1.625E-4      -85.65        0.51785       -139.31        
545.2100      0.99186       -121.96       1.918E-4      -85.66        1.742E-4      -67.43        0.5195        -139.37        
548.2000      0.99232       -121.63       2.154E-4      -101.05       2.216E-4      -124.13       0.52084       -139.44        
551.1900      0.99267       -121.30       1.869E-4      -96.23        3.232E-4      -105.57       0.52177       -139.51        
554.1800      0.99211       -120.96       2.838E-4      -108.95       2.024E-4      -132.68       0.52247       -139.57        
557.1700      0.99139       -120.62       2.344E-4      -118.42       3.538E-4      -115.78       0.52305       -139.63        
560.1600      0.99034       -120.32       2.623E-4      -134.03       2.325E-4      -150.88       0.52325       -139.71        
563.1500      0.98928       -120.01       2.215E-4      -160.71       2.923E-4      -166.68       0.5232        -139.80        
566.1400      0.98858       -119.67       2.247E-4      154.49        1.933E-4      -174.67       0.52288       -139.91        
569.1300      0.98783       -119.32       1.933E-4      170.11        1.934E-4      -162.53       0.52228       -140.07        
572.1200      0.98706       -118.94       1.596E-4      158.19        2.14E-4       168.88        0.52146       -140.28        
575.1100      0.98626       -118.54       1.345E-4      152.54        1.713E-4      -164.07       0.52058       -140.53        
578.1000      0.98499       -118.16       8.288E-5      178.63        1.304E-4      115.92        0.52          -140.84        
581.0900      0.9833        -117.81       1.268E-4      145.64        1.239E-4      131.76        0.51976       -141.18        
584.0800      0.98175       -117.49       9.555E-5      137.74        6.344E-5      -8.25         0.51989       -141.52        
587.0700      0.98062       -117.19       1.344E-4      114.33        1.42E-4       43.60         0.52054       -141.83        
590.0600      0.98008       -116.92       3.283E-5      -12.60        5.615E-5      138.12        0.52134       -142.15        
593.0500      0.97988       -116.63       6.888E-5      51.33         3.586E-5      124.04        0.52248       -142.44        
596.0400      0.98001       -116.33       2.857E-5      44.04         1.674E-5      -127.29       0.52373       -142.69        
599.0300      0.98065       -116.00       8.179E-5      -15.09        6.306E-5      66.05         0.52504       -142.91        
602.0200      0.9811        -115.66       9.855E-5      -33.44        1.221E-4      -14.93        0.52645       -143.12        
605.0100      0.98142       -115.33       7.413E-5      -72.50        1.081E-4      -51.86        0.52792       -143.29        
608.0000      0.98157       -114.99       1.992E-4      -50.37        1.174E-4      -89.73        0.52927       -143.45        
610.9900      0.98138       -114.66       1.754E-4      -62.28        2.226E-4      -67.96        0.5306        -143.59        
613.9800      0.98086       -114.37       1.46E-4       -83.40        1.891E-4      -79.51        0.532         -143.70        
616.9700      0.98057       -114.09       2.598E-4      -88.11        1.257E-4      -83.59        0.53307       -143.79        
619.9600      0.98027       -113.80       2.132E-4      -105.38       2.538E-4      -94.91        0.53385       -143.87        
622.9500      0.9797        -113.50       2.483E-4      -98.18        2.718E-4      -101.01       0.53425       -143.93        
625.9400      0.97881       -113.20       3.396E-4      -94.44        3.368E-4      -104.79       0.53429       -144.02        
628.9300      0.97747       -112.91       2.796E-4      -94.13        4.198E-4      -105.05       0.5339        -144.13        
631.9200      0.97566       -112.62       2.968E-4      -115.30       3.031E-4      -115.59       0.53317       -144.29        
634.9100      0.97325       -112.36       3.666E-4      -105.59       5.114E-4      -118.51       0.53239       -144.50        
637.9000      0.97089       -112.15       4.301E-4      -127.48       4.768E-4      -123.44       0.53179       -144.74        
640.8900      0.96867       -111.96       4.68E-4       -128.82       4.404E-4      -136.96       0.53117       -145.02        
643.8800      0.96671       -111.79       4.761E-4      -133.28       4.061E-4      -119.60       0.53077       -145.32        
646.8700      0.96504       -111.60       5.063E-4      -139.12       5.335E-4      -129.98       0.53056       -145.64        
649.8600      0.96367       -111.41       4.965E-4      -137.02       4.528E-4      -144.41       0.53054       -145.97        
652.8500      0.96211       -111.22       5.941E-4      -136.61       5.927E-4      -145.96       0.53077       -146.29        
655.8400      0.96037       -111.01       6.676E-4      -143.63       6.763E-4      -156.15       0.53112       -146.61        
658.8300      0.95828       -110.78       7.926E-4      -156.28       8.214E-4      -159.20       0.53169       -146.93        
661.8200      0.95615       -110.54       8.028E-4      -164.90       8.758E-4      -156.40       0.53254       -147.23        
664.8100      0.95372       -110.30       8.44E-4       -169.76       9.125E-4      -168.57       0.53369       -147.52        
667.8000      0.95086       -110.05       9.082E-4      -175.67       1.003E-3      -169.01       0.53495       -147.76        
670.7900      0.94801       -109.77       9.642E-4      170.39        9.344E-4      176.98        0.53635       -147.97        
673.7800      0.94504       -109.44       9.944E-4      167.12        1.042E-3      167.65        0.53786       -148.13        
676.7700      0.94199       -109.08       9.958E-4      160.13        1.076E-3      160.92        0.53919       -148.26        
679.7600      0.93908       -108.69       1.015E-3      151.68        1.07E-3       154.72        0.54021       -148.35        
682.7500      0.93649       -108.29       9.989E-4      142.25        1.036E-3      140.09        0.54096       -148.43        
685.7400      0.93481       -107.89       9.947E-4      134.94        9.181E-4      142.46        0.54142       -148.51        
688.7300      0.9347        -107.67       8.22E-4       138.95        7.754E-4      145.97        0.54153       -148.58        
691.7200      0.93024       -107.91       1.01E-3       146.71        9.97E-4       147.57        0.54136       -148.69        
694.7100      0.91714       -107.64       1.22E-3       133.60        1.189E-3      135.84        0.541         -148.82        
697.7000      0.91154       -107.10       1.183E-3      119.42        1.225E-3      124.88        0.54044       -149.00        
700.6900      0.90844       -106.70       1.206E-3      116.12        1.191E-3      109.84        0.53982       -149.21        
703.6800      0.90601       -106.34       1.174E-3      106.35        1.155E-3      107.76        0.53915       -149.44        
706.6700      0.90378       -106.05       1.093E-3      100.47        1.174E-3      98.53         0.53842       -149.71        
709.6600      0.90158       -105.78       1.127E-3      96.65         1.106E-3      99.16         0.53775       -149.99        
712.6500      0.89921       -105.54       1.091E-3      92.52         1.173E-3      87.01         0.53727       -150.32        
715.6400      0.89685       -105.35       1.005E-3      85.48         1.079E-3      87.86         0.53691       -150.66        
718.6300      0.89432       -105.15       1.044E-3      80.75         1.017E-3      78.68         0.53694       -151.01        
721.6200      0.89175       -104.95       1.035E-3      75.46         1.04E-3       81.02         0.53749       -151.38        
724.6100      0.88883       -104.73       1.033E-3      72.07         1.066E-3      73.35         0.53855       -151.69        
727.6000      0.88577       -104.47       9.153E-4      71.30         1.011E-3      71.26         0.53998       -151.99        
730.5900      0.88223       -104.19       9.982E-4      68.35         9.638E-4      72.54         0.54153       -152.22        
733.5800      0.87843       -103.88       9.691E-4      66.18         9.873E-4      68.09         0.54338       -152.43        
736.5700      0.87411       -103.55       9.826E-4      61.60         9.289E-4      67.45         0.54522       -152.56        
739.5600      0.86936       -103.20       1.01E-3       55.91         9.88E-4       61.25         0.54694       -152.66        
742.5500      0.86456       -102.86       9.701E-4      54.14         9.782E-4      53.81         0.54849       -152.71        
745.5400      0.85967       -102.53       1.013E-3      50.38         9.871E-4      49.36         0.54984       -152.73        
748.5300      0.85482       -102.22       9.815E-4      44.44         1.017E-3      46.33         0.55093       -152.73        
751.5200      0.85057       -101.93       1.01E-3       42.26         9.677E-4      39.63         0.55178       -152.70        
754.5100      0.84577       -101.66       1.039E-3      42.24         9.365E-4      42.04         0.55222       -152.67        
757.5000      0.84029       -101.45       1.008E-3      34.15         9.307E-4      35.68         0.55231       -152.65        
760.4900      0.8338        -101.20       1.004E-3      33.03         9.841E-4      28.62         0.55185       -152.64        
763.4800      0.82782       -100.92       1.032E-3      26.08         1.015E-3      32.18         0.55123       -152.66        
766.4700      0.82225       -100.67       1.038E-3      21.93         1.04E-3       26.02         0.55013       -152.73        
769.4600      0.81686       -100.46       9.291E-4      18.34         1.008E-3      17.18         0.54874       -152.86        
772.4500      0.81173       -100.27       9.629E-4      17.32         1.047E-3      21.25         0.54733       -153.04        
775.4400      0.80663       -100.08       9.358E-4      11.36         1.028E-3      16.38         0.546         -153.30        
778.4300      0.80148       -99.90        9.717E-4      12.36         9.993E-4      15.84         0.54481       -153.62        
781.4200      0.79615       -99.70        9.486E-4      7.60          9.154E-4      5.56          0.54411       -153.97        
784.4100      0.79033       -99.49        9.328E-4      5.97          8.647E-4      9.08          0.54381       -154.35        
787.4000      0.78409       -99.25        8.79E-4       5.98          8.992E-4      5.08          0.54377       -154.73        
790.3900      0.77698       -99.00        9.475E-4      6.37          9.296E-4      6.83          0.54401       -155.10        
793.3800      0.76957       -98.74        8.921E-4      1.77          7.875E-4      -1.02         0.54449       -155.47        
796.3700      0.7617        -98.45        9.23E-4       3.18          8.995E-4      -4.06         0.54547       -155.81        
799.3600      0.75378       -98.14        9.361E-4      2.16          9.662E-4      2.99          0.54666       -156.13        
802.3500      0.74539       -97.80        8.812E-4      -1.08         8.90E-4       -3.53         0.54814       -156.41        
805.3400      0.73684       -97.38        9.612E-4      0.58          1.042E-3      0.78          0.54988       -156.64        
808.3300      0.72803       -96.93        1.043E-3      -0.08         9.881E-4      -1.26         0.55189       -156.79        
811.3200      0.71875       -96.41        1.088E-3      -1.34         1.118E-3      0.50          0.55377       -156.91        
814.3100      0.70954       -95.85        1.177E-3      -5.25         1.199E-3      -4.84         0.55561       -156.94        
817.3000      0.70046       -95.28        1.218E-3      -6.55         1.212E-3      -5.92         0.557         -156.91        
820.2900      0.69165       -94.72        1.379E-3      -10.88        1.359E-3      -13.09        0.55791       -156.87        
823.2800      0.68292       -94.17        1.456E-3      -16.58        1.427E-3      -15.33        0.55831       -156.79        
826.2700      0.6745        -93.61        1.468E-3      -22.29        1.531E-3      -21.06        0.5583        -156.76        
829.2600      0.66604       -93.00        1.549E-3      -26.22        1.588E-3      -23.70        0.55797       -156.76        
832.2500      0.65787       -92.34        1.645E-3      -33.33        1.621E-3      -27.61        0.55739       -156.78        
835.2400      0.64989       -91.60        1.699E-3      -37.10        1.701E-3      -33.72        0.55653       -156.85        
838.2300      0.64205       -90.81        1.77E-3       -42.17        1.742E-3      -40.89        0.5555        -156.95        
841.2200      0.63499       -89.92        1.868E-3      -47.26        1.855E-3      -44.67        0.55438       -157.10        
844.2100      0.6284        -88.99        1.926E-3      -53.05        1.846E-3      -49.36        0.55333       -157.30        
847.2000      0.62259       -88.00        1.951E-3      -58.70        1.942E-3      -59.22        0.55197       -157.54        
850.1900      0.61769       -86.95        1.977E-3      -66.79        2.017E-3      -71.42        0.55074       -157.82        
853.1800      0.61441       -85.82        2.018E-3      -71.96        1.943E-3      -75.65        0.54964       -158.15        
856.1700      0.61292       -84.65        1.998E-3      -78.02        1.952E-3      -78.65        0.54875       -158.53        
859.1600      0.6131        -83.49        1.935E-3      -85.67        1.884E-3      -84.10        0.54838       -158.94        
862.1500      0.61476       -82.41        1.847E-3      -90.00        1.823E-3      -89.75        0.54861       -159.36        
865.1400      0.61683       -81.46        1.811E-3      -96.69        1.833E-3      -95.06        0.54935       -159.75        
868.1300      0.61913       -80.62        1.777E-3      -99.54        1.788E-3      -101.54       0.55068       -160.09        
871.1200      0.62108       -79.92        1.629E-3      -101.57       1.628E-3      -102.69       0.55239       -160.39        
874.1100      0.62261       -79.34        1.69E-3       -105.91       1.586E-3      -109.03       0.5542        -160.61        
877.1000      0.62364       -78.87        1.595E-3      -108.26       1.645E-3      -110.71       0.5558        -160.76        
880.0900      0.62424       -78.50        1.575E-3      -112.53       1.498E-3      -105.42       0.55726       -160.87        
883.0800      0.6241        -78.19        1.519E-3      -114.19       1.447E-3      -113.25       0.55864       -160.95        
886.0700      0.62336       -77.93        1.474E-3      -114.79       1.445E-3      -115.78       0.55989       -161.00        
889.0600      0.62197       -77.71        1.466E-3      -117.48       1.407E-3      -114.75       0.56108       -161.03        
892.0500      0.61979       -77.53        1.527E-3      -115.26       1.463E-3      -118.23       0.562         -161.02        
895.0400      0.61676       -77.40        1.483E-3      -118.37       1.443E-3      -119.06       0.56258       -160.99        
898.0300      0.61315       -77.32        1.613E-3      -122.17       1.601E-3      -121.01       0.56291       -160.92        
901.0200      0.60913       -77.25        1.584E-3      -123.19       1.564E-3      -120.11       0.56283       -160.87        
904.0100      0.6049        -77.19        1.724E-3      -126.38       1.664E-3      -127.60       0.56231       -160.84        
907.0000      0.60033       -77.12        1.771E-3      -129.48       1.831E-3      -124.97       0.56142       -160.83        
909.9900      0.5958        -77.01        1.907E-3      -128.74       1.853E-3      -130.11       0.56035       -160.87        
912.9800      0.5908        -76.86        2.03E-3       -131.32       2.044E-3      -130.49       0.55874       -160.97        
915.9700      0.58492       -76.67        2.163E-3      -139.12       2.076E-3      -138.92       0.55741       -161.14        
918.9600      0.57845       -76.40        2.313E-3      -144.47       2.288E-3      -143.47       0.55602       -161.38        
921.9500      0.57144       -75.98        2.393E-3      -151.59       2.408E-3      -148.70       0.55528       -161.67        
924.9400      0.56492       -75.41        2.418E-3      -156.78       2.476E-3      -157.80       0.55493       -161.97        
927.9300      0.56          -74.80        2.509E-3      -165.50       2.546E-3      -166.78       0.5549        -162.26        
930.9200      0.55536       -74.36        2.46E-3       -171.62       2.342E-3      -169.95       0.55505       -162.55        
933.9100      0.55009       -74.00        2.493E-3      -175.82       2.436E-3      -173.56       0.55548       -162.82        
936.9000      0.54357       -73.62        2.405E-3      179.62        2.392E-3      -179.58       0.55606       -163.08        
939.8900      0.53601       -73.19        2.572E-3      175.02        2.464E-3      177.55        0.55659       -163.32        
942.8800      0.52795       -72.70        2.511E-3      170.61        2.533E-3      170.10        0.55762       -163.55        
945.8700      0.51944       -72.18        2.564E-3      165.23        2.532E-3      163.96        0.55884       -163.74        
948.8600      0.51026       -71.64        2.519E-3      158.08        2.583E-3      157.79        0.56036       -163.90        
951.8500      0.501         -71.08        2.598E-3      153.89        2.554E-3      152.75        0.56199       -164.01        
954.8400      0.49149       -70.50        2.579E-3      147.01        2.634E-3      149.11        0.56345       -164.05        
957.8300      0.4819        -69.87        2.48E-3       140.54        2.641E-3      144.18        0.56459       -164.04        
960.8200      0.47234       -69.15        2.434E-3      135.54        2.373E-3      138.33        0.56536       -163.99        
963.8100      0.46272       -68.30        2.529E-3      130.92        2.515E-3      130.91        0.56568       -163.93        
966.8000      0.45377       -67.28        2.396E-3      126.04        2.489E-3      125.57        0.56572       -163.89        
969.7900      0.44606       -66.08        2.414E-3      117.98        2.50E-3       120.47        0.56534       -163.85        
972.7800      0.43953       -64.82        2.298E-3      113.67        2.417E-3      118.62        0.56429       -163.84        
975.7700      0.43378       -63.48        2.217E-3      110.61        2.173E-3      113.40        0.56313       -163.89        
978.7600      0.4289        -62.03        2.239E-3      104.17        2.191E-3      105.62        0.56174       -164.00        
981.7500      0.425         -60.49        2.095E-3      99.60         2.019E-3      99.91         0.56053       -164.15        
984.7400      0.42239       -58.90        1.922E-3      96.30         1.96E-3       97.78         0.55955       -164.32        
987.7300      0.42085       -57.25        1.867E-3      93.27         1.928E-3      93.29         0.55846       -164.52        
990.7200      0.42022       -55.60        1.905E-3      90.94         1.913E-3      92.92         0.55758       -164.74        
993.7100      0.42058       -53.98        1.846E-3      87.35         1.893E-3      89.49         0.55666       -165.02        
996.7000      0.42165       -52.38        1.701E-3      84.85         1.686E-3      87.34         0.55594       -165.32        
999.6900      0.42353       -50.85        1.715E-3      80.96         1.903E-3      84.16         0.55572       -165.63        
1002.6800     0.42616       -49.46        1.661E-3      78.12         1.634E-3      75.44         0.5558        -165.97        
1005.6700     0.42943       -48.21        1.706E-3      73.58         1.672E-3      72.86         0.55654       -166.31        
1008.6600     0.43299       -47.16        1.70E-3       72.13         1.65E-3       69.78         0.55734       -166.61        
1011.6500     0.43691       -46.32        1.60E-3       67.14         1.662E-3      67.60         0.55869       -166.90        
1014.6400     0.44057       -45.65        1.584E-3      69.48         1.60E-3       68.68         0.56013       -167.12        
1017.6300     0.44402       -45.18        1.596E-3      62.38         1.572E-3      68.30         0.56167       -167.27        
1020.6200     0.44676       -44.87        1.583E-3      66.36         1.566E-3      65.52         0.56298       -167.39        
1023.6100     0.44891       -44.67        1.677E-3      64.65         1.656E-3      67.01         0.5642        -167.46        
1026.6000     0.45067       -44.58        1.668E-3      65.81         1.634E-3      61.01         0.56527       -167.51        
1029.5900     0.45202       -44.59        1.764E-3      57.48         1.848E-3      60.33         0.56616       -167.53        
1032.5800     0.45232       -44.70        1.80E-3       53.97         1.749E-3      52.93         0.56652       -167.53        
1035.5700     0.45175       -44.88        1.869E-3      54.09         1.80E-3       52.52         0.5667        -167.54        
1038.5600     0.45013       -45.16        2.051E-3      51.09         1.957E-3      52.58         0.56671       -167.53        
1041.5500     0.44593       -45.62        1.96E-3       47.10         2.114E-3      44.44         0.56655       -167.56        
1044.5400     0.43611       -46.00        2.20E-3       40.50         2.263E-3      45.20         0.56639       -167.59        
1047.5300     0.42062       -45.13        2.201E-3      33.58         2.248E-3      31.73         0.56582       -167.62        
1050.5200     0.41609       -43.04        2.226E-3      28.24         2.267E-3      25.54         0.56531       -167.68        
1053.5100     0.41761       -42.02        2.159E-3      26.15         2.169E-3      26.82         0.56458       -167.79        
1056.5000     0.41615       -41.46        2.286E-3      19.39         2.191E-3      23.08         0.56397       -167.91        
1059.4900     0.41214       -40.89        2.221E-3      17.92         2.399E-3      19.91         0.56348       -168.05        
1062.4800     0.40705       -40.19        2.364E-3      13.77         2.303E-3      12.75         0.56328       -168.26        
1065.4700     0.40156       -39.37        2.398E-3      5.65          2.412E-3      7.19          0.56322       -168.44        
1068.4600     0.39566       -38.41        2.561E-3      1.61          2.428E-3      4.21          0.56378       -168.64        
1071.4500     0.39014       -37.38        2.534E-3      -6.28         2.68E-3       -3.24         0.56448       -168.82        
1074.4400     0.38491       -36.23        2.545E-3      -9.68         2.802E-3      -8.51         0.56532       -168.97        
1077.4300     0.38021       -35.03        2.608E-3      -17.03        2.587E-3      -17.45        0.5665        -169.08        
1080.4200     0.37633       -33.79        2.621E-3      -22.89        2.584E-3      -19.08        0.56757       -169.16        
1083.4100     0.37332       -32.52        2.60E-3       -27.85        2.587E-3      -25.84        0.5688        -169.20        
1086.4000     0.37154       -31.25        2.565E-3      -34.03        2.672E-3      -34.59        0.56995       -169.20        
1089.3900     0.3707        -30.07        2.656E-3      -39.19        2.794E-3      -39.29        0.57094       -169.18        
1092.3800     0.37039       -28.92        2.672E-3      -46.64        2.559E-3      -46.40        0.572         -169.14        
1095.3700     0.37056       -27.89        2.653E-3      -53.70        2.669E-3      -51.15        0.57252       -169.05        
1098.3600     0.3711        -26.84        2.629E-3      -58.21        2.723E-3      -55.74        0.5727        -168.96        
1101.3500     0.37185       -25.85        2.51E-3       -64.12        2.698E-3      -61.32        0.5727        -168.85        
1104.3400     0.37272       -24.90        2.573E-3      -69.43        2.666E-3      -65.52        0.57229       -168.77        
1107.3300     0.37356       -23.93        2.567E-3      -75.36        2.606E-3      -69.91        0.57146       -168.70        
1110.3200     0.37443       -22.98        2.706E-3      -79.72        2.571E-3      -78.86        0.57046       -168.64        
1113.3100     0.37522       -21.99        2.54E-3       -83.72        2.624E-3      -83.74        0.56893       -168.63        
1116.3000     0.37594       -21.03        2.571E-3      -92.26        2.531E-3      -90.38        0.56729       -168.70        
1119.2900     0.37663       -20.03        2.471E-3      -95.10        2.458E-3      -95.93        0.56567       -168.81        
1122.2800     0.3772        -19.05        2.504E-3      -102.18       2.526E-3      -100.27       0.5642        -168.96        
1125.2700     0.37759       -18.08        2.469E-3      -107.13       2.426E-3      -106.48       0.56266       -169.19        
1128.2600     0.37793       -17.08        2.475E-3      -111.99       2.389E-3      -112.13       0.56149       -169.46        
1131.2500     0.37818       -16.10        2.415E-3      -117.80       2.458E-3      -114.52       0.56065       -169.77        
1134.2400     0.37853       -15.13        2.354E-3      -122.49       2.486E-3      -119.76       0.56008       -170.09        
1137.2300     0.3792        -14.22        2.398E-3      -126.72       2.355E-3      -125.72       0.56003       -170.43        
1140.2200     0.37993       -13.33        2.314E-3      -131.35       2.474E-3      -130.10       0.56032       -170.76        
1143.2100     0.38072       -12.47        2.325E-3      -139.33       2.329E-3      -137.66       0.56091       -171.07        
1146.2000     0.382         -11.64        2.383E-3      -145.12       2.376E-3      -143.92       0.56222       -171.36        
1149.1900     0.38359       -10.89        2.353E-3      -149.26       2.35E-3       -148.89       0.5638        -171.62        
1152.1800     0.38538       -10.18        2.291E-3      -154.46       2.331E-3      -156.95       0.56556       -171.80        
1155.1700     0.38746       -9.51         2.265E-3      -158.55       2.217E-3      -158.47       0.56725       -171.92        
1158.1600     0.38967       -8.91         2.174E-3      -166.42       2.163E-3      -164.82       0.56867       -171.95        
1161.1500     0.39221       -8.36         2.194E-3      -170.60       2.174E-3      -169.55       0.57003       -171.95        
1164.1400     0.39474       -7.88         2.282E-3      -173.83       2.123E-3      -175.91       0.57112       -171.91        
1167.1300     0.39728       -7.41         2.094E-3      178.35        2.111E-3      173.29        0.57192       -171.84        
1170.1200     0.39943       -7.01         2.211E-3      171.28        2.118E-3      169.38        0.57243       -171.75        
1173.1100     0.40113       -6.58         2.089E-3      166.12        1.953E-3      167.12        0.57236       -171.64        
1176.1000     0.40282       -6.18         2.002E-3      160.42        2.037E-3      163.11        0.57183       -171.56        
1179.0900     0.40404       -5.75         1.916E-3      157.82        1.888E-3      155.85        0.57117       -171.48        
1182.0800     0.40501       -5.36         1.861E-3      150.02        1.926E-3      150.49        0.56984       -171.45        
1185.0700     0.40542       -4.95         1.873E-3      142.65        1.922E-3      145.81        0.56865       -171.46        
1188.0600     0.4057        -4.56         1.861E-3      140.44        1.807E-3      140.83        0.56676       -171.52        
1191.0500     0.40565       -4.18         1.791E-3      134.50        1.905E-3      132.42        0.56494       -171.66        
1194.0400     0.40519       -3.77         2.006E-3      128.38        1.765E-3      130.40        0.56336       -171.88        
1197.0300     0.40463       -3.36         1.79E-3       125.55        1.79E-3       123.26        0.56182       -172.15        
1200.0200     0.4037        -2.98         1.672E-3      119.14        1.774E-3      119.63        0.56059       -172.48        
1203.0100     0.40258       -2.64         1.715E-3      112.82        1.598E-3      111.41        0.5598        -172.83        
1206.0000     0.40134       -2.31         1.535E-3      104.83        1.626E-3      109.13        0.5597        -173.22        
1208.9900     0.39971       -2.04         1.591E-3      98.36         1.473E-3      100.11        0.5602        -173.61        
1211.9800     0.39759       -1.76         1.538E-3      95.35         1.456E-3      94.39         0.56114       -173.99        
1214.9700     0.39483       -1.49         1.405E-3      93.17         1.52E-3       92.06         0.56242       -174.29        
1217.9600     0.39191       -1.18         1.348E-3      82.55         1.30E-3       86.29         0.5642        -174.54        
1220.9500     0.3885        -0.79         1.305E-3      77.73         1.386E-3      84.03         0.56611       -174.73        
1223.9400     0.38484       -0.32         1.18E-3       74.13         1.275E-3      76.27         0.56816       -174.88        
1226.9300     0.38093       0.24          1.103E-3      72.07         1.084E-3      73.02         0.57042       -174.93        
1229.9200     0.37685       0.84          1.105E-3      65.36         1.037E-3      70.06         0.57266       -174.92        
1232.9100     0.3724        1.53          1.067E-3      60.52         1.136E-3      59.67         0.57465       -174.83        
1235.9000     0.36759       2.36          9.202E-4      56.35         9.24E-4       63.81         0.57606       -174.69        
1238.8900     0.36251       3.33          7.653E-4      58.79         8.794E-4      54.97         0.57704       -174.49        
1241.8800     0.35777       4.47          8.318E-4      51.50         8.749E-4      55.71         0.57777       -174.27        
1244.8700     0.35333       5.76          6.792E-4      53.11         7.271E-4      56.16         0.57778       -174.04        
1247.8600     0.34959       7.24          6.359E-4      58.78         7.177E-4      54.06         0.57709       -173.83        
1250.8500     0.34682       8.87          6.94E-4       61.50         6.439E-4      56.58         0.57587       -173.64        
1253.8400     0.34502       10.56         6.397E-4      65.65         7.37E-4       64.69         0.57405       -173.55        
1256.8300     0.34436       12.28         8.077E-4      64.73         7.165E-4      57.14         0.57203       -173.49        
1259.8200     0.34472       13.97         7.284E-4      63.11         7.172E-4      63.02         0.56976       -173.52        
1262.8100     0.34579       15.62         8.13E-4       61.93         8.064E-4      62.96         0.56748       -173.63        
1265.8000     0.3479        17.19         7.552E-4      62.05         8.402E-4      65.18         0.56535       -173.84        
1268.7900     0.35094       18.71         8.60E-4       54.41         8.277E-4      60.61         0.5636        -174.14        
1271.7800     0.35477       20.14         9.346E-4      62.04         9.521E-4      54.59         0.56239       -174.49        
1274.7700     0.35929       21.43         9.211E-4      53.80         8.888E-4      50.55         0.56164       -174.90        
1277.7600     0.36412       22.63         1.035E-3      47.21         1.017E-3      57.20         0.56129       -175.32        
1280.7500     0.36937       23.73         1.023E-3      44.09         9.836E-4      47.18         0.56138       -175.75        
1283.7400     0.37466       24.76         1.095E-3      46.27         1.103E-3      40.68         0.56213       -176.17        
1286.7300     0.38006       25.69         1.098E-3      44.16         1.144E-3      40.54         0.56377       -176.55        
1289.7200     0.38569       26.55         1.195E-3      33.27         1.126E-3      34.63         0.56577       -176.88        
1292.7100     0.39127       27.34         1.192E-3      28.57         1.162E-3      31.47         0.56803       -177.11        
1295.7000     0.39681       28.07         1.202E-3      24.61         1.25E-3       24.00         0.57041       -177.28        
1298.6900     0.40251       28.68         1.176E-3      21.85         1.312E-3      22.51         0.57273       -177.34        
1301.6800     0.40811       29.24         1.333E-3      18.76         1.324E-3      20.84         0.57504       -177.31        
1304.6700     0.41334       29.74         1.328E-3      11.98         1.341E-3      14.12         0.57673       -177.21        
1307.6600     0.41849       30.17         1.377E-3      8.09          1.451E-3      9.74          0.57805       -177.04        
1310.6500     0.42341       30.59         1.347E-3      4.88          1.401E-3      4.02          0.57886       -176.83        
1313.6400     0.4278        30.96         1.349E-3      -2.53         1.424E-3      0.08          0.57879       -176.63        
1316.6300     0.43246       31.27         1.406E-3      -6.49         1.503E-3      -4.76         0.5784        -176.41        
1319.6200     0.43692       31.52         1.399E-3      -10.62        1.504E-3      -11.54        0.57729       -176.21        
1322.6100     0.44112       31.70         1.458E-3      -17.10        1.464E-3      -15.45        0.57565       -176.05        
1325.6000     0.445         31.81         1.45E-3       -20.31        1.51E-3       -19.41        0.57362       -175.96        
1328.5900     0.44764       31.88         1.473E-3      -25.92        1.595E-3      -24.07        0.57151       -175.98        
1331.5800     0.44975       32.08         1.604E-3      -29.42        1.588E-3      -24.00        0.56926       -176.07        
1334.5700     0.45229       32.31         1.675E-3      -31.71        1.61E-3       -31.63        0.5671        -176.26        
1337.5600     0.45441       32.48         1.618E-3      -38.31        1.707E-3      -34.16        0.56489       -176.50        
1340.5500     0.45537       32.70         1.605E-3      -44.70        1.728E-3      -43.55        0.56318       -176.83        
1343.5400     0.45643       33.03         1.737E-3      -46.09        1.761E-3      -47.94        0.56208       -177.25        
1346.5300     0.45785       33.36         1.753E-3      -51.86        1.746E-3      -49.21        0.56151       -177.69        
1349.5200     0.45881       33.68         1.791E-3      -59.04        1.741E-3      -54.43        0.56178       -178.16        
1352.5100     0.45955       33.98         1.778E-3      -63.92        1.769E-3      -60.06        0.56274       -178.61        
1355.5000     0.45994       34.29         1.744E-3      -71.21        1.769E-3      -64.27        0.56427       -179.04        
1358.4900     0.46003       34.63         1.84E-3       -73.47        1.837E-3      -72.98        0.56628       -179.37        
1361.4800     0.45987       34.96         1.944E-3      -81.27        1.883E-3      -78.64        0.56869       -179.63        
1364.4700     0.4595        35.32         1.77E-3       -84.13        1.758E-3      -83.59        0.57122       -179.80        
1367.4600     0.45891       35.68         1.837E-3      -91.73        1.839E-3      -89.13        0.57367       -179.87        
1370.4500     0.45811       36.06         1.836E-3      -96.81        1.808E-3      -93.32        0.5758        -179.87        
1373.4400     0.45714       36.45         1.827E-3      -101.01       1.85E-3       -97.97        0.57765       -179.79        
1376.4300     0.45624       36.86         1.839E-3      -105.58       1.839E-3      -104.30       0.57902       -179.64        
1379.4200     0.45543       37.31         1.786E-3      -112.70       1.74E-3       -108.43       0.57986       -179.43        
1382.4100     0.45473       37.82         1.811E-3      -115.98       1.83E-3       -114.75       0.58004       -179.22        
1385.4000     0.45438       38.34         1.803E-3      -121.72       1.803E-3      -120.70       0.57967       -178.97        
1388.3900     0.45414       38.91         1.703E-3      -127.79       1.715E-3      -124.26       0.5787        -178.77        
1391.3800     0.45428       39.53         1.704E-3      -132.45       1.696E-3      -132.29       0.57722       -178.62        
1394.3700     0.45483       40.19         1.648E-3      -141.93       1.59E-3       -140.75       0.57523       -178.53        
1397.3600     0.45651       40.82         1.705E-3      -145.60       1.689E-3      -143.08       0.57295       -178.48        
1400.3500     0.45864       41.25         1.614E-3      -149.27       1.617E-3      -149.69       0.57049       -178.53        
1403.3400     0.459         41.50         1.598E-3      -156.84       1.562E-3      -155.79       0.56837       -178.67        
1406.3300     0.45728       41.85         1.496E-3      -164.13       1.445E-3      -158.99       0.56643       -178.91        
1409.3200     0.45409       42.38         1.407E-3      -168.72       1.335E-3      -163.68       0.56498       -179.21        
1412.3100     0.45113       43.24         1.348E-3      -168.45       1.331E-3      -170.48       0.56406       -179.60        
1415.3000     0.44988       44.20         1.309E-3      -174.91       1.302E-3      -174.00       0.56381       179.98         
1418.2900     0.4492        45.13         1.166E-3      179.65        1.232E-3      -179.66       0.56428       179.55         
1421.2800     0.4488        46.05         1.138E-3      174.68        1.162E-3      179.82        0.56525       179.16         
1424.2700     0.44869       46.98         1.063E-3      170.07        1.018E-3      173.25        0.56682       178.80         
1427.2600     0.44889       47.91         1.01E-3       171.19        9.774E-4      169.18        0.56881       178.50         
1430.2500     0.44992       48.82         9.904E-4      162.92        9.431E-4      162.94        0.57097       178.27         
1433.2400     0.45157       49.72         7.981E-4      165.05        8.098E-4      159.48        0.57314       178.12         
1436.2300     0.45362       50.58         7.855E-4      155.82        8.01E-4       160.57        0.57543       178.06         
1439.2200     0.45625       51.35         7.076E-4      163.80        7.536E-4      155.47        0.5774        178.09         
1442.2100     0.45922       52.11         6.166E-4      156.52        5.897E-4      148.67        0.57903       178.20         
1445.2000     0.46261       52.80         5.905E-4      158.09        6.227E-4      160.37        0.58004       178.37         
1448.1900     0.46593       53.47         5.691E-4      150.09        5.154E-4      155.05        0.5806        178.58         
1451.1800     0.46943       54.13         4.601E-4      160.94        4.815E-4      157.31        0.58055       178.79         
1454.1700     0.47298       54.74         4.771E-4      159.65        4.341E-4      155.70        0.57978       179.00         
1457.1600     0.47674       55.36         3.887E-4      161.55        4.325E-4      162.69        0.57818       179.19         
1460.1500     0.48038       55.95         4.24E-4       167.15        5.258E-4      168.20        0.57618       179.33         
1463.1400     0.48419       56.52         3.857E-4      178.79        4.279E-4      165.10        0.57409       179.41         
1466.1300     0.48746       57.06         4.434E-4      -179.19       4.563E-4      177.43        0.57175       179.38         
1469.1200     0.49064       57.60         4.674E-4      176.52        4.877E-4      -173.87       0.56956       179.26         
1472.1100     0.49388       58.13         4.164E-4      -170.27       4.848E-4      -177.11       0.56739       179.05         
1475.1000     0.49659       58.59         5.658E-4      -175.33       5.401E-4      -174.39       0.56567       178.75         
1478.0900     0.49903       59.02         5.594E-4      -170.80       6.092E-4      -171.60       0.56423       178.37         
1481.0800     0.50119       59.42         6.425E-4      -172.49       6.366E-4      -178.03       0.56334       177.97         
1484.0700     0.50321       59.80         6.564E-4      -175.28       6.881E-4      -173.18       0.56315       177.52         
1487.0600     0.50502       60.16         7.068E-4      -173.93       7.956E-4      -176.75       0.56369       177.06         
1490.0500     0.50669       60.47         8.228E-4      -177.27       8.247E-4      177.09        0.56486       176.60         
1493.0400     0.50832       60.77         8.129E-4      179.74        8.40E-4       176.83        0.56658       176.20         
1496.0300     0.50967       61.02         9.059E-4      172.55        8.997E-4      172.54        0.56872       175.86         
1499.0200     0.51083       61.25         8.868E-4      175.99        9.90E-4       170.31        0.57112       175.57         
1502.0100     0.51188       61.51         9.956E-4      165.00        1.048E-3      163.36        0.57322       175.48         
1505.0000     0.51285       61.77         1.011E-3      167.58        1.053E-3      160.06        0.57556       175.41         
1507.9900     0.51376       62.04         1.062E-3      155.87        1.038E-3      155.65        0.57773       175.43         
1510.9800     0.51444       62.32         1.146E-3      156.95        1.12E-3       154.81        0.57949       175.54         
1513.9700     0.51485       62.64         1.148E-3      152.00        1.14E-3       145.31        0.58063       175.72         
1516.9600     0.51506       63.01         1.152E-3      143.97        1.152E-3      143.48        0.58113       175.95         
1519.9500     0.51518       63.40         1.171E-3      143.53        1.224E-3      142.53        0.58099       176.22         
1522.9400     0.51509       63.83         1.301E-3      139.36        1.265E-3      137.89        0.58062       176.46         
1525.9300     0.51484       64.30         1.216E-3      132.87        1.334E-3      134.80        0.57952       176.69         
1528.9200     0.51402       64.76         1.241E-3      133.12        1.228E-3      129.37        0.57808       176.89         
1531.9100     0.51312       65.26         1.327E-3      128.70        1.299E-3      126.86        0.57603       177.01         
1534.9000     0.51196       65.79         1.334E-3      123.94        1.404E-3      122.01        0.57389       177.04         
1537.8900     0.51084       66.34         1.335E-3      115.91        1.379E-3      117.78        0.57157       177.01         
1540.8800     0.50991       66.88         1.453E-3      112.29        1.448E-3      115.95        0.56952       176.87         
1543.8700     0.50924       67.47         1.427E-3      108.89        1.414E-3      108.53        0.56773       176.66         
1546.8600     0.50881       68.03         1.373E-3      105.99        1.409E-3      105.04        0.56647       176.35         
1549.8500     0.50871       68.57         1.412E-3      102.14        1.453E-3      100.91        0.56558       175.97         
1552.8400     0.50887       69.07         1.501E-3      98.90         1.497E-3      97.02         0.56533       175.57         
1555.8300     0.50905       69.57         1.468E-3      92.05         1.536E-3      91.68         0.56551       175.15         
1558.8200     0.50966       70.04         1.473E-3      90.06         1.54E-3       88.37         0.56634       174.75         
1561.8100     0.5104        70.49         1.55E-3       82.80         1.549E-3      83.29         0.56756       174.39         
1564.8000     0.51153       70.93         1.526E-3      80.22         1.546E-3      80.87         0.5692        174.08         
1567.7900     0.51269       71.34         1.536E-3      78.95         1.519E-3      77.11         0.5712        173.83         
1570.7800     0.51378       71.75         1.488E-3      71.13         1.589E-3      71.18         0.57306       173.66         
1573.7700     0.51472       72.14         1.477E-3      71.21         1.508E-3      70.78         0.57504       173.56         
1576.7600     0.51552       72.57         1.478E-3      67.44         1.52E-3       65.27         0.57659       173.57         
1579.7500     0.51615       73.04         1.511E-3      62.46         1.531E-3      60.58         0.57796       173.65         
1582.7400     0.51655       73.49         1.486E-3      57.38         1.494E-3      57.35         0.57892       173.78         
1585.7300     0.51662       73.94         1.48E-3       52.44         1.581E-3      54.47         0.57956       173.97         
1588.7200     0.51638       74.38         1.517E-3      48.98         1.483E-3      51.02         0.57949       174.18         
1591.7100     0.51565       74.79         1.567E-3      43.32         1.49E-3       45.61         0.57917       174.39         
1594.7000     0.51448       75.21         1.453E-3      43.44         1.427E-3      43.76         0.57794       174.58         
1597.6900     0.5133        75.63         1.514E-3      36.20         1.462E-3      39.21         0.57653       174.73         
1600.6800     0.51183       76.04         1.546E-3      28.60         1.454E-3      33.32         0.57476       174.84         
1603.6700     0.51012       76.44         1.585E-3      26.20         1.461E-3      30.05         0.57291       174.88         
1606.6600     0.50837       76.82         1.454E-3      28.01         1.40E-3       24.50         0.57106       174.82         
1609.6500     0.50638       77.18         1.386E-3      18.49         1.391E-3      24.43         0.56922       174.69         
1612.6400     0.50438       77.53         1.353E-3      16.76         1.385E-3      21.02         0.56769       174.47         
1615.6300     0.50263       77.88         1.264E-3      13.00         1.279E-3      16.42         0.56643       174.19         
1618.6200     0.50066       78.24         1.31E-3       13.22         1.307E-3      14.79         0.56542       173.87         
1621.6100     0.49882       78.58         1.302E-3      11.91         1.288E-3      16.40         0.56497       173.52         
1624.6000     0.49699       78.94         1.242E-3      10.57         1.162E-3      12.40         0.56503       173.13         
1627.5900     0.49521       79.32         1.177E-3      13.25         1.166E-3      12.03         0.56567       172.76         
1630.5800     0.49355       79.72         1.128E-3      10.01         1.189E-3      13.50         0.56683       172.43         
1633.5700     0.4919        80.17         1.185E-3      4.17          1.128E-3      7.54          0.56808       172.14         
1636.5600     0.49025       80.62         1.098E-3      4.33          1.134E-3      9.29          0.56969       171.92         
1639.5500     0.4884        81.08         1.095E-3      7.78          1.171E-3      6.35          0.57129       171.78         
1642.5400     0.48612       81.53         1.16E-3       5.01          1.055E-3      2.91          0.57309       171.72         
1645.5300     0.48334       82.00         1.20E-3       3.03          1.169E-3      2.02          0.57482       171.72         
1648.5200     0.48011       82.47         1.241E-3      0.45          1.17E-3       2.12          0.57599       171.82         
1651.5100     0.47635       82.97         1.325E-3      0.93          1.211E-3      -0.72         0.57677       171.96         
1654.5000     0.47221       83.45         1.249E-3      -0.98         1.169E-3      -1.95         0.57698       172.14         
1657.4900     0.46799       83.97         1.351E-3      -0.45         1.256E-3      -1.52         0.57693       172.36         
1660.4800     0.46348       84.46         1.38E-3       -9.19         1.297E-3      -7.50         0.57629       172.59         
1663.4700     0.45872       84.92         1.359E-3      -7.91         1.345E-3      -10.81        0.57522       172.79         
1666.4600     0.45373       85.39         1.425E-3      -10.48        1.387E-3      -13.60        0.57383       172.95         
1669.4500     0.44855       85.85         1.482E-3      -12.88        1.452E-3      -12.83        0.57212       173.05         
1672.4400     0.44336       86.34         1.503E-3      -16.30        1.444E-3      -15.27        0.57021       173.07         
1675.4300     0.43837       86.85         1.56E-3       -20.03        1.54E-3       -19.20        0.56793       173.02         
1678.4200     0.43361       87.36         1.532E-3      -22.85        1.533E-3      -22.46        0.56573       172.91         
1681.4100     0.42884       87.89         1.639E-3      -27.74        1.595E-3      -25.66        0.5638        172.69         
1684.4000     0.42429       88.42         1.679E-3      -29.31        1.691E-3      -29.10        0.5623        172.39         
1687.3900     0.41936       88.99         1.68E-3       -35.17        1.636E-3      -32.04        0.56108       172.04         
1690.3800     0.41404       89.58         1.758E-3      -35.56        1.732E-3      -36.20        0.56043       171.62         
1693.3700     0.40798       90.22         1.781E-3      -40.94        1.755E-3      -39.86        0.56028       171.19         
1696.3600     0.4006        91.01         1.744E-3      -44.75        1.793E-3      -43.94        0.5606        170.76         
1699.3500     0.39159       92.10         1.815E-3      -46.93        1.77E-3       -48.21        0.56159       170.35         
1702.3400     0.38156       93.75         1.81E-3       -53.48        1.818E-3      -51.85        0.56307       169.99         
1705.3300     0.37326       96.17         1.861E-3      -58.10        1.857E-3      -54.11        0.56484       169.70         
1708.3200     0.37032       99.09         1.867E-3      -57.75        1.872E-3      -60.07        0.56677       169.50         
1711.3100     0.37344       101.78        1.986E-3      -65.58        1.989E-3      -62.09        0.56877       169.39         
1714.3000     0.37959       103.76        1.969E-3      -66.88        2.001E-3      -67.18        0.5708        169.36         
1717.2900     0.38563       105.15        2.04E-3       -73.11        1.939E-3      -71.64        0.57254       169.43         
1720.2800     0.3904        106.13        2.046E-3      -75.21        2.064E-3      -73.37        0.57404       169.59         
1723.2700     0.3938        106.88        1.995E-3      -81.03        2.076E-3      -80.32        0.5752        169.81         
1726.2600     0.39614       107.51        2.116E-3      -81.84        2.148E-3      -83.26        0.57588       170.08         
1729.2500     0.39781       108.07        2.124E-3      -84.77        2.114E-3      -88.38        0.57596       170.38         
1732.2400     0.39886       108.55        2.144E-3      -92.57        2.118E-3      -91.80        0.57555       170.68         
1735.2300     0.39954       108.97        2.061E-3      -97.19        2.151E-3      -96.90        0.57442       170.95         
1738.2200     0.4001        109.37        2.103E-3      -99.22        2.108E-3      -100.99       0.57293       171.20         
1741.2100     0.40064       109.74        2.158E-3      -104.50       2.096E-3      -104.92       0.57087       171.41         
1744.2000     0.40117       110.10        2.141E-3      -107.08       2.113E-3      -107.84       0.56858       171.51         
1747.1900     0.40159       110.46        2.142E-3      -113.00       2.086E-3      -110.77       0.56632       171.51         
1750.1800     0.40195       110.83        2.137E-3      -118.99       2.103E-3      -116.23       0.56389       171.42         
1753.1700     0.40229       111.24        2.10E-3       -122.17       2.105E-3      -117.34       0.56163       171.25         
1756.1600     0.40244       111.69        2.181E-3      -122.59       2.17E-3       -124.97       0.55956       171.00         
1759.1500     0.40237       112.20        2.119E-3      -128.61       2.186E-3      -127.55       0.55797       170.67         
1762.1400     0.40219       112.77        2.138E-3      -132.55       2.224E-3      -132.35       0.55666       170.27         
1765.1300     0.40207       113.34        2.162E-3      -134.70       2.152E-3      -133.86       0.55621       169.83         
1768.1200     0.4018        113.85        2.182E-3      -140.90       2.15E-3       -140.81       0.55614       169.40         
1771.1100     0.40096       114.24        2.059E-3      -145.52       2.065E-3      -144.85       0.5565        168.97         
1774.1000     0.39862       114.57        2.13E-3       -150.26       2.063E-3      -149.49       0.55741       168.57         
1777.0900     0.39533       115.00        2.055E-3      -153.06       2.051E-3      -151.69       0.55888       168.24         
1780.0800     0.39178       115.38        1.968E-3      -157.16       2.039E-3      -154.89       0.56074       167.99         
1783.0700     0.38787       115.71        2.10E-3       -162.31       2.059E-3      -159.70       0.56269       167.84         
1786.0600     0.38362       115.99        1.991E-3      -164.74       2.081E-3      -165.57       0.56479       167.79         
1789.0500     0.37893       116.22        1.995E-3      -167.99       2.043E-3      -166.73       0.56674       167.79         
1792.0400     0.37397       116.38        1.951E-3      -174.29       2.045E-3      -173.57       0.56816       167.88         
1795.0300     0.36894       116.50        2.052E-3      -176.99       2.015E-3      -177.16       0.56916       168.03         
1798.0200     0.36401       116.59        1.989E-3      -179.83       1.935E-3      178.69        0.56971       168.23         
1801.0100     0.359         116.65        1.933E-3      176.23        1.952E-3      175.76        0.56959       168.47         
1804.0000     0.35401       116.72        1.942E-3      171.14        1.922E-3      170.64        0.56919       168.69         
1806.9900     0.34886       116.79        1.904E-3      166.49        1.898E-3      167.05        0.56838       168.89         
1809.9800     0.34366       116.88        1.825E-3      163.79        1.848E-3      166.55        0.5669        169.05         
1812.9700     0.3383        117.04        1.717E-3      158.47        1.845E-3      161.56        0.56513       169.16         
1815.9600     0.33273       117.25        1.807E-3      156.95        1.757E-3      158.84        0.56314       169.18         
1818.9500     0.32665       117.56        1.786E-3      153.88        1.727E-3      154.57        0.5609        169.13         
1821.9400     0.32024       117.95        1.708E-3      149.54        1.66E-3       150.12        0.55892       168.99         
1824.9300     0.31301       118.42        1.687E-3      149.04        1.688E-3      147.47        0.55707       168.76         
1827.9200     0.30526       118.99        1.604E-3      145.90        1.586E-3      144.30        0.55567       168.46         
1830.9100     0.29669       119.67        1.613E-3      140.42        1.486E-3      141.05        0.55466       168.11         
1833.9000     0.28762       120.44        1.544E-3      137.87        1.532E-3      140.00        0.55431       167.72         
1836.8900     0.27834       121.35        1.468E-3      132.68        1.497E-3      138.70        0.55452       167.33         
1839.8800     0.26886       122.34        1.412E-3      134.97        1.435E-3      132.79        0.55542       166.96         
1842.8700     0.259         123.31        1.392E-3      130.47        1.413E-3      130.17        0.55689       166.64         
1845.8600     0.24884       124.42        1.324E-3      127.87        1.391E-3      126.24        0.5588        166.38         
1848.8500     0.23857       125.51        1.338E-3      125.93        1.374E-3      125.61        0.56091       166.19         
1851.8400     0.22842       126.82        1.252E-3      124.41        1.333E-3      122.60        0.56329       166.12         
1854.8300     0.21869       128.22        1.24E-3       124.96        1.417E-3      122.41        0.56527       166.13         
1857.8200     0.2093        129.83        1.321E-3      119.32        1.335E-3      122.92        0.56718       166.23         
1860.8100     0.20057       131.59        1.334E-3      119.22        1.323E-3      118.07        0.56868       166.45         
1863.8000     0.19257       133.59        1.247E-3      117.40        1.303E-3      115.15        0.56988       166.70         
1866.7900     0.18517       135.79        1.258E-3      116.24        1.317E-3      114.09        0.57034       167.01         
1869.7800     0.17862       138.33        1.249E-3      113.82        1.243E-3      113.77        0.5701        167.34         
1872.7700     0.17314       141.12        1.275E-3      112.57        1.247E-3      113.83        0.5692        167.67         
1875.7600     0.16857       144.21        1.267E-3      110.57        1.29E-3       108.34        0.56761       167.96         
1878.7500     0.16493       147.60        1.221E-3      104.96        1.329E-3      105.53        0.56533       168.21         
1881.7400     0.16212       151.20        1.345E-3      102.28        1.217E-3      103.86        0.56271       168.36         
1884.7300     0.16035       155.00        1.298E-3      101.19        1.376E-3      105.95        0.55987       168.40         
1887.7200     0.15954       158.91        1.303E-3      99.60         1.328E-3      99.55         0.55688       168.33         
1890.7100     0.15946       162.81        1.312E-3      98.57         1.40E-3       97.60         0.55417       168.15         
1893.7000     0.16013       166.74        1.352E-3      95.92         1.389E-3      94.92         0.55164       167.86         
1896.6900     0.16146       170.64        1.357E-3      91.28         1.413E-3      92.92         0.54943       167.49         
1899.6800     0.16383       174.31        1.396E-3      88.52         1.365E-3      89.04         0.54807       167.01         
1902.6700     0.16668       177.68        1.354E-3      87.48         1.358E-3      81.89         0.54743       166.50         
1905.6600     0.16984       -179.35       1.42E-3       84.32         1.457E-3      82.07         0.54779       165.95         
1908.6500     0.17309       -176.75       1.403E-3      81.54         1.436E-3      80.36         0.5489        165.44         
1911.6400     0.17603       -174.46       1.43E-3       77.59         1.392E-3      75.21         0.55075       164.95         
1914.6300     0.17878       -172.49       1.431E-3      70.20         1.417E-3      75.63         0.55329       164.57         
1917.6200     0.18128       -170.78       1.537E-3      71.42         1.435E-3      69.97         0.55609       164.31         
1920.6100     0.18353       -169.25       1.436E-3      63.55         1.532E-3      67.25         0.55933       164.19         
1923.6000     0.18571       -167.96       1.44E-3       66.13         1.511E-3      62.43         0.56232       164.17         
1926.5900     0.18754       -166.76       1.518E-3      58.00         1.429E-3      55.64         0.56499       164.30         
1929.5800     0.18948       -165.70       1.524E-3      53.09         1.442E-3      54.07         0.56718       164.53         
1932.5700     0.19106       -164.69       1.371E-3      51.81         1.482E-3      52.56         0.56864       164.85         
1935.5600     0.19249       -163.70       1.516E-3      49.12         1.517E-3      47.42         0.56943       165.22         
1938.5500     0.19366       -162.74       1.441E-3      45.25         1.466E-3      43.19         0.56937       165.64         
1941.5400     0.19465       -161.74       1.457E-3      40.08         1.438E-3      39.92         0.56836       166.06         
1944.5300     0.19544       -160.64       1.418E-3      33.87         1.447E-3      35.07         0.56683       166.43         
1947.5200     0.196         -159.41       1.45E-3       31.58         1.50E-3       31.30         0.56451       166.74         
1950.5100     0.1964        -158.10       1.413E-3      28.12         1.427E-3      30.40         0.56178       166.98         
1953.5000     0.19642       -156.69       1.36E-3       28.99         1.441E-3      24.04         0.5585        167.10         
1956.4900     0.19629       -155.16       1.429E-3      23.05         1.391E-3      24.43         0.55514       167.10         
1959.4800     0.19603       -153.57       1.358E-3      18.28         1.308E-3      19.20         0.55194       166.96         
1962.4700     0.1954        -151.87       1.305E-3      20.84         1.383E-3      21.32         0.54895       166.69         
1965.4600     0.19442       -150.18       1.446E-3      14.25         1.38E-3       16.98         0.54674       166.26         
1968.4500     0.1931        -148.45       1.405E-3      11.10         1.433E-3      16.40         0.54533       165.74         
1971.4400     0.19134       -146.71       1.409E-3      8.38          1.385E-3      7.39          0.54477       165.18         
1974.4300     0.18939       -144.94       1.283E-3      2.47          1.363E-3      1.99          0.54542       164.59         
1977.4200     0.18747       -143.12       1.338E-3      2.67          1.309E-3      5.40          0.54693       164.05         
1980.4100     0.18536       -141.25       1.39E-3       -3.06         1.313E-3      -3.70         0.54915       163.56         
1983.4000     0.18332       -139.31       1.395E-3      -7.69         1.277E-3      -6.41         0.55201       163.21         
1986.3900     0.1813        -137.36       1.314E-3      -15.34        1.265E-3      -7.26         0.55526       162.95         
1989.3800     0.17965       -135.28       1.312E-3      -10.92        1.322E-3      -14.21        0.55852       162.85         
1992.3700     0.17817       -133.15       1.359E-3      -16.30        1.361E-3      -15.34        0.5615        162.87         
1995.3600     0.17679       -130.95       1.251E-3      -17.86        1.292E-3      -19.47        0.56441       163.03         
1998.3500     0.17573       -128.65       1.307E-3      -22.65        1.254E-3      -25.79        0.56653       163.32         
2001.3400     0.17509       -126.16       1.323E-3      -26.65        1.324E-3      -27.89        0.56815       163.70         
2004.3300     0.17499       -123.54       1.221E-3      -27.78        1.296E-3      -31.63        0.56902       164.15         
2007.3200     0.17552       -120.79       1.233E-3      -34.05        1.315E-3      -36.69        0.5689        164.64         
2010.3100     0.17673       -117.93       1.225E-3      -37.49        1.294E-3      -36.57        0.56771       165.13         
2013.3000     0.17861       -114.96       1.278E-3      -42.24        1.202E-3      -43.31        0.56574       165.59         
2016.2900     0.18119       -111.94       1.331E-3      -44.62        1.286E-3      -43.22        0.56297       165.96         
2019.2800     0.1845        -108.95       1.244E-3      -45.98        1.35E-3       -47.42        0.55933       166.23         
2022.2700     0.1886        -105.97       1.175E-3      -53.70        1.181E-3      -49.03        0.55557       166.35         
2025.2600     0.19336       -103.08       1.223E-3      -54.42        1.134E-3      -53.97        0.55163       166.29         
2028.2500     0.19884       -100.24       1.166E-3      -58.98        1.251E-3      -58.19        0.54789       166.07         
2031.2400     0.20517       -97.68        1.115E-3      -63.47        1.173E-3      -60.12        0.54476       165.69         
2034.2300     0.21226       -95.33        1.174E-3      -64.56        1.175E-3      -62.54        0.54227       165.18         
2037.2200     0.21961       -93.31        1.216E-3      -65.24        1.176E-3      -67.52        0.54065       164.58         
2040.2100     0.22706       -91.50        1.066E-3      -67.58        1.208E-3      -67.53        0.54011       163.89         
2043.2000     0.23471       -89.85        1.091E-3      -78.71        1.21E-3       -78.18        0.54053       163.20         
2046.1900     0.24267       -88.37        1.152E-3      -77.01        1.063E-3      -79.66        0.54203       162.54         
2049.1800     0.25075       -87.14        1.046E-3      -79.40        1.045E-3      -79.82        0.54422       161.93         
2052.1700     0.25885       -86.08        1.031E-3      -85.62        1.041E-3      -83.99        0.54719       161.42         
2055.1600     0.26682       -85.20        1.076E-3      -91.44        1.112E-3      -89.63        0.5506        161.06         
2058.1500     0.27477       -84.42        1.062E-3      -92.95        1.039E-3      -86.95        0.55418       160.86         
2061.1400     0.28235       -83.69        1.016E-3      -96.01        1.051E-3      -93.47        0.55784       160.80         
2064.1300     0.29          -83.04        1.03E-3       -94.03        9.014E-4      -95.48        0.56137       160.91         
2067.1200     0.29735       -82.43        1.033E-3      -99.12        9.394E-4      -99.94        0.56405       161.17         
2070.1100     0.30458       -81.85        9.631E-4      -104.97       9.282E-4      -99.59        0.56601       161.53         
2073.1000     0.31166       -81.31        9.535E-4      -108.66       9.132E-4      -105.50       0.56707       161.97         
2076.0900     0.31861       -80.78        1.011E-3      -108.36       9.593E-4      -113.80       0.56714       162.50         
2079.0800     0.32527       -80.26        8.513E-4      -107.27       8.661E-4      -114.90       0.56623       162.98         
2082.0700     0.33166       -79.80        8.374E-4      -117.71       8.533E-4      -117.99       0.56445       163.42         
2085.0600     0.33768       -79.33        8.559E-4      -121.03       9.321E-4      -120.18       0.56187       163.80         
2088.0500     0.34328       -78.88        8.52E-4       -128.28       8.692E-4      -125.70       0.55892       164.05         
2091.0400     0.34853       -78.44        8.505E-4      -131.69       8.275E-4      -128.82       0.55552       164.17         
2094.0300     0.35371       -77.98        8.199E-4      -125.90       8.068E-4      -129.73       0.55233       164.15         
2097.0200     0.35876       -77.53        7.559E-4      -135.67       8.728E-4      -131.61       0.5493        163.99         
2100.0100     0.36365       -77.13        7.903E-4      -132.02       7.676E-4      -133.07       0.54655       163.66         
2103.0000     0.36841       -76.73        7.448E-4      -140.75       7.506E-4      -145.31       0.54456       163.21         
2105.9900     0.373         -76.38        7.681E-4      -143.80       7.179E-4      -141.50       0.54319       162.66         
2108.9800     0.37761       -76.01        6.546E-4      -149.48       6.194E-4      -150.00       0.54278       162.04         
2111.9700     0.38239       -75.64        7.036E-4      -143.96       7.493E-4      -142.58       0.54339       161.42         
2114.9600     0.38703       -75.30        7.192E-4      -155.78       6.512E-4      -154.92       0.54478       160.82         
2117.9500     0.39159       -74.92        6.983E-4      -154.33       5.949E-4      -160.36       0.54714       160.28         
2120.9400     0.39643       -74.52        6.902E-4      -161.06       6.809E-4      -161.99       0.55026       159.85         
2123.9300     0.40139       -74.14        6.541E-4      -163.10       5.772E-4      -160.33       0.55374       159.58         
2126.9200     0.40669       -73.77        5.558E-4      -166.28       6.628E-4      -167.06       0.55749       159.46         
2129.9100     0.41218       -73.49        5.674E-4      -164.63       4.797E-4      -161.26       0.56089       159.50         
2132.9000     0.41737       -73.31        4.367E-4      -166.19       5.68E-4       -164.79       0.56397       159.70         
2135.8900     0.42167       -73.25        5.354E-4      -162.70       5.869E-4      -164.99       0.56636       160.04         
2138.8800     0.42453       -73.19        5.524E-4      -148.67       4.761E-4      -164.38       0.56807       160.48         
2141.8700     0.4262        -73.06        5.632E-4      -169.28       6.272E-4      -168.57       0.56888       160.99         
2144.8600     0.42738       -72.87        5.322E-4      -175.60       5.986E-4      -166.14       0.56865       161.53         
2147.8500     0.42834       -72.61        5.402E-4      -175.68       4.664E-4      -167.03       0.56762       162.07         
2150.8400     0.42917       -72.35        5.00E-4       172.78        5.326E-4      -173.57       0.5659        162.57         
2153.8300     0.43008       -72.10        6.034E-4      -176.86       5.918E-4      -175.29       0.56345       163.01         
2156.8200     0.43092       -71.89        6.165E-4      -175.24       6.484E-4      177.49        0.56056       163.33         
2159.8100     0.43179       -71.66        5.554E-4      -169.64       5.675E-4      -179.35       0.55713       163.54         
2162.8000     0.43257       -71.45        4.459E-4      169.19        5.717E-4      -171.65       0.55348       163.59         
2165.7900     0.43349       -71.27        5.657E-4      175.89        5.325E-4      -175.63       0.54978       163.47         
2168.7800     0.43462       -71.07        4.856E-4      173.73        5.593E-4      172.98        0.54637       163.21         
2171.7700     0.43577       -70.89        4.631E-4      164.79        4.603E-4      178.14        0.54361       162.78         
2174.7600     0.43708       -70.68        4.84E-4       164.96        5.244E-4      176.87        0.54136       162.25         
2177.7500     0.43845       -70.47        4.152E-4      165.90        5.313E-4      168.27        0.54008       161.63         
2180.7400     0.43963       -70.23        4.257E-4      170.31        4.912E-4      176.48        0.53978       160.98         
2183.7300     0.44058       -69.98        5.445E-4      164.51        5.957E-4      167.14        0.54052       160.33         
2186.7200     0.44151       -69.69        5.253E-4      154.42        4.908E-4      158.34        0.54199       159.72         
2189.7100     0.44213       -69.36        5.562E-4      160.24        5.605E-4      159.38        0.54412       159.21         
2192.7000     0.44227       -68.97        4.303E-4      160.07        4.138E-4      156.36        0.54693       158.82         
2195.6900     0.44225       -68.60        4.752E-4      157.87        4.798E-4      166.66        0.54989       158.58         
2198.6800     0.44182       -68.18        4.691E-4      159.88        5.469E-4      144.86        0.55277       158.47         
2201.6700     0.4411        -67.76        4.507E-4      163.94        5.528E-4      151.86        0.55564       158.53         
2204.6600     0.43997       -67.36        4.934E-4      153.63        4.808E-4      142.60        0.55806       158.70         
2207.6500     0.43863       -66.99        4.604E-4      151.60        5.234E-4      147.30        0.55985       158.99         
2210.6400     0.43723       -66.66        6.192E-4      137.80        5.164E-4      150.34        0.56116       159.36         
2213.6300     0.43541       -66.34        4.946E-4      133.06        5.101E-4      139.27        0.56149       159.76         
2216.6200     0.43367       -66.06        4.913E-4      140.21        4.515E-4      132.01        0.56123       160.21         
2219.6100     0.43191       -65.84        5.795E-4      130.70        5.03E-4       144.42        0.56017       160.62         
2222.6000     0.43049       -65.64        4.774E-4      136.78        3.116E-4      130.14        0.55834       160.99         
2225.5900     0.4292        -65.45        4.85E-4       120.15        5.064E-4      129.70        0.55604       161.26         
2228.5800     0.42817       -65.28        3.285E-4      114.55        4.318E-4      135.74        0.5533        161.44         
2231.5700     0.42729       -65.10        5.074E-4      115.69        4.698E-4      128.66        0.55015       161.50         
2234.5600     0.42645       -64.89        4.426E-4      117.44        4.497E-4      117.15        0.54702       161.41         
2237.5500     0.42572       -64.67        4.339E-4      119.24        3.157E-4      109.71        0.54413       161.18         
2240.5400     0.42508       -64.38        4.302E-4      123.36        5.637E-4      110.59        0.54161       160.81         
2243.5300     0.42415       -64.06        5.161E-4      118.08        4.737E-4      109.05        0.53964       160.33         
2246.5200     0.42328       -63.71        5.621E-4      108.65        4.775E-4      108.06        0.53826       159.77         
2249.5100     0.42219       -63.28        5.141E-4      105.11        4.894E-4      102.58        0.53792       159.16         
2252.5000     0.42048       -62.85        4.993E-4      99.52         6.956E-4      105.86        0.53832       158.52         
2255.4900     0.41868       -62.38        4.862E-4      104.56        4.636E-4      98.19         0.5397        157.93         
2258.4800     0.4162        -61.90        5.196E-4      91.17         4.888E-4      100.49        0.54174       157.44         
2261.4700     0.41312       -61.41        4.644E-4      94.39         3.818E-4      94.19         0.54429       157.05         
2264.4600     0.40993       -60.95        4.387E-4      106.68        5.088E-4      91.62         0.54717       156.76         
2267.4500     0.40614       -60.48        3.789E-4      103.83        5.585E-4      85.24         0.5502        156.62         
2270.4400     0.40198       -60.06        4.309E-4      95.30         4.927E-4      86.08         0.55312       156.61         
2273.4300     0.39781       -59.67        4.076E-4      94.86         3.939E-4      78.04         0.55585       156.75         
2276.4200     0.39356       -59.34        4.33E-4       82.34         4.401E-4      95.27         0.55823       156.98         
2279.4100     0.38946       -59.04        4.507E-4      83.53         4.454E-4      82.87         0.56          157.31         
2282.4000     0.38557       -58.77        4.755E-4      88.77         4.081E-4      86.62         0.56125       157.70         
2285.3900     0.38213       -58.49        4.587E-4      81.16         5.361E-4      62.45         0.5616        158.16         
2288.3800     0.37866       -58.19        4.065E-4      71.05         4.745E-4      59.71         0.5613        158.64         
2291.3700     0.37555       -57.85        5.143E-4      77.58         4.964E-4      57.90         0.5601        159.07         
2294.3600     0.37296       -57.47        5.077E-4      73.73         4.382E-4      75.24         0.55846       159.46         
2297.3500     0.37047       -57.03        5.371E-4      74.01         4.257E-4      77.25         0.55583       159.76         
2300.3400     0.36833       -56.48        5.427E-4      67.31         5.703E-4      71.65         0.55306       159.94         
2303.3300     0.36618       -55.86        4.618E-4      69.46         5.454E-4      77.77         0.5499        160.00         
2306.3200     0.36438       -55.16        4.406E-4      58.09         5.123E-4      68.28         0.54672       159.92         
2309.3100     0.36233       -54.38        5.092E-4      57.62         5.35E-4       57.15         0.54359       159.69         
2312.3000     0.36033       -53.55        4.66E-4       63.82         6.101E-4      50.46         0.54101       159.34         
2315.2900     0.35821       -52.65        5.042E-4      49.86         5.322E-4      59.44         0.5391        158.89         
2318.2800     0.35588       -51.69        4.545E-4      46.64         4.73E-4       50.25         0.53787       158.36         
2321.2700     0.35356       -50.72        4.708E-4      46.92         5.775E-4      57.88         0.53726       157.79         
2324.2600     0.35117       -49.84        4.874E-4      41.38         3.904E-4      48.95         0.53761       157.23         
2327.2500     0.34885       -48.92        4.411E-4      52.39         4.857E-4      45.04         0.53854       156.67         
2330.2400     0.34686       -48.09        4.488E-4      50.60         4.082E-4      38.43         0.53996       156.19         
2333.2300     0.34519       -47.38        4.045E-4      23.16         5.027E-4      39.93         0.54234       155.79         
2336.2200     0.34376       -46.77        3.75E-4       38.95         5.241E-4      25.38         0.545         155.50         
2339.2100     0.34287       -46.25        4.642E-4      21.81         5.294E-4      45.09         0.54791       155.35         
2342.2000     0.34266       -45.82        3.569E-4      23.32         5.004E-4      34.24         0.55094       155.31         
2345.1900     0.34288       -45.49        4.883E-4      13.59         4.836E-4      6.13          0.55378       155.45         
2348.1800     0.34342       -45.21        4.421E-4      30.24         4.933E-4      15.28         0.55607       155.68         
2351.1700     0.34455       -45.01        4.551E-4      23.78         4.523E-4      27.00         0.55795       156.03         
2354.1600     0.34589       -44.85        6.072E-4      12.80         4.576E-4      18.64         0.55896       156.44         
2357.1500     0.34773       -44.71        4.717E-4      2.95          5.761E-4      21.90         0.55925       156.89         
2360.1400     0.34965       -44.62        5.54E-4       17.56         5.381E-4      24.09         0.55877       157.33         
2363.1300     0.35165       -44.55        5.335E-4      0.77          5.266E-4      20.45         0.55748       157.74         
2366.1200     0.35341       -44.49        3.786E-4      7.66          4.813E-4      13.26         0.55559       158.08         
2369.1100     0.35481       -44.46        5.624E-4      0.78          4.478E-4      11.12         0.55318       158.33         
2372.1000     0.35566       -44.41        5.342E-4      0.44          5.928E-4      2.29          0.5504        158.48         
2375.0900     0.35574       -44.37        4.621E-4      -7.45         6.582E-4      -4.77         0.5475        158.50         
2378.0800     0.35516       -44.34        5.643E-4      -9.39         4.97E-4       -12.03        0.54454       158.40         
2381.0700     0.35388       -44.36        5.269E-4      -9.02         6.726E-4      -15.71        0.54188       158.18         
2384.0600     0.35184       -44.48        4.938E-4      -7.11         6.845E-4      -17.47        0.5396        157.86         
2387.0500     0.34919       -44.64        5.659E-4      -11.47        5.293E-4      -20.92        0.53755       157.41         
2390.0400     0.3461        -44.93        5.735E-4      -19.95        4.866E-4      -19.81        0.53632       156.91         
2393.0300     0.34245       -45.32        5.541E-4      -22.22        5.37E-4       -31.80        0.53628       156.33         
2396.0200     0.33864       -45.74        5.943E-4      -20.35        6.086E-4      -36.70        0.53681       155.76         
2399.0100     0.33471       -46.20        6.717E-4      -30.05        5.792E-4      -40.31        0.53836       155.26         
2402.0000     0.3308        -46.71        6.477E-4      -31.75        6.366E-4      -24.47        0.54072       154.82         
2404.9900     0.32711       -47.26        5.468E-4      -49.33        4.79E-4       -48.91        0.54359       154.51         
2407.9800     0.32339       -47.83        6.836E-4      -49.85        5.803E-4      -30.43        0.54666       154.36         
2410.9700     0.31992       -48.36        4.249E-4      -40.73        5.97E-4       -44.04        0.54981       154.37         
2413.9600     0.31655       -48.87        6.544E-4      -52.65        6.122E-4      -34.43        0.55276       154.51         
2416.9500     0.31347       -49.33        6.013E-4      -53.89        6.49E-4       -51.39        0.55517       154.78         
2419.9400     0.31033       -49.73        5.559E-4      -53.34        6.317E-4      -55.62        0.55706       155.15         
2422.9300     0.30712       -50.07        5.937E-4      -63.01        6.654E-4      -67.39        0.55789       155.58         
2425.9200     0.30384       -50.32        6.924E-4      -65.26        4.849E-4      -60.62        0.55813       156.07         
2428.9100     0.30013       -50.51        7.028E-4      -67.59        6.323E-4      -55.86        0.55745       156.55         
2431.9000     0.29609       -50.67        6.644E-4      -64.35        6.751E-4      -56.12        0.55604       157.02         
2434.8900     0.29112       -50.81        6.914E-4      -74.53        6.279E-4      -72.20        0.55384       157.42         
2437.8800     0.28594       -50.96        5.814E-4      -80.64        7.62E-4       -72.78        0.55097       157.74         
2440.8700     0.28016       -51.19        6.333E-4      -83.32        7.075E-4      -80.79        0.54757       157.93         
2443.8600     0.27406       -51.44        6.066E-4      -89.24        6.39E-4       -83.98        0.54385       157.97         
2446.8500     0.26743       -51.77        6.513E-4      -85.18        7.542E-4      -98.77        0.54008       157.85         
2449.8400     0.26079       -52.15        7.632E-4      -86.76        7.379E-4      -91.80        0.53629       157.56         
2452.8300     0.25399       -52.67        6.971E-4      -98.56        7.338E-4      -97.41        0.53312       157.10         
2455.8200     0.24724       -53.30        6.511E-4      -102.44       6.761E-4      -95.62        0.53074       156.49         
2458.8100     0.24069       -53.98        6.431E-4      -109.59       6.915E-4      -92.29        0.52915       155.79         
2461.8000     0.23437       -54.68        6.889E-4      -107.62       6.927E-4      -109.91       0.52901       155.06         
2464.7900     0.22829       -55.45        8.031E-4      -108.60       7.991E-4      -105.41       0.52981       154.31         
2467.7800     0.2225        -56.17        6.936E-4      -111.27       7.729E-4      -114.06       0.5316        153.64         
2470.7700     0.21707       -56.87        7.903E-4      -126.08       7.254E-4      -117.83       0.53427       153.06         
2473.7600     0.2117        -57.49        7.544E-4      -119.43       6.582E-4      -123.84       0.53702       152.67         
2476.7500     0.20651       -57.98        6.29E-4       -116.67       5.80E-4       -119.71       0.54078       152.38         
2479.7400     0.20129       -58.28        7.878E-4      -124.36       7.22E-4       -130.98       0.54443       152.27         
2482.7300     0.19595       -58.48        7.063E-4      -138.48       8.173E-4      -136.92       0.54814       152.31         
2485.7200     0.19033       -58.47        7.501E-4      -136.93       7.131E-4      -136.02       0.55138       152.50         
2488.7100     0.1841        -58.49        7.655E-4      -136.58       6.859E-4      -138.42       0.55414       152.81         
2491.7000     0.17688       -58.35        7.006E-4      -147.25       6.941E-4      -144.86       0.55621       153.27         
2494.6900     0.16887       -58.05        7.32E-4       -151.28       7.393E-4      -145.73       0.55738       153.79         
2497.6800     0.15994       -57.49        7.028E-4      -158.91       7.132E-4      -154.78       0.55763       154.36         
2500.6700     0.15082       -56.56        6.784E-4      -164.34       8.012E-4      -156.43       0.55697       154.93         
2503.6600     0.14213       -55.43        6.581E-4      -146.86       6.668E-4      -156.39       0.55533       155.45         
2506.6500     0.13361       -54.20        7.902E-4      -170.07       6.952E-4      -160.07       0.55277       155.87         
2509.6400     0.12549       -52.77        7.624E-4      -168.53       8.334E-4      -170.77       0.54945       156.18         
2512.6300     0.11795       -51.19        6.792E-4      -176.85       8.013E-4      -174.59       0.54569       156.34         
2515.6200     0.11117       -49.52        8.16E-4       -172.63       7.79E-4       -171.63       0.5418        156.30         
2518.6100     0.10526       -47.60        8.159E-4      -175.75       8.657E-4      -175.75       0.538         156.09         
2521.6000     0.1004        -45.49        8.631E-4      177.72        7.212E-4      -178.39       0.53472       155.72         
2524.5900     0.09668       -43.18        6.846E-4      171.26        7.706E-4      170.34        0.532         155.18         
2527.5800     0.09422       -40.52        7.223E-4      158.85        7.941E-4      165.56        0.53023       154.57         
2530.5700     0.09311       -37.54        8.303E-4      161.55        8.022E-4      165.67        0.52948       153.87         
2533.5600     0.09329       -34.44        7.016E-4      165.91        7.947E-4      163.96        0.52993       153.17         
2536.5500     0.09475       -31.27        7.412E-4      158.46        7.757E-4      163.67        0.53146       152.51         
2539.5400     0.09729       -28.13        8.59E-4       157.64        8.348E-4      152.48        0.53366       151.92         
2542.5300     0.10054       -25.06        8.604E-4      148.35        7.092E-4      146.69        0.53674       151.47         
2545.5200     0.1042        -22.15        8.271E-4      139.40        7.739E-4      153.88        0.54026       151.15         
2548.5100     0.10837       -19.45        8.276E-4      140.57        8.033E-4      137.92        0.54407       151.02         
2551.5000     0.11285       -17.04        8.709E-4      137.91        7.534E-4      129.99        0.54782       151.06         
2554.4900     0.11737       -14.94        7.592E-4      130.06        7.707E-4      124.88        0.55126       151.28         
2557.4800     0.12157       -13.29        8.733E-4      125.88        7.968E-4      128.17        0.55413       151.64         
2560.4700     0.12535       -12.14        8.553E-4      121.51        8.614E-4      125.63        0.55628       152.14         
2563.4600     0.12873       -11.41        8.12E-4       122.39        8.523E-4      115.71        0.55737       152.70         
2566.4500     0.13146       -11.11        7.914E-4      111.62        8.818E-4      117.78        0.55729       153.31         
2569.4400     0.13368       -11.42        8.746E-4      110.44        8.092E-4      106.89        0.55617       153.89         
2572.4300     0.13546       -12.07        7.528E-4      103.69        7.472E-4      104.44        0.55396       154.42         
2575.4200     0.13704       -13.16        8.247E-4      90.85         8.019E-4      101.03        0.55097       154.82         
2578.4100     0.13848       -14.64        7.509E-4      97.80         7.993E-4      95.53         0.54738       155.09         
2581.4000     0.14          -16.43        8.029E-4      90.72         8.319E-4      89.87         0.54319       155.19         
2584.3900     0.14186       -18.45        8.004E-4      96.46         7.626E-4      88.11         0.53942       155.13         
2587.3800     0.14385       -20.53        7.621E-4      83.02         7.673E-4      86.50         0.5354        154.85         
2590.3700     0.14632       -22.62        7.702E-4      78.40         8.015E-4      82.29         0.53197       154.45         
2593.3600     0.14874       -24.69        8.265E-4      75.94         7.612E-4      76.74         0.52949       153.87         
2596.3500     0.15141       -26.57        7.894E-4      69.26         7.624E-4      73.36         0.52792       153.19         
2599.3400     0.15379       -28.35        8.38E-4       70.46         7.429E-4      62.53         0.52764       152.46         
2602.3300     0.15575       -29.82        7.285E-4      55.36         7.609E-4      64.89         0.52831       151.73         
2605.3200     0.15712       -31.23        7.40E-4       60.97         7.375E-4      61.83         0.53011       151.05         
2608.3100     0.15793       -32.46        7.07E-4       49.82         9.67E-4       55.15         0.53291       150.48         
2611.3000     0.15799       -33.70        7.534E-4      46.74         8.582E-4      44.46         0.53653       150.06         
2614.2900     0.15713       -34.93        7.249E-4      43.56         6.918E-4      44.07         0.54067       149.83         
2617.2800     0.15545       -36.18        6.991E-4      41.07         6.741E-4      39.22         0.54471       149.77         
2620.2700     0.1532        -37.65        7.708E-4      30.43         6.713E-4      30.59         0.54876       149.91         
2623.2600     0.1503        -39.29        7.137E-4      30.32         7.722E-4      22.82         0.55229       150.23         
2626.2500     0.14683       -41.19        6.626E-4      26.35         7.521E-4      27.94         0.5551        150.69         
2629.2400     0.14314       -43.38        7.051E-4      18.65         7.466E-4      20.95         0.55685       151.26         
2632.2300     0.13948       -45.77        7.098E-4      14.57         6.758E-4      20.75         0.55755       151.87         
2635.2200     0.13571       -48.32        6.733E-4      10.92         7.711E-4      6.14          0.55706       152.54         
2638.2100     0.13257       -51.06        7.001E-4      2.93          6.875E-4      11.25         0.55549       153.15         
2641.2000     0.12979       -53.85        6.342E-4      2.08          7.079E-4      6.72          0.55279       153.69         
2644.1900     0.12736       -56.64        6.601E-4      -1.52         6.302E-4      -3.41         0.54955       154.10         
2647.1800     0.12544       -59.30        6.878E-4      -7.17         6.571E-4      2.01          0.54549       154.37         
2650.1700     0.12351       -61.85        6.739E-4      -13.20        6.453E-4      -1.68         0.54125       154.48         
2653.1600     0.12156       -64.12        6.524E-4      -15.93        6.792E-4      -18.31        0.53681       154.37         
2656.1500     0.11914       -66.04        6.347E-4      -23.60        5.432E-4      -19.62        0.53271       154.10         
2659.1400     0.11643       -67.84        5.786E-4      -13.82        6.005E-4      -22.15        0.52909       153.63         
2662.1300     0.11314       -69.35        5.347E-4      -23.00        6.074E-4      -29.66        0.52643       153.03         
2665.1200     0.10914       -70.68        5.868E-4      -42.46        6.838E-4      -36.99        0.52458       152.32         
2668.1100     0.10453       -71.94        5.719E-4      -27.30        6.422E-4      -38.42        0.52408       151.56         
2671.1000     0.09922       -73.18        5.994E-4      -43.89        5.861E-4      -33.68        0.5246        150.79         
2674.0900     0.09349       -74.46        5.486E-4      -40.51        5.702E-4      -34.00        0.52644       150.09         
2677.0800     0.08735       -75.98        5.83E-4       -55.88        5.625E-4      -48.26        0.52919       149.52         
2680.0700     0.08079       -77.79        6.105E-4      -51.56        5.965E-4      -53.49        0.53278       149.08         
2683.0600     0.07416       -79.90        5.085E-4      -56.55        5.673E-4      -47.45        0.53676       148.85         
2686.0500     0.06806       -82.59        4.691E-4      -56.31        4.626E-4      -47.46        0.5408        148.79         
2689.0400     0.06224       -85.66        5.144E-4      -63.72        4.485E-4      -59.03        0.54446       148.92         
2692.0300     0.05662       -89.31        3.648E-4      -57.71        5.572E-4      -70.58        0.54757       149.21         
2695.0200     0.0518        -93.40        4.767E-4      -80.51        5.54E-4       -77.06        0.54982       149.64         
2698.0100     0.04749       -97.63        4.441E-4      -72.33        4.137E-4      -67.56        0.55105       150.15         
2701.0000     0.04359       -102.43       4.006E-4      -73.64        5.137E-4      -87.64        0.55105       150.71         
2703.9900     0.04005       -107.00       4.012E-4      -88.60        4.228E-4      -85.58        0.5505        151.26         
2706.9800     0.03651       -111.77       4.749E-4      -84.25        4.378E-4      -76.88        0.54874       151.77         
2709.9700     0.03282       -116.54       3.464E-4      -84.86        4.09E-4       -87.30        0.54611       152.19         
2712.9600     0.02892       -121.40       3.159E-4      -120.31       4.013E-4      -76.32        0.5428        152.50         
2715.9500     0.02479       -126.94       3.929E-4      -81.41        3.556E-4      -76.74        0.53885       152.66         
2718.9400     0.02026       -134.57       3.702E-4      -97.96        3.323E-4      -78.69        0.53504       152.64         
2721.9300     0.01577       -146.12       2.801E-4      -92.69        3.017E-4      -99.57        0.53098       152.43         
2724.9200     0.01209       -165.89       2.623E-4      -96.11        3.749E-4      -98.02        0.52729       152.08         
2727.9100     0.01068       162.22        3.171E-4      -101.26       3.48E-4       -88.42        0.52441       151.52         
2730.9000     0.01284       131.69        3.094E-4      -90.00        2.834E-4      -104.12       0.52238       150.86         
2733.8900     0.01742       114.34        3.046E-4      -98.67        2.222E-4      -113.18       0.52141       150.11         
2736.8800     0.02322       105.53        3.392E-4      -89.45        3.21E-4       -110.72       0.52209       149.35         
2739.8700     0.02958       100.44        3.213E-4      -97.27        3.08E-4       -104.45       0.52375       148.63         
2742.8600     0.03589       96.99         3.021E-4      -114.27       2.584E-4      -98.08        0.5267        148.00         
2745.8500     0.04213       94.37         2.429E-4      -92.43        3.077E-4      -99.00        0.53038       147.54         
2748.8400     0.04807       92.29         2.573E-4      -115.13       2.712E-4      -135.18       0.53456       147.23         
2751.8300     0.05352       90.28         2.025E-4      -115.00       3.482E-4      -113.34       0.53894       147.12         
2754.8200     0.05845       88.56         2.755E-4      -120.01       2.736E-4      -114.51       0.54305       147.20         
2757.8100     0.06285       86.84         2.907E-4      -141.61       2.577E-4      -110.87       0.54691       147.47         
2760.8000     0.06745       85.13         2.32E-4       -138.41       2.295E-4      -127.40       0.55006       147.87         
2763.7900     0.07179       83.30         3.214E-4      -121.07       2.805E-4      -103.62       0.55236       148.40         
2766.7800     0.07588       81.23         1.456E-4      -126.53       3.146E-4      -131.17       0.55355       149.02         
2769.7700     0.08013       79.02         2.667E-4      -131.73       2.69E-4       -128.16       0.55383       149.66         
2772.7600     0.08437       76.65         2.152E-4      -143.61       2.016E-4      -135.45       0.55296       150.32         
2775.7500     0.08853       74.25         2.598E-4      -126.78       2.335E-4      -107.07       0.55097       150.95         
2778.7400     0.09294       72.01         3.165E-4      -126.06       2.057E-4      -125.14       0.54812       151.47         
2781.7300     0.09728       69.84         2.402E-4      -160.15       2.55E-4       -137.91       0.54432       151.88         
2784.7200     0.10168       68.01         2.474E-4      -129.53       1.874E-4      -131.16       0.53984       152.12         
2787.7100     0.1063        66.30         2.314E-4      -152.45       2.002E-4      -123.08       0.53511       152.19         
2790.7000     0.11077       64.81         2.17E-4       -129.06       2.375E-4      -144.66       0.53048       152.05         
2793.6900     0.11525       63.60         2.322E-4      -144.56       2.334E-4      -128.48       0.52613       151.72         
2796.6800     0.11939       62.45         2.777E-4      -137.28       2.623E-4      -116.39       0.52233       151.20         
2799.6700     0.12308       61.39         3.269E-4      -136.44       3.288E-4      -143.00       0.51986       150.55         
2802.6600     0.12642       60.60         2.809E-4      -147.93       3.187E-4      -127.81       0.51842       149.82         
2805.6500     0.12927       59.95         3.053E-4      -133.05       2.518E-4      -120.50       0.51813       149.02         
2808.6400     0.13202       59.33         3.263E-4      -145.35       2.354E-4      -131.59       0.51913       148.28         
2811.6300     0.13417       58.83         2.763E-4      -146.70       3.145E-4      -141.55       0.52119       147.58         
2814.6200     0.13628       58.32         2.288E-4      -136.39       3.687E-4      -139.31       0.52408       147.02         
2817.6100     0.13822       57.79         2.888E-4      -132.75       4.184E-4      -138.31       0.52753       146.61         
2820.6000     0.13988       57.20         3.383E-4      -145.45       2.796E-4      -134.92       0.53145       146.37         
2823.5900     0.14146       56.58         3.51E-4       -158.97       2.847E-4      -151.27       0.53527       146.30         
2826.5800     0.14261       56.07         3.118E-4      -156.38       4.203E-4      -160.59       0.53911       146.40         
2829.5700     0.14384       55.58         2.554E-4      -179.42       4.239E-4      -157.90       0.54218       146.65         
2832.5600     0.14524       55.12         2.972E-4      -169.89       4.199E-4      -153.13       0.54495       147.04         
2835.5500     0.14659       54.83         2.976E-4      -154.13       3.572E-4      -154.81       0.54652       147.55         
2838.5400     0.14827       54.51         3.798E-4      -158.07       4.197E-4      -167.23       0.54717       148.10         
2841.5300     0.14979       54.29         3.755E-4      176.34        3.459E-4      177.80        0.54674       148.67         
2844.5200     0.15133       54.26         3.654E-4      -177.00       3.298E-4      -161.23       0.54536       149.21         
2847.5100     0.15283       54.31         3.996E-4      174.66        3.372E-4      176.40        0.54308       149.70         
2850.5000     0.15443       54.42         3.371E-4      -172.91       4.02E-4       170.32        0.53997       150.07         
2853.4900     0.15563       54.53         3.771E-4      173.69        3.763E-4      175.52        0.53629       150.29         
2856.4800     0.15645       54.66         4.114E-4      177.20        3.572E-4      -167.80       0.5324        150.37         
2859.4700     0.15647       55.06         3.322E-4      174.89        4.361E-4      167.22        0.52861       150.27         
2862.4600     0.15643       55.64         4.21E-4       169.54        4.143E-4      162.82        0.5253        150.03         
2865.4500     0.15654       56.35         5.158E-4      169.33        4.046E-4      168.03        0.52231       149.61         
2868.4400     0.15661       57.20         4.902E-4      164.22        3.959E-4      172.77        0.51995       149.08         
2871.4300     0.1566        58.10         3.577E-4      157.06        5.412E-4      165.12        0.51868       148.47         
2874.4200     0.15682       58.98         4.496E-4      160.08        3.848E-4      144.75        0.51836       147.78         
2877.4100     0.15724       59.97         5.222E-4      150.61        4.216E-4      155.24        0.51881       147.11         
2880.4000     0.15792       61.02         4.529E-4      152.09        3.381E-4      161.03        0.52047       146.46         
2883.3900     0.15879       62.02         5.87E-4       147.51        4.306E-4      138.92        0.52277       145.91         
2886.3800     0.16011       63.18         4.525E-4      152.20        5.789E-4      146.52        0.526         145.48         
2889.3700     0.16178       64.33         4.432E-4      142.37        5.123E-4      134.49        0.52943       145.17         
2892.3600     0.16389       65.47         4.591E-4      139.09        5.604E-4      135.87        0.53326       145.04         
2895.3500     0.16624       66.70         5.524E-4      117.81        5.198E-4      140.08        0.53688       145.04         
2898.3400     0.16888       67.86         4.898E-4      115.97        5.012E-4      108.51        0.54017       145.24         
2901.3300     0.17185       69.13         4.827E-4      119.44        4.556E-4      123.85        0.54276       145.56         
2904.3200     0.17501       70.43         4.425E-4      115.76        5.668E-4      117.27        0.54448       145.96         
2907.3100     0.1785        71.79         4.888E-4      100.87        4.35E-4       108.66        0.54542       146.44         
2910.3000     0.18197       73.07         6.272E-4      106.65        5.943E-4      104.81        0.54567       146.96         
2913.2900     0.18556       74.32         5.928E-4      110.88        5.117E-4      97.84         0.54478       147.45         
2916.2800     0.1892        75.48         5.103E-4      88.41         5.254E-4      103.56        0.54318       147.93         
2919.2700     0.19291       76.55         4.41E-4       93.30         5.311E-4      88.24         0.5412        148.30         
2922.2600     0.19654       77.59         5.249E-4      98.13         5.577E-4      83.29         0.5387        148.57         
2925.2500     0.20016       78.54         4.545E-4      87.79         5.168E-4      89.65         0.53564       148.74         
2928.2400     0.20386       79.48         3.843E-4      78.79         4.602E-4      84.44         0.53256       148.78         
2931.2300     0.20796       80.33         4.248E-4      91.57         5.103E-4      76.63         0.52938       148.65         
2934.2200     0.21243       81.06         3.76E-4       75.81         4.231E-4      80.08         0.52646       148.38         
2937.2100     0.21707       81.76         5.031E-4      64.39         4.719E-4      68.38         0.52412       147.98         
2940.2000     0.22207       82.41         4.009E-4      62.19         4.891E-4      56.85         0.52241       147.49         
2943.1900     0.22742       82.95         4.023E-4      56.40         4.658E-4      61.98         0.52154       146.91         
2946.1800     0.23337       83.50         3.425E-4      67.64         4.579E-4      61.65         0.52174       146.30         
2949.1700     0.23958       83.98         3.959E-4      48.54         4.005E-4      53.75         0.52284       145.71         
2952.1600     0.24623       84.47         3.781E-4      58.25         3.628E-4      52.44         0.52489       145.18         
2955.1500     0.25299       84.92         3.129E-4      39.31         3.638E-4      54.17         0.52736       144.77         
2958.1400     0.25982       85.36         4.862E-4      38.86         3.61E-4       38.94         0.53056       144.49         
2961.1300     0.26683       85.76         3.625E-4      35.38         3.117E-4      39.98         0.53397       144.35         
2964.1200     0.27364       86.20         3.093E-4      43.26         2.611E-4      38.01         0.53708       144.37         
2967.1100     0.28018       86.67         2.401E-4      40.48         1.869E-4      35.86         0.5401        144.54         
2970.1000     0.28645       87.05         2.645E-4      43.43         3.368E-4      34.25         0.54268       144.82         
2973.0900     0.29249       87.41         3.278E-4      43.08         3.398E-4      11.72         0.5444        145.23         
2976.0800     0.29824       87.70         3.301E-4      52.09         2.15E-4       67.54         0.54554       145.71         
2979.0700     0.30353       87.95         2.009E-4      38.55         3.644E-4      18.85         0.54602       146.24         
2982.0600     0.30857       88.13         2.776E-4      44.28         2.717E-4      35.32         0.54552       146.80         
2985.0500     0.31322       88.21         3.521E-4      23.08         3.339E-4      43.92         0.54431       147.33         
2988.0400     0.31796       88.24         3.224E-4      40.04         3.408E-4      39.44         0.54204       147.79         
2991.0300     0.32229       88.18         2.175E-4      43.68         3.152E-4      27.30         0.53908       148.15         
2994.0200     0.32676       88.03         2.902E-4      32.76         1.877E-4      26.06         0.53574       148.37         
2997.0100     0.33147       87.87         2.992E-4      22.78         3.188E-4      40.40         0.53182       148.45         
3000.0000     0.33573       87.70         2.433E-4      9.07          2.613E-4      21.75         0.52732       148.29         
