!    08/05/2026   14:46:17 
! Ref Plane: 0.000 mm
# MHZ S MA R  50
!
10.0000       1.00093       -178.81       9.101E-5      -103.22       7.006E-5      -38.85        0.11678       -34.90         
12.9900       1.00136       -178.51       1.652E-5      -55.81        5.836E-5      25.41         0.1206        -42.69         
15.9800       1.00149       -178.21       7.677E-5      -134.11       9.661E-5      86.10         0.12669       -50.11         
18.9700       1.00196       -177.92       4.176E-5      177.89        6.086E-5      -12.01        0.13408       -56.90         
21.9600       1.0022        -177.64       6.883E-5      168.06        1.009E-4      107.46        0.14255       -63.40         
24.9500       1.00252       -177.33       3.409E-5      79.79         9.782E-6      166.98        0.1489        -69.98         
27.9400       1.00278       -177.05       1.066E-4      105.47        1.133E-4      49.65         0.1529        -72.83         
30.9300       1.00291       -176.75       6.491E-5      2.27          9.507E-5      -52.10        0.16701       -74.83         
33.9200       1.00317       -176.46       9.217E-5      -105.68       4.388E-5      -91.09        0.18039       -78.54         
36.9100       1.00322       -176.17       1.407E-4      -30.73        5.431E-5      -83.95        0.19175       -81.47         
39.9000       1.00307       -175.88       4.081E-5      -47.62        5.811E-5      -10.70        0.20427       -83.82         
42.8900       1.00312       -175.59       9.748E-5      -128.90       8.83E-5       5.78          0.21665       -85.98         
45.8800       1.00324       -175.30       6.877E-5      27.06         8.005E-5      -60.39        0.22848       -87.98         
48.8700       1.00319       -174.95       1.291E-4      49.33         6.436E-5      -18.27        0.24002       -89.89         
51.8600       1.00291       -174.72       4.407E-5      -83.98        1.127E-4      -33.97        0.25091       -91.98         
54.8500       1.00401       -174.50       4.32E-5       85.11         5.658E-5      -99.07        0.25884       -93.95         
57.8400       1.00306       -174.11       7.37E-5       166.77        6.937E-5      -89.77        0.2652        -94.79         
60.8300       1.00319       -173.81       5.695E-5      -125.77       5.557E-5      -138.19       0.27567       -95.56         
63.8200       1.00319       -173.52       4.803E-5      -156.03       6.641E-5      -126.55       0.28642       -96.77         
66.8100       1.00324       -173.20       9.377E-5      -52.64        4.42E-5       -129.04       0.29619       -98.18         
69.8000       1.00355       -172.89       5.465E-5      -127.02       9.794E-5      -72.41        0.30532       -99.60         
72.7900       1.00416       -172.58       1.216E-4      143.40        2.773E-5      -42.83        0.31452       -101.03        
75.7800       1.00418       -172.26       2.656E-5      -38.89        4.345E-5      -77.57        0.32405       -102.54        
78.7700       1.00442       -171.92       8.794E-5      -8.26         4.313E-5      -84.52        0.33344       -104.12        
81.7600       1.00463       -171.60       3.982E-5      -159.77       4.487E-5      -142.05       0.34207       -105.71        
84.7500       1.00479       -171.32       1.177E-4      -85.34        7.986E-5      -171.62       0.35005       -107.17        
87.7400       1.00504       -171.03       7.878E-5      123.59        6.986E-5      -175.57       0.35899       -108.41        
90.7300       1.00526       -170.75       5.63E-6       -165.69       4.305E-5      -164.11       0.36868       -109.79        
93.7200       1.00582       -170.39       5.165E-5      109.20        7.218E-5      39.63         0.37733       -111.19        
96.7100       1.00547       -170.14       2.086E-5      84.76         7.00E-5       7.42          0.38481       -112.48        
99.7000       1.00546       -169.85       6.872E-5      -40.28        1.118E-4      -24.28        0.39183       -113.50        
102.6900      1.00519       -169.57       2.693E-5      -93.02        1.616E-5      -52.58        0.39936       -114.21        
105.6800      1.0051        -169.29       8.68E-5       173.29        2.90E-5       163.14        0.40792       -114.78        
108.6700      1.00509       -169.02       4.84E-5       149.30        9.214E-5      -32.59        0.4172        -115.30        
111.6600      1.00483       -168.72       6.256E-5      136.59        7.376E-5      -117.73       0.4266        -115.80        
114.6500      1.00453       -168.41       1.887E-5      -7.84         5.429E-5      -44.72        0.43622       -116.27        
117.6400      1.00425       -168.13       4.892E-5      93.85         6.81E-5       122.55        0.4462        -116.79        
120.6300      1.0045        -167.83       4.278E-5      105.07        2.014E-5      96.32         0.45561       -117.39        
123.6200      1.00473       -167.51       4.684E-5      91.90         6.806E-5      143.24        0.46414       -118.09        
126.6100      1.00453       -167.19       5.383E-5      -98.16        6.975E-5      -47.28        0.47159       -118.83        
129.6000      1.00458       -166.86       6.811E-5      131.80        7.962E-5      122.70        0.47855       -119.56        
132.5900      1.00472       -166.54       5.515E-5      -91.19        7.143E-5      -134.38       0.48478       -120.26        
135.5800      1.00468       -166.21       3.673E-5      -160.67       1.042E-4      -40.90        0.49076       -120.93        
138.5700      1.00466       -165.89       8.85E-5       -163.83       6.062E-5      83.33         0.49675       -121.58        
141.5600      1.00494       -165.60       5.675E-5      154.86        5.099E-5      91.49         0.50297       -122.24        
144.5500      1.00533       -165.32       6.427E-5      -169.54       6.789E-5      99.61         0.50929       -122.96        
147.5400      1.00587       -165.02       8.095E-5      131.96        1.153E-4      -174.58       0.51554       -123.74        
150.5300      1.0062        -164.71       9.747E-5      107.48        6.71E-5       54.24         0.52155       -124.61        
153.5200      1.0064        -164.41       1.10E-4       98.26         4.143E-5      130.17        0.52765       -125.49        
156.5100      1.0065        -164.11       5.687E-5      85.34         7.475E-5      54.96         0.53411       -126.36        
159.5000      1.0065        -163.82       8.863E-5      22.50         1.368E-4      44.86         0.54066       -127.19        
162.4900      1.00644       -163.56       8.03E-5       83.17         8.126E-5      134.97        0.5471        -127.99        
165.4800      1.00644       -163.29       5.997E-5      81.84         7.998E-5      58.73         0.55355       -128.75        
168.4700      1.00634       -163.00       1.089E-4      93.84         1.225E-4      1.51          0.55979       -129.45        
171.4600      1.00609       -162.70       1.349E-4      47.39         5.128E-5      135.37        0.56582       -130.08        
174.4500      1.006         -162.39       1.57E-4       48.37         1.176E-4      10.85         0.5718        -130.66        
177.4400      1.00565       -162.09       1.072E-4      30.96         4.109E-5      73.56         0.57733       -131.18        
180.4300      1.00526       -161.79       1.84E-4       -0.57         4.896E-5      -39.98        0.5828        -131.66        
183.4200      1.00472       -161.47       1.296E-4      29.11         8.463E-5      43.65         0.58824       -132.10        
186.4100      1.0043        -161.17       8.486E-5      20.82         1.031E-4      28.49         0.59381       -132.50        
189.4000      1.00398       -160.86       8.853E-5      57.82         1.129E-4      5.17          0.59916       -132.89        
192.3900      1.00359       -160.54       1.475E-4      -0.30         1.552E-4      18.10         0.60448       -133.27        
195.3800      1.00366       -160.25       1.547E-4      13.34         7.104E-5      -32.61        0.60945       -133.67        
198.3700      1.00396       -159.97       1.321E-4      3.93          1.924E-4      2.90          0.61399       -134.09        
201.3600      1.00447       -159.67       1.363E-4      -16.68        9.856E-5      -63.44        0.6183        -134.54        
204.3500      1.00494       -159.35       1.215E-4      -11.53        1.351E-4      -59.12        0.62216       -135.03        
207.3400      1.00541       -159.02       1.041E-4      -34.07        1.405E-4      14.72         0.62593       -135.58        
210.3300      1.0059        -158.69       1.34E-4       -15.45        1.928E-4      -30.58        0.62975       -136.18        
213.3200      1.00605       -158.38       2.139E-4      -49.33        2.231E-4      -49.19        0.6338        -136.81        
216.3100      1.00607       -158.09       1.276E-4      -71.98        1.509E-4      -61.64        0.63808       -137.47        
219.3000      1.00638       -157.82       1.795E-4      -84.65        2.264E-4      -100.21       0.64235       -138.14        
222.2900      1.00699       -157.54       1.689E-4      -101.66       1.959E-4      -119.83       0.64668       -138.79        
225.2800      1.00743       -157.18       1.08E-4       -110.33       2.378E-4      -71.22        0.65108       -139.45        
228.2700      1.00753       -156.85       1.376E-4      -95.02        1.586E-4      -120.41       0.65544       -140.08        
231.2600      1.00721       -156.53       3.643E-5      -95.24        1.59E-4       -104.46       0.65988       -140.69        
234.2500      1.00664       -156.21       1.041E-4      -97.02        1.186E-4      -163.76       0.66419       -141.28        
237.2400      1.006         -155.90       6.095E-5      -110.89       1.194E-4      -92.35        0.66871       -141.85        
240.2300      1.00522       -155.59       2.397E-5      -93.54        3.471E-5      -82.93        0.67329       -142.37        
243.2200      1.00438       -155.28       5.735E-5      -153.99       1.256E-4      -95.74        0.67801       -142.81        
246.2100      1.00382       -154.98       9.056E-5      -146.80       7.178E-5      -162.00       0.68249       -143.21        
249.2000      1.00353       -154.68       7.782E-5      154.57        1.778E-5      160.04        0.68683       -143.55        
252.1900      1.00339       -154.38       4.897E-5      81.19         1.207E-4      -178.84       0.69082       -143.86        
255.1800      1.00333       -154.08       3.058E-5      57.18         2.017E-5      23.25         0.69435       -144.14        
258.1700      1.00367       -153.78       1.53E-5       92.83         6.276E-5      170.57        0.69771       -144.42        
261.1600      1.00412       -153.47       4.204E-5      93.55         8.486E-5      52.83         0.70079       -144.71        
264.1500      1.00438       -153.13       4.704E-5      13.49         7.339E-5      54.52         0.70356       -145.01        
267.1400      1.0047        -152.82       6.367E-5      -28.64        1.488E-4      -9.48         0.7064        -145.34        
270.1300      1.00501       -152.54       5.375E-5      35.26         8.796E-5      -71.96        0.70859       -145.73        
273.1200      1.00616       -152.27       8.647E-5      -31.45        7.533E-5      -11.90        0.71049       -146.13        
276.1100      1.00736       -151.99       8.061E-5      -95.31        6.494E-5      -117.07       0.71228       -146.53        
279.1000      1.00838       -151.65       7.556E-5      -76.12        6.211E-5      -43.01        0.71449       -146.90        
282.0900      1.0085        -151.30       8.015E-5      -115.09       1.293E-4      -93.51        0.71705       -147.31        
285.0800      1.00806       -150.92       7.484E-5      -115.45       9.634E-5      -20.24        0.71975       -147.78        
288.0700      1.00768       -150.55       6.326E-5      -128.77       1.436E-4      -97.88        0.72236       -148.31        
291.0600      1.00696       -150.22       4.279E-5      -127.37       1.199E-4      -119.35       0.72491       -148.87        
294.0500      1.00616       -149.90       1.056E-4      -125.24       2.967E-5      -162.80       0.72788       -149.44        
297.0400      1.00523       -149.57       1.062E-4      -131.52       4.586E-5      -150.70       0.73065       -149.99        
300.0300      1.0043        -149.25       9.168E-5      -157.73       8.236E-5      -172.55       0.73386       -150.52        
303.0200      1.00352       -148.93       1.096E-4      -157.12       1.189E-4      -122.39       0.73717       -150.99        
306.0100      1.00285       -148.62       5.076E-5      132.07        1.705E-4      -108.67       0.74029       -151.42        
309.0000      1.00247       -148.33       1.087E-4      -166.82       4.752E-5      112.67        0.74325       -151.79        
311.9900      1.00197       -148.02       5.295E-5      163.76        8.377E-5      -146.96       0.74602       -152.13        
314.9800      1.00155       -147.72       3.70E-5       120.52        1.059E-4      -161.44       0.74872       -152.44        
317.9700      1.00137       -147.43       6.74E-5       112.21        8.353E-5      -149.69       0.75117       -152.72        
320.9600      1.0012        -147.15       8.681E-5      175.29        1.105E-4      156.89        0.75379       -152.98        
323.9500      1.00164       -146.86       8.784E-5      160.30        2.427E-4      151.99        0.75614       -153.21        
326.9400      1.00252       -146.58       7.629E-5      139.23        1.261E-4      141.24        0.75843       -153.44        
329.9300      1.00385       -146.27       1.448E-4      167.10        5.604E-5      -173.68       0.76052       -153.68        
332.9200      1.00513       -145.93       9.184E-5      153.70        1.275E-4      133.54        0.76245       -153.94        
335.9100      1.00611       -145.55       1.215E-4      130.90        9.109E-5      160.56        0.7644        -154.22        
338.9000      1.00658       -145.15       8.108E-5      99.25         7.686E-5      67.51         0.766         -154.51        
341.8900      1.00663       -144.76       1.161E-4      112.53        7.429E-5      130.83        0.76718       -154.84        
344.8800      1.0065        -144.38       8.233E-5      103.27        5.171E-5      -124.24       0.76832       -155.22        
347.8700      1.00622       -144.04       1.298E-4      93.01         9.822E-5      -3.66         0.76958       -155.65        
350.8600      1.00591       -143.69       3.602E-5      -179.42       4.638E-5      -82.74        0.77096       -156.11        
353.8500      1.00546       -143.35       5.178E-5      -73.55        8.965E-5      -24.03        0.77256       -156.57        
356.8400      1.00489       -143.01       7.213E-5      149.74        4.245E-5      126.40        0.7742        -157.04        
359.8300      1.00405       -142.68       2.33E-5       -162.19       5.519E-5      123.88        0.77587       -157.51        
362.8200      1.00347       -142.36       1.778E-5      102.09        1.128E-4      73.26         0.77759       -157.94        
365.8100      1.00268       -142.04       1.969E-4      147.89        1.233E-4      175.68        0.77932       -158.35        
368.8000      1.00151       -141.75       1.623E-4      108.51        5.278E-5      119.87        0.78085       -158.72        
371.7900      1.00044       -141.48       4.282E-5      135.46        2.217E-4      80.74         0.7824        -159.08        
374.7800      1.00033       -141.21       1.235E-4      73.07         1.854E-4      97.99         0.78403       -159.39        
377.7700      1.00017       -140.96       1.295E-4      66.84         1.249E-4      34.03         0.78566       -159.66        
380.7600      1.00092       -140.67       1.494E-4      44.39         1.862E-4      72.63         0.78753       -159.90        
383.7500      1.00174       -140.35       2.009E-4      49.24         2.333E-4      35.47         0.78953       -160.10        
386.7400      1.00277       -140.03       1.487E-4      2.31          1.587E-4      12.14         0.79142       -160.25        
389.7300      1.00379       -139.68       1.114E-4      -1.41         1.26E-4       18.13         0.79314       -160.39        
392.7200      1.00446       -139.29       2.119E-4      -25.12        2.051E-4      -38.35        0.79488       -160.52        
395.7100      1.00454       -138.90       1.486E-4      -49.57        6.936E-5      -37.65        0.79633       -160.66        
398.7000      1.00442       -138.53       1.697E-4      -10.19        2.509E-4      -39.88        0.79759       -160.83        
401.6900      1.00431       -138.16       1.105E-4      -19.45        1.134E-4      -52.65        0.79835       -161.03        
404.6800      1.00414       -137.81       9.039E-5      13.88         1.63E-4       -20.15        0.79904       -161.27        
407.6700      1.00414       -137.43       6.842E-5      -55.95        1.07E-4       -34.54        0.79946       -161.54        
410.6600      1.00418       -137.06       8.042E-5      -26.01        1.319E-4      -5.92         0.79978       -161.82        
413.6500      1.0037        -136.70       1.98E-4       1.04          1.302E-4      -9.60         0.80046       -162.12        
416.6400      1.00262       -136.34       2.326E-4      -41.35        2.563E-4      -36.87        0.80121       -162.44        
419.6300      1.00144       -136.00       2.414E-4      -47.35        1.791E-4      -23.39        0.80205       -162.81        
422.6200      0.99965       -135.68       2.108E-4      -79.18        1.40E-4       -103.32       0.80271       -163.20        
425.6100      0.99826       -135.38       1.53E-4       -82.93        2.18E-4       -67.17        0.80346       -163.62        
428.6000      0.99715       -135.10       2.01E-4       -92.82        2.236E-4      -72.80        0.80398       -164.06        
431.5900      0.99679       -134.82       1.611E-4      -105.23       1.659E-4      -103.41       0.80456       -164.49        
434.5800      0.99738       -134.53       2.373E-4      -96.32        2.57E-4       -144.10       0.80512       -164.92        
437.5700      0.99809       -134.22       1.932E-4      -106.49       1.958E-4      -84.06        0.80576       -165.33        
440.5600      0.99889       -133.91       1.52E-4       -101.77       3.24E-4       -122.99       0.80673       -165.70        
443.5500      0.99944       -133.58       2.127E-4      -136.85       2.032E-4      -111.79       0.80799       -166.02        
446.5400      0.99983       -133.24       1.864E-4      -124.26       1.842E-4      -118.06       0.80928       -166.28        
449.5300      0.99998       -132.88       1.43E-4       -149.54       1.66E-4       -159.39       0.81036       -166.48        
452.5200      1.00001       -132.54       1.973E-4      -150.88       2.514E-4      -127.78       0.8113        -166.65        
455.5100      0.99999       -132.20       1.445E-4      -137.23       1.738E-4      -112.08       0.81197       -166.81        
458.5000      0.99996       -131.85       1.551E-4      -138.87       1.67E-4       -135.01       0.81283       -166.96        
461.4900      1.0003        -131.49       1.914E-4      -124.06       1.783E-4      -153.98       0.81384       -167.10        
464.4800      1.00088       -131.11       1.106E-4      -144.17       1.402E-4      -155.23       0.81466       -167.23        
467.4700      1.00099       -130.70       2.727E-4      -140.91       1.316E-4      -165.17       0.81549       -167.37        
470.4600      1.00046       -130.29       2.735E-4      -166.11       1.737E-4      -176.72       0.81622       -167.53        
473.4500      0.99941       -129.90       1.67E-4       -168.27       2.776E-4      -179.88       0.81695       -167.71        
476.4400      0.99834       -129.54       1.44E-4       -157.31       1.809E-4      168.45        0.81716       -167.92        
479.4300      0.99754       -129.23       1.859E-4      179.75        1.402E-4      178.00        0.81708       -168.17        
482.4200      0.99688       -128.93       2.758E-4      161.82        2.389E-4      177.34        0.8168        -168.47        
485.4100      0.99673       -128.66       1.837E-4      148.66        3.01E-4       174.18        0.81636       -168.82        
488.4000      0.9969        -128.37       2.305E-4      162.89        2.451E-4      164.00        0.81574       -169.21        
491.3900      0.99753       -128.08       1.481E-4      143.87        1.721E-4      111.33        0.81496       -169.65        
494.3800      0.99774       -127.77       1.647E-4      135.50        1.654E-4      161.10        0.81419       -170.12        
497.3700      0.99769       -127.44       1.343E-4      121.80        1.083E-4      155.65        0.81365       -170.62        
500.3600      0.99732       -127.11       2.164E-4      139.48        1.967E-4      145.56        0.81322       -171.12        
503.3500      0.9967        -126.79       1.725E-4      135.16        1.316E-4      170.43        0.81316       -171.61        
506.3400      0.99608       -126.48       1.538E-4      109.92        1.133E-4      91.29         0.81309       -172.05        
509.3300      0.99549       -126.16       1.751E-4      93.45         1.033E-4      122.50        0.81292       -172.48        
512.3200      0.99523       -125.84       1.829E-4      60.30         1.273E-4      63.06         0.8127        -172.87        
515.3100      0.99515       -125.50       6.531E-5      -10.41        1.662E-4      69.38         0.81291       -173.26        
518.3000      0.99514       -125.11       9.911E-5      57.83         1.192E-4      50.77         0.81346       -173.61        
521.2900      0.99479       -124.71       2.502E-5      24.88         6.48E-5       10.88         0.8145        -173.89        
524.2800      0.99381       -124.31       1.168E-4      -33.23        1.037E-4      22.75         0.81546       -174.13        
527.2700      0.99266       -123.93       1.07E-4       12.29         1.446E-4      -26.08        0.81654       -174.30        
530.2600      0.99138       -123.58       1.301E-4      -39.65        2.162E-4      -50.49        0.81771       -174.44        
533.2500      0.99082       -123.25       1.885E-4      -74.32        1.90E-4       -65.48        0.81872       -174.54        
536.2400      0.99035       -122.96       2.251E-4      -100.73       2.245E-4      -92.56        0.81946       -174.60        
539.2300      0.99037       -122.67       2.288E-4      -128.53       1.892E-4      -143.90       0.81975       -174.64        
542.2200      0.99075       -122.37       3.057E-4      -133.46       2.73E-4       -143.79       0.81987       -174.69        
545.2100      0.99107       -122.04       3.362E-4      -139.74       2.546E-4      -154.63       0.81973       -174.73        
548.2000      0.99129       -121.72       3.615E-4      -161.32       3.486E-4      -165.24       0.81917       -174.78        
551.1900      0.99123       -121.39       3.402E-4      -167.88       4.237E-4      -168.23       0.81836       -174.85        
554.1800      0.9903        -121.04       3.896E-4      -173.60       4.249E-4      174.25        0.81737       -174.94        
557.1700      0.98923       -120.71       3.974E-4      163.12        5.274E-4      176.83        0.81645       -175.04        
560.1600      0.98763       -120.39       5.072E-4      155.92        4.108E-4      152.00        0.81504       -175.17        
563.1500      0.98625       -120.09       4.746E-4      147.05        5.715E-4      144.59        0.81364       -175.31        
566.1400      0.98516       -119.74       5.935E-4      129.11        4.705E-4      122.08        0.81199       -175.48        
569.1300      0.98438       -119.37       5.421E-4      120.71        4.917E-4      127.26        0.81017       -175.69        
572.1200      0.98341       -118.97       5.945E-4      109.81        6.054E-4      120.22        0.80828       -175.90        
575.1100      0.98255       -118.55       5.505E-4      93.04         5.313E-4      112.22        0.80654       -176.14        
578.1000      0.98154       -118.15       5.26E-4       84.47         5.785E-4      79.63         0.80545       -176.40        
581.0900      0.98011       -117.78       5.445E-4      81.15         6.032E-4      77.52         0.80481       -176.64        
584.0800      0.97881       -117.45       5.014E-4      72.77         4.376E-4      66.53         0.80438       -176.86        
587.0700      0.97821       -117.14       5.195E-4      70.32         5.16E-4       67.88         0.80435       -177.04        
590.0600      0.97813       -116.84       4.483E-4      54.80         4.419E-4      59.74         0.80462       -177.22        
593.0500      0.97853       -116.54       4.513E-4      45.08         4.104E-4      59.47         0.80525       -177.37        
596.0400      0.97922       -116.23       4.099E-4      42.07         4.247E-4      42.13         0.80584       -177.50        
599.0300      0.98043       -115.90       3.616E-4      36.19         3.625E-4      44.62         0.80646       -177.62        
602.0200      0.98147       -115.56       4.081E-4      30.44         3.384E-4      34.59         0.80717       -177.73        
605.0100      0.98219       -115.23       3.574E-4      28.19         2.946E-4      31.71         0.80786       -177.83        
608.0000      0.98258       -114.91       3.06E-4       23.07         2.446E-4      33.46         0.80838       -177.92        
610.9900      0.98264       -114.60       2.246E-4      27.24         2.317E-4      -3.17         0.80887       -178.01        
613.9800      0.98228       -114.33       2.278E-4      22.85         2.302E-4      16.00         0.80929       -178.09        
616.9700      0.98185       -114.07       2.026E-4      -14.05        2.216E-4      29.24         0.80917       -178.18        
619.9600      0.98124       -113.80       2.381E-4      19.26         1.675E-4      2.11          0.80891       -178.28        
622.9500      0.9803        -113.53       1.534E-4      -15.41        1.71E-4       -4.03         0.80816       -178.40        
625.9400      0.97886       -113.24       1.435E-4      -17.82        6.028E-5      -69.67        0.80716       -178.55        
628.9300      0.97708       -112.96       1.175E-4      20.70         6.557E-5      -31.06        0.80601       -178.72        
631.9200      0.97485       -112.69       1.11E-4       9.63          4.694E-5      49.20         0.80477       -178.92        
634.9100      0.97206       -112.43       8.372E-5      32.13         1.165E-4      -115.05       0.80359       -179.15        
637.9000      0.96934       -112.21       3.183E-5      125.51        4.074E-6      115.06        0.80255       -179.43        
640.8900      0.96698       -112.00       3.102E-6      102.20        1.073E-4      148.80        0.80171       -179.70        
643.8800      0.96518       -111.82       1.007E-4      137.89        5.351E-5      166.24        0.80109       -179.97        
646.8700      0.96375       -111.62       1.908E-4      137.71        1.203E-4      149.44        0.80061       179.78         
649.8600      0.96236       -111.42       2.504E-4      111.64        2.087E-4      108.64        0.80032       179.52         
652.8500      0.96108       -111.20       2.258E-4      92.70         2.929E-4      113.21        0.80036       179.27         
655.8400      0.95981       -110.97       2.303E-4      95.01         3.662E-4      111.12        0.80046       179.03         
658.8300      0.9583        -110.72       3.294E-4      91.44         3.418E-4      112.79        0.80079       178.81         
661.8200      0.9566        -110.47       4.758E-4      88.94         3.012E-4      95.09         0.80118       178.63         
664.8100      0.95463       -110.21       4.485E-4      83.73         4.219E-4      85.70         0.80185       178.44         
667.8000      0.95242       -109.95       4.505E-4      81.16         3.723E-4      87.68         0.80258       178.30         
670.7900      0.95012       -109.67       5.966E-4      72.99         5.376E-4      70.22         0.80325       178.19         
673.7800      0.94765       -109.36       6.088E-4      58.17         5.359E-4      59.71         0.80386       178.09         
676.7700      0.94498       -109.02       5.706E-4      51.72         5.985E-4      54.95         0.80417       178.00         
679.7600      0.94226       -108.65       6.671E-4      42.84         6.203E-4      50.31         0.80405       177.92         
682.7500      0.93967       -108.27       6.70E-4       43.54         6.629E-4      39.07         0.80372       177.83         
685.7400      0.93805       -107.91       6.088E-4      31.95         5.435E-4      30.22         0.80339       177.72         
688.7300      0.93823       -107.71       5.105E-4      32.95         4.392E-4      42.68         0.80263       177.59         
691.7200      0.93384       -108.00       8.068E-4      51.42         8.278E-4      50.83         0.80166       177.44         
694.7100      0.92108       -107.82       1.024E-3      29.47         1.026E-3      32.34         0.80069       177.26         
697.7000      0.91457       -107.35       1.061E-3      17.40         9.958E-4      15.03         0.79938       177.02         
700.6900      0.91051       -106.97       1.012E-3      5.90          1.113E-3      5.92          0.79817       176.77         
703.6800      0.90742       -106.65       9.669E-4      -0.80         9.712E-4      0.07          0.79699       176.52         
706.6700      0.90471       -106.36       1.016E-3      -6.76         1.004E-3      -5.05         0.79583       176.26         
709.6600      0.90235       -106.09       1.022E-3      -14.79        8.94E-4       -10.91        0.79487       175.99         
712.6500      0.89969       -105.86       9.273E-4      -14.28        1.034E-3      -10.06        0.79412       175.72         
715.6400      0.89721       -105.66       9.888E-4      -19.65        9.808E-4      -16.99        0.79374       175.44         
718.6300      0.89466       -105.47       1.002E-3      -20.12        1.037E-3      -23.92        0.79361       175.19         
721.6200      0.89215       -105.26       1.073E-3      -23.44        8.908E-4      -22.92        0.79398       174.96         
724.6100      0.88927       -105.05       1.112E-3      -30.13        1.097E-3      -30.27        0.7947        174.77         
727.6000      0.88603       -104.80       1.112E-3      -38.28        1.114E-3      -36.10        0.79571       174.61         
730.5900      0.88222       -104.51       1.241E-3      -39.60        1.185E-3      -38.94        0.79679       174.50         
733.5800      0.87816       -104.21       1.291E-3      -45.47        1.221E-3      -44.39        0.79798       174.41         
736.5700      0.87342       -103.87       1.343E-3      -50.68        1.293E-3      -52.28        0.7989        174.35         
739.5600      0.86816       -103.53       1.434E-3      -58.94        1.385E-3      -53.17        0.7995        174.31         
742.5500      0.86287       -103.18       1.464E-3      -63.44        1.466E-3      -61.40        0.79995       174.29         
745.5400      0.85737       -102.85       1.584E-3      -71.01        1.541E-3      -69.88        0.80022       174.26         
748.5300      0.85195       -102.53       1.588E-3      -77.11        1.522E-3      -73.43        0.80014       174.25         
751.5200      0.84699       -102.23       1.559E-3      -86.64        1.584E-3      -82.88        0.79979       174.21         
754.5100      0.84182       -101.94       1.592E-3      -92.26        1.538E-3      -94.69        0.79894       174.16         
757.5000      0.83627       -101.72       1.524E-3      -98.50        1.496E-3      -96.31        0.79783       174.07         
760.4900      0.82957       -101.52       1.517E-3      -102.48       1.532E-3      -101.85       0.79634       173.93         
763.4800      0.82255       -101.26       1.595E-3      -104.38       1.513E-3      -105.59       0.79472       173.78         
766.4700      0.81606       -101.00       1.518E-3      -111.93       1.514E-3      -112.56       0.79298       173.57         
769.4600      0.81007       -100.76       1.587E-3      -119.79       1.633E-3      -118.42       0.79121       173.31         
772.4500      0.8044        -100.53       1.621E-3      -124.92       1.507E-3      -123.20       0.78958       173.00         
775.4400      0.79908       -100.29       1.615E-3      -130.77       1.472E-3      -128.67       0.78812       172.65         
778.4300      0.79384       -100.07       1.558E-3      -135.74       1.555E-3      -134.86       0.78682       172.28         
781.4200      0.78854       -99.82        1.58E-3       -143.95       1.617E-3      -143.58       0.78606       171.92         
784.4100      0.78279       -99.55        1.55E-3       -149.38       1.593E-3      -151.35       0.78561       171.55         
787.4000      0.77652       -99.25        1.554E-3      -155.30       1.557E-3      -155.95       0.78529       171.20         
790.3900      0.76971       -98.94        1.456E-3      -162.37       1.51E-3       -158.51       0.78532       170.88         
793.3800      0.76245       -98.61        1.541E-3      -166.58       1.636E-3      -165.23       0.78544       170.58         
796.3700      0.75493       -98.25        1.474E-3      -172.62       1.503E-3      -171.55       0.78579       170.32         
799.3600      0.74728       -97.86        1.502E-3      -178.18       1.488E-3      -176.21       0.78618       170.11         
802.3500      0.73944       -97.44        1.472E-3      176.79        1.464E-3      178.55        0.7867        169.95         
805.3400      0.73129       -96.98        1.422E-3      169.44        1.455E-3      172.51        0.78729       169.82         
808.3300      0.723         -96.46        1.408E-3      167.46        1.424E-3      166.77        0.78786       169.73         
811.3200      0.7145        -95.89        1.341E-3      161.28        1.397E-3      157.40        0.78823       169.67         
814.3100      0.70597       -95.30        1.349E-3      154.76        1.305E-3      155.86        0.78813       169.64         
817.3000      0.69778       -94.72        1.325E-3      145.71        1.38E-3       150.73        0.78744       169.62         
820.2900      0.68972       -94.17        1.255E-3      141.73        1.336E-3      146.30        0.78636       169.60         
823.2800      0.68184       -93.63        1.258E-3      137.69        1.311E-3      137.52        0.78492       169.57         
826.2700      0.67394       -93.10        1.24E-3       134.05        1.236E-3      134.83        0.78337       169.48         
829.2600      0.66607       -92.54        1.251E-3      122.42        1.203E-3      123.09        0.78161       169.34         
832.2500      0.6583        -91.90        1.169E-3      117.09        1.159E-3      118.57        0.77972       169.16         
835.2400      0.65085       -91.19        1.182E-3      113.37        1.166E-3      112.61        0.77742       168.94         
838.2300      0.64357       -90.40        1.068E-3      107.44        1.087E-3      106.95        0.77511       168.68         
841.2200      0.63734       -89.52        1.066E-3      102.75        1.085E-3      97.41         0.77278       168.40         
844.2100      0.63179       -88.61        9.576E-4      93.56         1.056E-3      90.30         0.77064       168.06         
847.2000      0.62717       -87.66        9.067E-4      83.25         1.018E-3      93.38         0.76846       167.71         
850.1900      0.62347       -86.69        9.16E-4       83.99         8.445E-4      91.62         0.76661       167.33         
853.1800      0.62111       -85.66        9.008E-4      73.12         8.74E-4       81.39         0.76491       166.94         
856.1700      0.61993       -84.61        8.327E-4      67.53         9.011E-4      73.77         0.76363       166.55         
859.1600      0.62019       -83.56        7.627E-4      65.02         8.36E-4       69.27         0.76262       166.18         
862.1500      0.6216        -82.58        7.886E-4      57.58         7.697E-4      62.76         0.76205       165.84         
865.1400      0.62338       -81.73        7.539E-4      50.46         7.654E-4      49.29         0.76201       165.53         
868.1300      0.62489       -81.00        7.394E-4      44.50         6.401E-4      52.28         0.76206       165.28         
871.1200      0.62571       -80.38        6.896E-4      38.74         6.905E-4      41.92         0.7623        165.07         
874.1100      0.62582       -79.86        6.249E-4      24.96         7.224E-4      35.66         0.76225       164.92         
877.1000      0.62527       -79.40        6.168E-4      31.68         6.408E-4      31.24         0.76175       164.82         
880.0900      0.62459       -79.01        6.584E-4      16.69         6.979E-4      14.78         0.76072       164.76         
883.0800      0.62344       -78.66        6.387E-4      12.59         6.239E-4      11.43         0.75987       164.70         
886.0700      0.62211       -78.37        5.409E-4      6.17          5.689E-4      1.07          0.75885       164.65         
889.0600      0.62013       -78.15        5.709E-4      3.27          5.446E-4      1.81          0.75762       164.62         
892.0500      0.61763       -77.96        5.468E-4      -10.18        5.586E-4      -9.31         0.75595       164.59         
895.0400      0.61419       -77.83        5.393E-4      -12.96        5.794E-4      -10.89        0.7539        164.55         
898.0300      0.61041       -77.76        5.333E-4      -24.19        5.077E-4      -15.38        0.75144       164.51         
901.0200      0.60625       -77.70        5.367E-4      -35.32        5.892E-4      -33.91        0.74865       164.45         
904.0100      0.60175       -77.65        4.831E-4      -47.01        4.446E-4      -40.80        0.74585       164.33         
907.0000      0.59712       -77.58        4.815E-4      -49.16        5.245E-4      -43.77        0.74274       164.17         
909.9900      0.59244       -77.49        4.705E-4      -63.23        4.719E-4      -52.71        0.73978       163.96         
912.9800      0.58719       -77.35        5.382E-4      -61.18        5.001E-4      -62.47        0.73671       163.72         
915.9700      0.581         -77.19        5.306E-4      -78.06        4.229E-4      -68.61        0.73395       163.43         
918.9600      0.57368       -76.93        4.24E-4       -80.91        4.818E-4      -83.59        0.73136       163.12         
921.9500      0.56498       -76.52        4.739E-4      -79.12        5.661E-4      -78.96        0.72917       162.79         
924.9400      0.55612       -75.79        4.807E-4      -91.30        5.529E-4      -86.33        0.72754       162.48         
927.9300      0.5504        -74.90        5.017E-4      -81.01        6.775E-4      -89.86        0.72615       162.15         
930.9200      0.54668       -74.21        7.332E-4      -88.74        7.057E-4      -93.22        0.7249        161.88         
933.9100      0.54196       -73.75        7.355E-4      -111.73       7.411E-4      -98.03        0.72365       161.61         
936.9000      0.53561       -73.30        8.379E-4      -115.00       7.215E-4      -108.52       0.72223       161.40         
939.8900      0.52797       -72.78        8.253E-4      -122.09       8.089E-4      -122.95       0.72102       161.22         
942.8800      0.51964       -72.20        8.365E-4      -127.83       8.248E-4      -135.03       0.72013       161.05         
945.8700      0.51085       -71.56        8.736E-4      -135.89       8.16E-4       -137.27       0.71933       160.91         
948.8600      0.50167       -70.88        8.887E-4      -146.43       8.637E-4      -139.85       0.71831       160.82         
951.8500      0.4926        -70.16        8.86E-4       -149.47       9.596E-4      -143.53       0.717         160.76         
954.8400      0.48363       -69.39        9.561E-4      -153.15       1.051E-3      -153.53       0.71536       160.73         
957.8300      0.47508       -68.57        9.721E-4      -160.25       1.077E-3      -157.80       0.71316       160.71         
960.8200      0.46706       -67.68        1.078E-3      -161.00       1.046E-3      -156.92       0.71062       160.71         
963.8100      0.45973       -66.71        1.139E-3      -169.21       1.106E-3      -171.85       0.70777       160.67         
966.8000      0.45305       -65.66        1.332E-3      -174.86       1.161E-3      -177.70       0.70464       160.62         
969.7900      0.44723       -64.50        1.325E-3      176.95        1.285E-3      176.60        0.70111       160.52         
972.7800      0.44243       -63.23        1.369E-3      176.23        1.45E-3       173.01        0.69752       160.41         
975.7700      0.43851       -61.87        1.464E-3      167.13        1.414E-3      172.61        0.69355       160.24         
978.7600      0.43587       -60.44        1.425E-3      161.50        1.524E-3      162.70        0.68989       160.05         
981.7500      0.43426       -58.99        1.628E-3      156.74        1.453E-3      157.89        0.68624       159.81         
984.7400      0.43365       -57.54        1.59E-3       153.90        1.678E-3      151.38        0.68302       159.56         
987.7300      0.43401       -56.10        1.791E-3      144.52        1.736E-3      143.67        0.67982       159.30         
990.7200      0.43495       -54.70        1.707E-3      138.04        1.743E-3      139.50        0.67692       159.01         
993.7100      0.43611       -53.35        1.882E-3      132.10        1.81E-3       130.19        0.67422       158.71         
996.7000      0.43788       -52.03        1.838E-3      126.42        1.872E-3      129.37        0.67177       158.44         
999.6900      0.43971       -50.80        1.881E-3      118.33        1.924E-3      118.47        0.66976       158.18         
1002.6800     0.44206       -49.70        1.902E-3      112.54        1.83E-3       111.74        0.66805       157.93         
1005.6700     0.44441       -48.71        1.965E-3      108.28        1.925E-3      108.49        0.6668        157.70         
1008.6600     0.44696       -47.87        1.918E-3      103.17        1.901E-3      102.03        0.66543       157.52         
1011.6500     0.44954       -47.21        1.847E-3      97.70         1.927E-3      99.76         0.66428       157.39         
1014.6400     0.452         -46.71        1.927E-3      95.18         1.86E-3       93.15         0.66281       157.31         
1017.6300     0.4541        -46.37        1.974E-3      89.62         1.955E-3      92.60         0.66118       157.29         
1020.6200     0.45547       -46.18        1.964E-3      86.08         1.898E-3      88.21         0.65932       157.29         
1023.6100     0.45651       -46.09        1.992E-3      80.84         2.009E-3      85.78         0.65708       157.33         
1026.6000     0.45677       -46.08        1.939E-3      79.34         2.089E-3      78.55         0.65487       157.37         
1029.5900     0.45673       -46.12        2.041E-3      73.87         2.105E-3      72.88         0.65223       157.41         
1032.5800     0.45615       -46.24        2.095E-3      70.74         2.098E-3      69.84         0.6494        157.48         
1035.5700     0.45497       -46.40        2.138E-3      66.16         2.068E-3      65.73         0.6462        157.53         
1038.5600     0.45305       -46.63        2.233E-3      60.63         2.258E-3      63.78         0.6428        157.57         
1041.5500     0.44903       -47.05        2.317E-3      59.07         2.197E-3      57.82         0.63969       157.59         
1044.5400     0.44001       -47.58        2.211E-3      50.70         2.19E-3       53.66         0.63627       157.59         
1047.5300     0.42293       -46.97        2.239E-3      48.77         2.264E-3      51.34         0.63293       157.57         
1050.5200     0.41645       -44.76        2.307E-3      46.66         2.334E-3      47.92         0.62953       157.53         
1053.5100     0.41784       -43.62        2.392E-3      40.36         2.393E-3      44.93         0.62635       157.47         
1056.5000     0.41622       -43.07        2.479E-3      37.30         2.467E-3      39.35         0.62335       157.40         
1059.4900     0.41184       -42.49        2.587E-3      31.83         2.575E-3      36.28         0.62063       157.35         
1062.4800     0.40619       -41.84        2.543E-3      28.85         2.461E-3      30.45         0.61827       157.27         
1065.4700     0.3999        -41.09        2.562E-3      25.66         2.549E-3      25.83         0.61612       157.21         
1068.4600     0.39276       -40.21        2.533E-3      21.75         2.615E-3      23.73         0.61436       157.16         
1071.4500     0.3858        -39.18        2.652E-3      17.48         2.733E-3      17.46         0.61278       157.15         
1074.4400     0.37901       -38.00        2.632E-3      12.28         2.785E-3      12.86         0.61138       157.18         
1077.4300     0.37312       -36.75        2.774E-3      8.99          2.617E-3      8.92          0.60982       157.26         
1080.4200     0.36831       -35.47        2.707E-3      3.14          2.69E-3       5.59          0.60831       157.39         
1083.4100     0.36433       -34.17        2.727E-3      3.20          2.784E-3      2.03          0.60666       157.53         
1086.4000     0.36132       -32.93        2.73E-3       -0.96         2.735E-3      -3.10         0.60502       157.70         
1089.3900     0.35928       -31.69        2.875E-3      -6.40         2.758E-3      -6.84         0.60312       157.87         
1092.3800     0.35771       -30.45        2.801E-3      -9.58         2.855E-3      -10.46        0.60102       158.08         
1095.3700     0.35673       -29.26        2.893E-3      -13.22        3.041E-3      -10.65        0.59854       158.29         
1098.3600     0.35658       -28.05        2.98E-3       -16.86        3.025E-3      -16.63        0.59563       158.49         
1101.3500     0.35656       -26.85        3.044E-3      -20.45        3.134E-3      -19.52        0.59249       158.69         
1104.3400     0.35724       -25.68        3.112E-3      -23.54        3.117E-3      -21.84        0.58911       158.83         
1107.3300     0.35818       -24.49        3.09E-3       -27.19        3.245E-3      -27.29        0.58576       158.95         
1110.3200     0.35926       -23.31        3.234E-3      -32.00        3.201E-3      -32.46        0.58202       159.01         
1113.3100     0.36048       -22.19        3.393E-3      -36.74        3.318E-3      -37.36        0.57831       159.02         
1116.3000     0.3615        -21.05        3.373E-3      -41.57        3.278E-3      -41.03        0.57465       159.00         
1119.2900     0.36216       -19.90        3.374E-3      -46.32        3.393E-3      -45.23        0.57116       158.92         
1122.2800     0.36287       -18.74        3.427E-3      -50.25        3.424E-3      -48.45        0.56813       158.81         
1125.2700     0.36335       -17.57        3.594E-3      -53.83        3.475E-3      -53.58        0.56536       158.65         
1128.2600     0.36368       -16.38        3.631E-3      -58.04        3.541E-3      -56.87        0.56296       158.46         
1131.2500     0.36394       -15.24        3.607E-3      -63.88        3.748E-3      -61.35        0.56113       158.28         
1134.2400     0.36449       -14.06        3.751E-3      -67.84        3.787E-3      -65.67        0.55959       158.10         
1137.2300     0.36519       -12.95        3.764E-3      -71.37        3.737E-3      -72.01        0.55858       157.96         
1140.2200     0.36613       -11.88        3.842E-3      -76.98        3.869E-3      -76.15        0.55776       157.84         
1143.2100     0.36729       -10.83        3.80E-3       -81.70        3.754E-3      -81.05        0.55727       157.79         
1146.2000     0.36899       -9.83         3.76E-3       -87.25        3.825E-3      -84.22        0.55718       157.77         
1149.1900     0.37106       -8.91         3.778E-3      -91.90        3.706E-3      -89.23        0.55717       157.79         
1152.1800     0.37359       -8.04         3.843E-3      -94.99        3.798E-3      -93.16        0.55726       157.90         
1155.1700     0.37658       -7.23         3.827E-3      -100.58       3.836E-3      -98.76        0.5569        158.07         
1158.1600     0.37996       -6.48         3.832E-3      -103.12       3.892E-3      -102.00       0.55632       158.30         
1161.1500     0.38372       -5.84         3.90E-3       -107.29       3.855E-3      -106.34       0.55531       158.56         
1164.1400     0.38746       -5.25         3.86E-3       -111.13       3.854E-3      -111.04       0.55411       158.83         
1167.1300     0.39149       -4.67         3.947E-3      -115.54       3.777E-3      -116.03       0.55262       159.12         
1170.1200     0.39543       -4.15         3.864E-3      -120.13       3.88E-3       -121.52       0.55064       159.39         
1173.1100     0.39917       -3.65         3.985E-3      -125.31       3.959E-3      -125.02       0.54832       159.64         
1176.1000     0.40298       -3.18         3.873E-3      -129.40       3.918E-3      -128.28       0.54546       159.85         
1179.0900     0.40645       -2.69         3.915E-3      -133.97       3.788E-3      -132.60       0.54256       160.03         
1182.0800     0.40972       -2.26         3.80E-3       -138.02       3.873E-3      -138.77       0.53963       160.16         
1185.0700     0.41283       -1.85         3.801E-3      -144.02       3.78E-3       -142.30       0.53652       160.22         
1188.0600     0.41554       -1.50         3.835E-3      -147.26       3.75E-3       -146.89       0.53351       160.21         
1191.0500     0.41804       -1.20         3.752E-3      -151.63       3.738E-3      -151.66       0.53071       160.13         
1194.0400     0.41992       -0.91         3.722E-3      -156.68       3.736E-3      -154.40       0.52799       159.99         
1197.0300     0.42145       -0.67         3.71E-3       -160.10       3.702E-3      -160.23       0.52587       159.83         
1200.0200     0.42263       -0.50         3.747E-3      -162.61       3.702E-3      -162.68       0.52421       159.64         
1203.0100     0.42319       -0.37         3.667E-3      -167.85       3.625E-3      -167.34       0.52305       159.46         
1206.0000     0.42335       -0.32         3.543E-3      -171.56       3.623E-3      -171.05       0.52259       159.27         
1208.9900     0.42281       -0.34         3.525E-3      -175.09       3.586E-3      -174.72       0.52263       159.12         
1211.9800     0.42173       -0.37         3.517E-3      179.79        3.335E-3      -178.30       0.52303       159.02         
1214.9700     0.41994       -0.41         3.427E-3      176.75        3.539E-3      178.20        0.52378       159.01         
1217.9600     0.41768       -0.45         3.409E-3      172.64        3.38E-3       172.64        0.52459       159.06         
1220.9500     0.41479       -0.47         3.274E-3      168.66        3.421E-3      168.81        0.52536       159.21         
1223.9400     0.41129       -0.43         3.32E-3       164.62        3.31E-3       165.57        0.52635       159.39         
1226.9300     0.40721       -0.32         3.293E-3      161.90        3.269E-3      162.93        0.52703       159.67         
1229.9200     0.4025        -0.12         3.247E-3      158.16        3.231E-3      158.93        0.52751       160.00         
1232.9100     0.39747       0.15          3.074E-3      154.16        3.201E-3      154.62        0.52768       160.39         
1235.9000     0.39148       0.55          3.129E-3      151.80        3.086E-3      152.00        0.52704       160.81         
1238.8900     0.38518       1.13          3.043E-3      148.49        3.061E-3      148.42        0.52609       161.24         
1241.8800     0.37889       1.91          3.002E-3      145.41        2.978E-3      145.04        0.52458       161.68         
1244.8700     0.37274       2.89          2.959E-3      141.05        3.023E-3      143.21        0.52268       162.08         
1247.8600     0.36699       4.04          2.918E-3      136.95        2.964E-3      137.02        0.52008       162.44         
1250.8500     0.36203       5.41          2.843E-3      133.62        2.847E-3      135.52        0.51714       162.72         
1253.8400     0.35791       6.89          2.871E-3      130.60        2.848E-3      132.10        0.51382       162.92         
1256.8300     0.35481       8.49          2.749E-3      128.69        2.772E-3      128.42        0.51055       163.02         
1259.8200     0.35283       10.10         2.716E-3      125.86        2.644E-3      126.90        0.50738       163.07         
1262.8100     0.3517        11.68         2.698E-3      124.94        2.73E-3       124.23        0.50437       163.02         
1265.8000     0.35157       13.25         2.654E-3      121.36        2.622E-3      121.39        0.50191       162.89         
1268.7900     0.35254       14.77         2.495E-3      117.96        2.451E-3      119.84        0.49982       162.69         
1271.7800     0.35414       16.19         2.564E-3      115.68        2.472E-3      116.96        0.49852       162.44         
1274.7700     0.35655       17.48         2.462E-3      116.40        2.454E-3      113.15        0.4976        162.18         
1277.7600     0.35914       18.68         2.406E-3      114.19        2.467E-3      112.80        0.49734       161.93         
1280.7500     0.36208       19.79         2.441E-3      112.11        2.495E-3      112.63        0.49763       161.73         
1283.7400     0.36492       20.83         2.418E-3      110.92        2.512E-3      111.24        0.4983        161.56         
1286.7300     0.36771       21.82         2.523E-3      108.32        2.417E-3      106.73        0.49977       161.45         
1289.7200     0.37041       22.77         2.448E-3      107.37        2.488E-3      104.33        0.50136       161.43         
1292.7100     0.37326       23.69         2.519E-3      103.49        2.494E-3      103.83        0.50315       161.53         
1295.7000     0.37612       24.61         2.529E-3      97.95         2.577E-3      100.43        0.50471       161.68         
1298.6900     0.37906       25.49         2.613E-3      98.51         2.60E-3       98.66         0.50621       161.95         
1301.6800     0.38212       26.38         2.592E-3      96.10         2.652E-3      95.59         0.50713       162.30         
1304.6700     0.38533       27.25         2.59E-3       92.41         2.641E-3      90.61         0.50769       162.70         
1307.6600     0.38865       28.09         2.574E-3      89.22         2.677E-3      90.03         0.50768       163.14         
1310.6500     0.39189       28.95         2.705E-3      86.99         2.717E-3      85.20         0.50699       163.59         
1313.6400     0.39514       29.77         2.602E-3      86.09         2.691E-3      83.85         0.5057        164.01         
1316.6300     0.39887       30.59         2.663E-3      82.00         2.697E-3      79.70         0.50394       164.40         
1319.6200     0.4028        31.38         2.713E-3      78.20         2.756E-3      76.47         0.50175       164.77         
1322.6100     0.4069        32.12         2.72E-3       76.48         2.765E-3      76.23         0.49924       165.07         
1325.6000     0.41134       32.82         2.694E-3      72.53         2.78E-3       68.80         0.49636       165.29         
1328.5900     0.41591       33.45         2.697E-3      68.85         2.709E-3      66.34         0.49368       165.36         
1331.5800     0.4206        34.00         2.644E-3      65.80         2.815E-3      65.41         0.49095       165.33         
1334.5700     0.42472       34.38         2.684E-3      64.31         2.805E-3      63.71         0.4885        165.23         
1337.5600     0.42747       34.83         2.733E-3      60.47         2.798E-3      61.80         0.48653       165.07         
1340.5500     0.42966       35.37         2.793E-3      57.80         2.873E-3      57.36         0.48478       164.85         
1343.5400     0.43242       36.01         2.84E-3       51.55         2.899E-3      53.85         0.48401       164.56         
1346.5300     0.43583       36.64         2.839E-3      49.19         2.958E-3      51.12         0.48384       164.27         
1349.5200     0.43938       37.20         2.858E-3      44.11         3.048E-3      45.92         0.48454       164.00         
1352.5100     0.44276       37.70         2.96E-3       41.72         2.976E-3      43.04         0.48582       163.76         
1355.5000     0.44631       38.17         2.856E-3      39.79         2.995E-3      40.13         0.48768       163.58         
1358.4900     0.44953       38.59         2.824E-3      36.27         2.933E-3      36.26         0.48967       163.51         
1361.4800     0.45257       38.99         2.882E-3      32.99         2.961E-3      34.37         0.49192       163.54         
1364.4700     0.45549       39.39         2.855E-3      30.78         2.938E-3      30.14         0.49431       163.67         
1367.4600     0.4582        39.75         2.821E-3      28.33         2.962E-3      27.30         0.49636       163.88         
1370.4500     0.46094       40.12         2.926E-3      24.73         2.99E-3       23.40         0.4981        164.17         
1373.4400     0.46357       40.45         2.875E-3      20.23         2.991E-3      19.68         0.49935       164.51         
1376.4300     0.46631       40.79         2.966E-3      18.01         2.962E-3      16.60         0.50002       164.92         
1379.4200     0.46906       41.11         2.999E-3      13.33         3.083E-3      13.41         0.50015       165.38         
1382.4100     0.47203       41.43         3.007E-3      9.40          3.017E-3      9.76          0.49968       165.84         
1385.4000     0.47482       41.71         2.952E-3      6.50          2.959E-3      7.63          0.49869       166.26         
1388.3900     0.47756       42.01         3.026E-3      1.77          3.047E-3      3.45          0.49709       166.63         
1391.3800     0.48021       42.33         2.936E-3      0.91          3.031E-3      -1.81         0.49528       166.91         
1394.3700     0.4831        42.65         2.991E-3      -3.81         2.994E-3      -4.27         0.49292       167.13         
1397.3600     0.48669       42.92         2.924E-3      -6.80         2.969E-3      -5.37         0.49053       167.26         
1400.3500     0.49001       42.97         2.967E-3      -9.21         2.971E-3      -10.25        0.48811       167.32         
1403.3400     0.49111       42.87         2.958E-3      -12.55        2.962E-3      -13.56        0.4859        167.27         
1406.3300     0.49038       42.90         2.918E-3      -15.73        2.937E-3      -17.31        0.48433       167.11         
1409.3200     0.4881        43.01         2.884E-3      -19.51        2.943E-3      -19.59        0.48321       166.89         
1412.3100     0.48555       43.42         2.934E-3      -23.47        2.895E-3      -22.00        0.48284       166.61         
1415.3000     0.48459       43.89         2.984E-3      -27.18        2.922E-3      -26.03        0.48306       166.33         
1418.2900     0.48388       44.29         3.011E-3      -30.55        2.971E-3      -29.18        0.48399       166.04         
1421.2800     0.48258       44.64         2.867E-3      -33.72        2.888E-3      -32.69        0.48541       165.81         
1424.2700     0.48086       45.01         2.932E-3      -36.39        2.935E-3      -35.52        0.48735       165.63         
1427.2600     0.47909       45.45         2.913E-3      -39.84        2.925E-3      -40.14        0.48968       165.52         
1430.2500     0.4775        45.92         2.942E-3      -43.88        2.851E-3      -41.64        0.49197       165.52         
1433.2400     0.4762        46.41         2.905E-3      -46.09        2.933E-3      -45.41        0.49424       165.58         
1436.2300     0.47516       46.94         2.902E-3      -49.05        2.928E-3      -49.07        0.49639       165.75         
1439.2200     0.47419       47.49         2.869E-3      -53.12        2.861E-3      -52.12        0.49817       166.00         
1442.2100     0.47351       48.07         2.898E-3      -56.17        2.827E-3      -54.17        0.49963       166.33         
1445.2000     0.47314       48.70         2.842E-3      -58.87        2.815E-3      -58.10        0.50051       166.72         
1448.1900     0.47284       49.35         2.833E-3      -61.67        2.844E-3      -61.48        0.50085       167.11         
1451.1800     0.47297       50.07         2.876E-3      -62.68        2.805E-3      -64.12        0.50048       167.49         
1454.1700     0.47328       50.77         2.871E-3      -67.23        2.836E-3      -65.62        0.49945       167.84         
1457.1600     0.47377       51.49         2.827E-3      -70.63        2.745E-3      -69.06        0.4977        168.16         
1460.1500     0.47427       52.22         2.849E-3      -72.99        2.808E-3      -72.44        0.49558       168.42         
1463.1400     0.47462       52.98         2.823E-3      -76.02        2.859E-3      -75.40        0.49323       168.60         
1466.1300     0.47487       53.72         2.852E-3      -80.01        2.836E-3      -78.02        0.49098       168.64         
1469.1200     0.47511       54.51         2.858E-3      -82.49        2.829E-3      -81.66        0.48894       168.59         
1472.1100     0.47555       55.31         2.876E-3      -85.14        2.826E-3      -82.98        0.48701       168.44         
1475.1000     0.476         56.06         2.829E-3      -87.96        2.864E-3      -88.38        0.4855        168.18         
1478.0900     0.47636       56.77         2.81E-3       -91.94        2.86E-3       -91.58        0.48453       167.87         
1481.0800     0.47695       57.49         2.783E-3      -95.23        2.773E-3      -94.94        0.48405       167.53         
1484.0700     0.47744       58.17         2.83E-3       -97.34        2.863E-3      -97.74        0.48434       167.16         
1487.0600     0.47827       58.85         2.863E-3      -100.45       2.909E-3      -100.85       0.48535       166.80         
1490.0500     0.47939       59.51         2.883E-3      -104.31       2.89E-3       -103.14       0.48687       166.46         
1493.0400     0.48092       60.16         2.832E-3      -105.97       2.838E-3      -107.26       0.48902       166.18         
1496.0300     0.48286       60.75         2.828E-3      -110.61       2.814E-3      -110.85       0.49153       165.98         
1499.0200     0.48499       61.31         2.826E-3      -113.69       2.77E-3       -113.20       0.49426       165.87         
1502.0100     0.4875        61.88         2.908E-3      -115.69       2.808E-3      -116.13       0.49676       165.95         
1505.0000     0.48994       62.38         2.907E-3      -118.63       2.741E-3      -118.70       0.49913       166.07         
1507.9900     0.49265       62.90         2.854E-3      -122.01       2.891E-3      -121.60       0.50132       166.26         
1510.9800     0.49536       63.42         2.868E-3      -125.24       2.784E-3      -126.47       0.50291       166.56         
1513.9700     0.49797       63.94         2.819E-3      -127.71       2.787E-3      -128.37       0.504         166.89         
1516.9600     0.50047       64.47         2.812E-3      -131.62       2.779E-3      -129.59       0.50444       167.29         
1519.9500     0.50268       64.99         2.911E-3      -134.63       2.834E-3      -133.81       0.5041        167.71         
1522.9400     0.50488       65.53         2.847E-3      -136.04       2.802E-3      -138.12       0.50344       168.11         
1525.9300     0.50672       66.06         2.799E-3      -139.47       2.852E-3      -141.29       0.50216       168.46         
1528.9200     0.50814       66.55         2.84E-3       -143.24       2.813E-3      -143.52       0.5004        168.74         
1531.9100     0.50932       67.05         2.819E-3      -146.98       2.833E-3      -146.30       0.49823       168.94         
1534.9000     0.50996       67.50         2.77E-3       -149.68       2.804E-3      -150.44       0.49588       169.05         
1537.8900     0.51056       67.94         2.876E-3      -153.65       2.818E-3      -153.36       0.49345       169.08         
1540.8800     0.51103       68.36         2.912E-3      -156.10       2.921E-3      -156.28       0.49136       169.01         
1543.8700     0.51154       68.78         2.815E-3      -158.87       2.898E-3      -159.75       0.48951       168.83         
1546.8600     0.51196       69.17         2.891E-3      -162.62       2.88E-3       -163.16       0.48821       168.58         
1549.8500     0.51242       69.51         2.91E-3       -165.37       2.858E-3      -166.14       0.48761       168.26         
1552.8400     0.51288       69.84         2.885E-3      -169.38       2.857E-3      -170.68       0.48738       167.90         
1555.8300     0.51336       70.18         2.882E-3      -172.06       2.93E-3       -174.45       0.48781       167.55         
1558.8200     0.51394       70.48         2.817E-3      -177.33       2.959E-3      -176.16       0.48878       167.23         
1561.8100     0.51469       70.80         2.928E-3      -179.89       2.793E-3      179.95        0.4902        166.98         
1564.8000     0.5156        71.13         2.92E-3       176.88        2.851E-3      175.31        0.49186       166.77         
1567.7900     0.51654       71.48         2.828E-3      171.79        2.861E-3      171.55        0.49404       166.64         
1570.7800     0.51751       71.82         2.89E-3       168.80        2.857E-3      168.98        0.49607       166.61         
1573.7700     0.51826       72.19         2.859E-3      165.89        2.832E-3      165.73        0.49798       166.66         
1576.7600     0.51874       72.59         2.835E-3      160.49        2.817E-3      162.53        0.49963       166.79         
1579.7500     0.51899       73.05         2.798E-3      158.32        2.863E-3      158.17        0.50084       167.05         
1582.7400     0.51891       73.52         2.688E-3      154.99        2.843E-3      155.06        0.50172       167.33         
1585.7300     0.51856       74.00         2.734E-3      150.03        2.824E-3      151.22        0.50215       167.66         
1588.7200     0.51781       74.47         2.703E-3      146.64        2.746E-3      146.65        0.50192       168.02         
1591.7100     0.51675       74.96         2.74E-3       144.41        2.749E-3      144.58        0.50115       168.35         
1594.7000     0.51531       75.42         2.685E-3      141.09        2.774E-3      140.93        0.4999        168.66         
1597.6900     0.51379       75.88         2.635E-3      135.88        2.709E-3      139.31        0.49804       168.91         
1600.6800     0.51216       76.33         2.534E-3      133.58        2.668E-3      133.56        0.49604       169.12         
1603.6700     0.51042       76.76         2.584E-3      128.72        2.681E-3      130.94        0.49373       169.24         
1606.6600     0.50859       77.17         2.61E-3       128.30        2.613E-3      128.28        0.49155       169.26         
1609.6500     0.50679       77.54         2.583E-3      122.65        2.51E-3       124.68        0.48953       169.19         
1612.6400     0.50507       77.90         2.484E-3      121.56        2.561E-3      121.06        0.48779       169.03         
1615.6300     0.50335       78.27         2.445E-3      118.93        2.517E-3      118.99        0.4864        168.81         
1618.6200     0.50191       78.64         2.508E-3      115.66        2.477E-3      115.69        0.48528       168.54         
1621.6100     0.50091       78.97         2.414E-3      112.21        2.457E-3      110.09        0.48492       168.24         
1624.6000     0.49992       79.32         2.426E-3      109.12        2.409E-3      107.75        0.48493       167.93         
1627.5900     0.49897       79.66         2.408E-3      107.08        2.451E-3      104.58        0.48564       167.64         
1630.5800     0.49807       80.04         2.39E-3       103.33        2.338E-3      103.24        0.48672       167.38         
1633.5700     0.49725       80.45         2.334E-3      99.96         2.424E-3      99.23         0.4881        167.20         
1636.5600     0.49626       80.87         2.243E-3      98.06         2.341E-3      95.80         0.48972       167.08         
1639.5500     0.4952        81.31         2.332E-3      93.74         2.346E-3      94.15         0.49135       167.08         
1642.5400     0.49357       81.73         2.263E-3      92.08         2.262E-3      90.58         0.49321       167.15         
1645.5300     0.49162       82.15         2.275E-3      89.53         2.251E-3      88.66         0.49485       167.30         
1648.5200     0.48892       82.56         2.264E-3      86.55         2.247E-3      87.11         0.49605       167.52         
1651.5100     0.48546       82.97         2.261E-3      83.88         2.195E-3      84.52         0.49674       167.80         
1654.5000     0.48148       83.38         2.277E-3      79.16         2.265E-3      80.39         0.49694       168.13         
1657.4900     0.47718       83.79         2.229E-3      77.59         2.222E-3      79.65         0.49648       168.48         
1660.4800     0.47237       84.17         2.149E-3      72.89         2.228E-3      74.80         0.49563       168.85         
1663.4700     0.46726       84.53         2.183E-3      71.19         2.26E-3       73.01         0.49426       169.17         
1666.4600     0.46183       84.87         2.151E-3      68.95         2.19E-3       67.61         0.49263       169.45         
1669.4500     0.45611       85.22         2.173E-3      65.60         2.22E-3       65.83         0.49049       169.65         
1672.4400     0.45045       85.56         2.221E-3      61.58         2.177E-3      63.41         0.48818       169.77         
1675.4300     0.4448        85.91         2.143E-3      61.30         2.188E-3      60.05         0.48569       169.81         
1678.4200     0.43917       86.29         2.179E-3      56.61         2.17E-3       57.61         0.48331       169.75         
1681.4100     0.4335        86.67         2.189E-3      52.32         2.168E-3      54.72         0.48101       169.60         
1684.4000     0.4279        87.09         2.243E-3      49.90         2.18E-3       49.65         0.47913       169.37         
1687.3900     0.42219       87.58         2.10E-3       45.96         2.159E-3      50.34         0.47782       169.06         
1690.3800     0.41602       88.09         2.141E-3      45.88         2.126E-3      44.11         0.47704       168.71         
1693.3700     0.40904       88.71         2.07E-3       41.05         2.137E-3      41.87         0.47686       168.33         
1696.3600     0.40084       89.50         2.159E-3      39.49         2.123E-3      37.69         0.47725       167.96         
1699.3500     0.39109       90.61         2.016E-3      34.65         2.003E-3      35.19         0.47818       167.62         
1702.3400     0.38035       92.32         2.027E-3      32.72         2.053E-3      31.61         0.47975       167.35         
1705.3300     0.3715        94.82         1.992E-3      28.65         2.107E-3      28.30         0.48159       167.17         
1708.3200     0.36814       97.87         1.991E-3      27.49         2.00E-3       27.58         0.48361       167.08         
1711.3100     0.37096       100.67        1.991E-3      21.32         2.063E-3      23.94         0.48576       167.08         
1714.3000     0.37679       102.76        2.014E-3      19.47         1.974E-3      21.08         0.48785       167.20         
1717.2900     0.3828        104.24        2.006E-3      15.95         1.945E-3      17.13         0.4896        167.40         
1720.2800     0.38726       105.29        1.987E-3      13.18         1.989E-3      13.56         0.49106       167.70         
1723.2700     0.39041       106.06        1.918E-3      9.52          1.946E-3      12.53         0.49214       168.07         
1726.2600     0.39245       106.72        1.924E-3      7.75          1.924E-3      6.28          0.49275       168.51         
1729.2500     0.39346       107.27        1.907E-3      4.19          1.973E-3      5.80          0.49265       168.96         
1732.2400     0.3939        107.77        2.025E-3      1.61          1.971E-3      0.16          0.49212       169.40         
1735.2300     0.39402       108.22        1.894E-3      -2.89         1.949E-3      -2.82         0.49074       169.83         
1738.2200     0.39413       108.62        1.843E-3      -7.01         1.876E-3      -6.81         0.48894       170.19         
1741.2100     0.39419       108.98        1.793E-3      -8.13         1.87E-3       -8.45         0.48661       170.52         
1744.2000     0.39428       109.34        1.885E-3      -12.45        1.865E-3      -12.81        0.48403       170.74         
1747.1900     0.39451       109.72        1.857E-3      -15.58        1.817E-3      -14.87        0.48144       170.87         
1750.1800     0.39449       110.07        1.778E-3      -19.74        1.778E-3      -19.18        0.47874       170.87         
1753.1700     0.39454       110.48        1.765E-3      -20.82        1.777E-3      -23.47        0.47622       170.79         
1756.1600     0.39433       110.94        1.792E-3      -25.64        1.777E-3      -26.03        0.47397       170.60         
1759.1500     0.39408       111.47        1.678E-3      -30.55        1.712E-3      -28.57        0.47218       170.35         
1762.1400     0.39342       112.06        1.691E-3      -30.82        1.624E-3      -31.75        0.47069       170.03         
1765.1300     0.39264       112.70        1.736E-3      -35.92        1.655E-3      -32.06        0.47015       169.66         
1768.1200     0.39167       113.35        1.639E-3      -36.01        1.64E-3       -39.90        0.47014       169.28         
1771.1100     0.39059       113.93        1.713E-3      -39.84        1.653E-3      -38.17        0.47062       168.92         
1774.1000     0.38833       114.42        1.53E-3       -44.13        1.593E-3      -43.70        0.4716        168.61         
1777.0900     0.38495       114.96        1.564E-3      -45.53        1.633E-3      -46.14        0.47322       168.35         
1780.0800     0.38118       115.51        1.546E-3      -50.79        1.458E-3      -48.36        0.47493       168.22         
1783.0700     0.37707       116.02        1.509E-3      -52.77        1.457E-3      -52.95        0.47717       168.19         
1786.0600     0.37281       116.46        1.399E-3      -57.46        1.447E-3      -54.25        0.47929       168.24         
1789.0500     0.36797       116.85        1.424E-3      -59.41        1.404E-3      -58.61        0.48133       168.38         
1792.0400     0.36294       117.17        1.331E-3      -62.11        1.42E-3       -63.32        0.48287       168.60         
1795.0300     0.35789       117.45        1.421E-3      -65.22        1.372E-3      -64.24        0.48403       168.89         
1798.0200     0.3528        117.67        1.328E-3      -68.94        1.291E-3      -67.65        0.48465       169.24         
1801.0100     0.34778       117.90        1.377E-3      -72.71        1.301E-3      -68.99        0.48472       169.61         
1804.0000     0.34294       118.12        1.274E-3      -74.03        1.288E-3      -76.59        0.48404       169.98         
1806.9900     0.33803       118.33        1.242E-3      -82.74        1.208E-3      -75.80        0.48321       170.32         
1809.9800     0.33333       118.57        1.259E-3      -80.48        1.327E-3      -79.50        0.48175       170.61         
1812.9700     0.32859       118.89        1.128E-3      -83.17        1.212E-3      -84.33        0.47993       170.86         
1815.9600     0.32373       119.28        1.22E-3       -87.96        1.20E-3       -83.15        0.47788       171.00         
1818.9500     0.31871       119.75        1.139E-3      -87.48        1.071E-3      -86.80        0.47567       171.07         
1821.9400     0.31333       120.33        1.07E-3       -91.61        1.094E-3      -89.83        0.4736        171.03         
1824.9300     0.3076        121.00        1.087E-3      -90.72        9.848E-4      -90.74        0.47173       170.89         
1827.9200     0.3013        121.75        1.046E-3      -93.98        9.427E-4      -91.45        0.47019       170.67         
1830.9100     0.29444       122.64        9.891E-4      -91.70        9.702E-4      -90.91        0.46916       170.40         
1833.9000     0.28712       123.61        9.814E-4      -92.23        9.656E-4      -92.61        0.46882       170.08         
1836.8900     0.27933       124.68        8.986E-4      -99.37        9.681E-4      -93.73        0.46903       169.76         
1839.8800     0.27144       125.86        9.448E-4      -99.78        8.716E-4      -100.41       0.46987       169.48         
1842.8700     0.26339       127.07        8.731E-4      -101.28       8.935E-4      -103.56       0.4714        169.23         
1845.8600     0.25507       128.33        7.842E-4      -100.06       8.67E-4       -103.42       0.47346       169.06         
1848.8500     0.24682       129.61        7.90E-4       -96.39        6.459E-4      -100.25       0.47587       168.97         
1851.8400     0.23865       130.96        8.818E-4      -103.53       7.837E-4      -102.97       0.47826       168.99         
1854.8300     0.23073       132.34        7.818E-4      -98.45        7.19E-4       -101.61       0.48052       169.10         
1857.8200     0.2232        133.84        7.755E-4      -96.74        7.729E-4      -100.94       0.48262       169.33         
1860.8100     0.21626       135.37        7.391E-4      -103.77       6.916E-4      -97.29        0.48432       169.66         
1863.8000     0.20988       136.97        7.648E-4      -92.16        7.431E-4      -95.31        0.48572       170.05         
1866.7900     0.20401       138.68        7.775E-4      -99.27        7.102E-4      -91.37        0.48642       170.50         
1869.7800     0.19866       140.49        8.303E-4      -89.80        8.282E-4      -99.46        0.48644       171.00         
1872.7700     0.194         142.44        7.869E-4      -93.10        8.087E-4      -95.37        0.48572       171.46         
1875.7600     0.18983       144.56        7.994E-4      -92.11        8.184E-4      -93.09        0.48427       171.90         
1878.7500     0.18622       146.87        8.954E-4      -91.98        8.027E-4      -92.84        0.48217       172.30         
1881.7400     0.18318       149.38        8.672E-4      -94.89        8.943E-4      -87.32        0.47966       172.60         
1884.7300     0.1807        152.03        1.015E-3      -98.95        9.187E-4      -94.68        0.47681       172.78         
1887.7200     0.17858       154.84        9.454E-4      -99.02        1.029E-3      -89.42        0.47385       172.85         
1890.7100     0.17701       157.70        1.118E-3      -96.59        1.042E-3      -99.28        0.47085       172.79         
1893.7000     0.17558       160.66        1.264E-3      -99.29        1.089E-3      -98.34        0.46825       172.60         
1896.6900     0.17436       163.64        1.127E-3      -103.24       1.173E-3      -100.73       0.46594       172.31         
1899.6800     0.17359       166.73        1.265E-3      -102.47       1.207E-3      -105.57       0.46438       171.94         
1902.6700     0.17308       169.74        1.161E-3      -107.82       1.304E-3      -102.51       0.46353       171.49         
1905.6600     0.17312       172.66        1.233E-3      -109.02       1.413E-3      -110.78       0.46361       171.02         
1908.6500     0.17332       175.40        1.45E-3       -111.60       1.342E-3      -113.72       0.46459       170.53         
1911.6400     0.17351       177.92        1.561E-3      -116.01       1.487E-3      -114.54       0.4663        170.11         
1914.6300     0.17359       -179.76       1.616E-3      -119.22       1.494E-3      -120.97       0.46891       169.76         
1917.6200     0.17364       -177.61       1.66E-3       -125.06       1.624E-3      -121.90       0.47171       169.55         
1920.6100     0.17355       -175.60       1.64E-3       -125.04       1.66E-3       -124.46       0.47492       169.48         
1923.6000     0.17357       -173.72       1.705E-3      -129.81       1.729E-3      -130.42       0.47817       169.55         
1926.5900     0.1735        -171.98       1.817E-3      -135.18       1.793E-3      -134.12       0.48124       169.75         
1929.5800     0.17363       -170.28       1.833E-3      -137.95       1.766E-3      -137.57       0.48371       170.08         
1932.5700     0.17373       -168.58       1.863E-3      -143.40       1.817E-3      -144.12       0.48557       170.52         
1935.5600     0.17394       -166.96       1.86E-3       -146.22       1.843E-3      -148.12       0.48679       171.04         
1938.5500     0.17394       -165.36       1.917E-3      -153.41       1.872E-3      -149.17       0.48714       171.59         
1941.5400     0.17409       -163.66       1.964E-3      -154.01       2.001E-3      -155.25       0.48666       172.17         
1944.5300     0.17442       -161.87       1.89E-3       -159.90       1.946E-3      -159.75       0.48544       172.70         
1947.5200     0.17476       -160.02       1.973E-3      -161.85       1.985E-3      -162.02       0.4834        173.19         
1950.5100     0.17515       -158.06       2.118E-3      -168.98       2.02E-3       -167.88       0.48085       173.61         
1953.5000     0.17566       -156.05       2.105E-3      -172.74       2.158E-3      -172.30       0.47774       173.91         
1956.4900     0.17618       -153.91       2.154E-3      -177.61       2.109E-3      -177.36       0.47441       174.08         
1959.4800     0.17672       -151.75       2.069E-3      179.16        2.08E-3       -179.15       0.47109       174.12         
1962.4700     0.17718       -149.55       2.03E-3       175.09        2.208E-3      172.96        0.46801       173.99         
1965.4600     0.17747       -147.37       2.187E-3      170.59        2.101E-3      170.00        0.46527       173.71         
1968.4500     0.17766       -145.15       2.133E-3      166.39        2.183E-3      165.01        0.46354       173.29         
1971.4400     0.17738       -142.90       2.171E-3      160.25        2.109E-3      161.45        0.46263       172.81         
1974.4300     0.17725       -140.66       2.139E-3      157.39        2.171E-3      158.46        0.46279       172.30         
1977.4200     0.1772        -138.41       2.24E-3       152.75        2.062E-3      155.09        0.46393       171.78         
1980.4100     0.17715       -136.14       2.286E-3      151.13        2.073E-3      148.54        0.46594       171.35         
1983.4000     0.1771        -133.83       2.18E-3       145.39        2.208E-3      146.48        0.46876       171.02         
1986.3900     0.17743       -131.54       2.151E-3      139.98        2.174E-3      142.76        0.47219       170.81         
1989.3800     0.1778        -129.29       2.121E-3      135.69        2.169E-3      137.02        0.47578       170.74         
1992.3700     0.17852       -127.02       2.089E-3      131.13        2.111E-3      132.27        0.47922       170.82         
1995.3600     0.1794        -124.75       2.137E-3      128.82        2.111E-3      127.27        0.48259       171.05         
1998.3500     0.18063       -122.41       2.128E-3      123.25        2.107E-3      123.08        0.48544       171.42         
2001.3400     0.18221       -120.13       2.10E-3       120.43        2.11E-3       121.22        0.48775       171.89         
2004.3300     0.18454       -117.86       2.104E-3      116.78        2.068E-3      116.04        0.48938       172.47         
2007.3200     0.18714       -115.62       1.971E-3      111.17        1.958E-3      113.30        0.49005       173.10         
2010.3100     0.1902        -113.33       1.953E-3      107.34        2.033E-3      108.17        0.48974       173.75         
2013.3000     0.19368       -111.10       1.885E-3      102.20        1.859E-3      104.99        0.48852       174.40         
2016.2900     0.19749       -108.93       1.958E-3      99.56         1.917E-3      101.33        0.48633       174.97         
2019.2800     0.20167       -106.74       1.93E-3       98.17         1.84E-3       96.99         0.48339       175.46         
2022.2700     0.20645       -104.66       1.919E-3      94.02         1.939E-3      93.45         0.47986       175.78         
2025.2600     0.21142       -102.63       1.79E-3       88.99         1.89E-3       88.28         0.47605       175.94         
2028.2500     0.21661       -100.61       1.876E-3      84.88         1.879E-3      84.81         0.47214       175.93         
2031.2400     0.2221        -98.74        1.768E-3      82.57         1.782E-3      79.42         0.46872       175.73         
2034.2300     0.22809       -96.89        1.776E-3      77.02         1.794E-3      77.67         0.46581       175.38         
2037.2200     0.23441       -95.17        1.825E-3      73.23         1.942E-3      77.40         0.46379       174.87         
2040.2100     0.24149       -93.59        1.765E-3      71.47         1.835E-3      73.15         0.46265       174.31         
2043.2000     0.2486        -92.28        1.737E-3      67.29         1.642E-3      68.86         0.46243       173.67         
2046.1900     0.25559       -91.09        1.737E-3      62.71         1.819E-3      65.81         0.46346       173.02         
2049.1800     0.26251       -90.06        1.794E-3      61.92         1.737E-3      64.26         0.46533       172.41         
2052.1700     0.26924       -89.12        1.706E-3      59.37         1.712E-3      59.71         0.46804       171.90         
2055.1600     0.27569       -88.26        1.743E-3      54.30         1.687E-3      52.86         0.47144       171.51         
2058.1500     0.28194       -87.42        1.769E-3      48.53         1.721E-3      50.28         0.47537       171.27         
2061.1400     0.28811       -86.67        1.67E-3       49.53         1.73E-3       46.78         0.47949       171.20         
2064.1300     0.29419       -85.90        1.625E-3      42.64         1.642E-3      46.27         0.48356       171.33         
2067.1200     0.30014       -85.16        1.655E-3      42.31         1.676E-3      42.12         0.48711       171.59         
2070.1100     0.30604       -84.46        1.705E-3      34.65         1.613E-3      37.07         0.49019       172.02         
2073.1000     0.31188       -83.80        1.627E-3      31.01         1.611E-3      35.96         0.49234       172.53         
2076.0900     0.31742       -83.15        1.591E-3      27.19         1.642E-3      30.27         0.49347       173.15         
2079.0800     0.32294       -82.54        1.467E-3      27.83         1.601E-3      27.56         0.4935        173.80         
2082.0700     0.32822       -81.98        1.537E-3      24.07         1.567E-3      25.04         0.49268       174.41         
2085.0600     0.33325       -81.45        1.432E-3      20.76         1.526E-3      21.74         0.4911        174.96         
2088.0500     0.33803       -80.91        1.54E-3       14.79         1.538E-3      18.67         0.48878       175.42         
2091.0400     0.34264       -80.39        1.393E-3      10.45         1.493E-3      17.06         0.48601       175.75         
2094.0300     0.34704       -79.91        1.448E-3      7.74          1.488E-3      8.12          0.48277       175.95         
2097.0200     0.35135       -79.42        1.416E-3      6.52          1.405E-3      4.81          0.4797        175.98         
2100.0100     0.3555        -78.98        1.368E-3      0.44          1.366E-3      0.71          0.47678       175.85         
2103.0000     0.35968       -78.52        1.396E-3      2.19          1.321E-3      -2.76         0.47433       175.56         
2105.9900     0.36379       -78.09        1.442E-3      -5.18         1.434E-3      -12.19        0.47232       175.16         
2108.9800     0.36765       -77.59        1.258E-3      -7.44         1.293E-3      -15.87        0.47138       174.62         
2111.9700     0.37189       -77.09        1.316E-3      -14.21        1.324E-3      -14.13        0.47137       174.03         
2114.9600     0.37621       -76.60        1.242E-3      -13.84        1.119E-3      -20.50        0.4723        173.45         
2117.9500     0.38048       -76.05        1.262E-3      -20.41        1.193E-3      -19.54        0.47424       172.90         
2120.9400     0.38499       -75.51        1.075E-3      -22.55        1.12E-3       -23.89        0.47723       172.42         
2123.9300     0.38938       -74.97        1.144E-3      -25.55        1.139E-3      -27.11        0.48087       172.08         
2126.9200     0.3942        -74.44        1.13E-3       -31.35        1.057E-3      -33.18        0.48492       171.91         
2129.9100     0.39888       -73.98        1.046E-3      -33.37        1.095E-3      -28.90        0.48904       171.90         
2132.9000     0.40322       -73.60        1.06E-3       -31.20        1.076E-3      -38.29        0.49304       172.08         
2135.8900     0.407         -73.30        1.038E-3      -36.63        1.046E-3      -38.29        0.49661       172.41         
2138.8800     0.40978       -73.01        1.034E-3      -42.03        1.094E-3      -39.91        0.49951       172.89         
2141.8700     0.4116        -72.70        9.174E-4      -42.47        9.369E-4      -46.12        0.50173       173.45         
2144.8600     0.41314       -72.36        9.171E-4      -42.58        9.654E-4      -45.77        0.50292       174.08         
2147.8500     0.4144        -72.00        8.537E-4      -49.36        9.219E-4      -54.67        0.5034        174.77         
2150.8400     0.41564       -71.62        8.804E-4      -51.94        9.92E-4       -53.75        0.50275       175.45         
2153.8300     0.41697       -71.28        8.739E-4      -60.81        9.489E-4      -57.46        0.50134       176.07         
2156.8200     0.41847       -70.96        8.418E-4      -62.82        8.386E-4      -59.71        0.49909       176.60         
2159.8100     0.42008       -70.67        8.508E-4      -64.17        8.661E-4      -59.21        0.49633       177.03         
2162.8000     0.42199       -70.42        9.21E-4       -64.24        8.927E-4      -71.81        0.49314       177.33         
2165.7900     0.42388       -70.19        7.447E-4      -65.43        8.715E-4      -67.03        0.48962       177.44         
2168.7800     0.42614       -69.97        8.009E-4      -78.50        7.662E-4      -72.63        0.486         177.41         
2171.7700     0.42852       -69.75        7.567E-4      -72.80        7.866E-4      -71.18        0.4829        177.20         
2174.7600     0.43096       -69.53        6.421E-4      -80.23        8.372E-4      -81.89        0.48027       176.83         
2177.7500     0.43337       -69.28        7.043E-4      -69.25        6.583E-4      -79.52        0.47831       176.34         
2180.7400     0.43559       -69.05        6.434E-4      -89.26        7.204E-4      -81.40        0.47718       175.75         
2183.7300     0.43764       -68.75        6.881E-4      -91.11        6.22E-4       -91.16        0.47729       175.15         
2186.7200     0.43948       -68.45        6.522E-4      -81.11        7.103E-4      -84.38        0.47832       174.53         
2189.7100     0.44079       -68.11        5.99E-4       -90.64        6.136E-4      -88.15        0.4801        173.98         
2192.7000     0.44161       -67.74        5.876E-4      -94.02        6.434E-4      -83.53        0.48285       173.52         
2195.6900     0.44215       -67.37        6.188E-4      -102.44       6.988E-4      -94.29        0.48602       173.19         
2198.6800     0.44211       -66.98        6.263E-4      -95.12        4.565E-4      -93.60        0.4895        173.03         
2201.6700     0.44153       -66.64        5.125E-4      -106.43       6.075E-4      -96.91        0.49313       173.03         
2204.6600     0.44057       -66.29        5.666E-4      -101.35       4.941E-4      -93.49        0.49652       173.16         
2207.6500     0.43918       -65.95        5.559E-4      -100.43       5.071E-4      -107.12       0.49954       173.44         
2210.6400     0.43758       -65.68        5.502E-4      -121.63       6.23E-4       -102.50       0.5019        173.84         
2213.6300     0.43574       -65.44        5.281E-4      -96.51        6.098E-4      -102.73       0.50361       174.31         
2216.6200     0.43382       -65.23        4.40E-4       -109.60       4.558E-4      -93.94        0.50458       174.85         
2219.6100     0.43194       -65.03        4.07E-4       -105.61       5.722E-4      -104.49       0.50475       175.39         
2222.6000     0.43043       -64.88        4.147E-4      -120.61       4.959E-4      -91.00        0.50407       175.92         
2225.5900     0.42921       -64.74        4.018E-4      -117.33       4.172E-4      -107.36       0.50272       176.39         
2228.5800     0.42828       -64.58        4.151E-4      -104.73       6.091E-4      -103.97       0.50072       176.78         
2231.5700     0.42757       -64.41        4.262E-4      -125.69       4.407E-4      -101.35       0.49813       177.05         
2234.5600     0.42715       -64.19        5.135E-4      -110.68       4.272E-4      -118.00       0.49538       177.19         
2237.5500     0.42659       -63.96        4.20E-4       -120.94       4.985E-4      -96.67        0.49238       177.19         
2240.5400     0.42617       -63.63        4.523E-4      -117.94       3.76E-4       -115.42       0.48948       177.02         
2243.5300     0.42574       -63.27        4.63E-4       -123.70       3.434E-4      -127.12       0.487         176.70         
2246.5200     0.42507       -62.82        4.464E-4      -127.69       5.286E-4      -121.24       0.48518       176.26         
2249.5100     0.42416       -62.32        3.526E-4      -134.29       4.399E-4      -123.35       0.48418       175.72         
2252.5000     0.42312       -61.79        4.119E-4      -126.05       3.475E-4      -137.56       0.48393       175.13         
2255.4900     0.42151       -61.23        4.72E-4       -134.24       3.659E-4      -122.59       0.48472       174.53         
2258.4800     0.4196        -60.62        2.723E-4      -138.31       3.524E-4      -131.72       0.48638       173.98         
2261.4700     0.41722       -60.06        3.64E-4       -127.85       3.295E-4      -122.04       0.489         173.50         
2264.4600     0.41437       -59.51        3.754E-4      -148.30       2.565E-4      -153.16       0.49188       173.11         
2267.4500     0.41136       -58.99        3.731E-4      -148.65       3.639E-4      -137.63       0.49544       172.88         
2270.4400     0.40822       -58.53        3.925E-4      -155.92       4.144E-4      -138.33       0.49909       172.78         
2273.4300     0.40506       -58.13        4.592E-4      -141.65       3.493E-4      -140.57       0.50253       172.83         
2276.4200     0.40191       -57.82        3.405E-4      -144.83       3.766E-4      -139.81       0.50615       173.03         
2279.4100     0.39908       -57.58        2.669E-4      -140.91       3.78E-4       -142.07       0.50918       173.33         
2282.4000     0.39653       -57.39        4.493E-4      -156.07       3.73E-4       -129.95       0.51164       173.75         
2285.3900     0.39451       -57.25        3.655E-4      -138.31       3.48E-4       -133.29       0.51344       174.25         
2288.3800     0.39262       -57.12        4.249E-4      -141.87       3.57E-4       -131.19       0.51453       174.81         
2291.3700     0.3912        -57.00        4.205E-4      -149.50       3.569E-4      -144.27       0.51467       175.35         
2294.3600     0.39001       -56.81        2.819E-4      -145.60       3.538E-4      -157.57       0.51402       175.92         
2297.3500     0.3889        -56.60        3.54E-4       -154.76       3.993E-4      -151.00       0.51258       176.42         
2300.3400     0.38802       -56.36        4.581E-4      -141.42       4.075E-4      -151.54       0.5104        176.81         
2303.3300     0.38684       -56.01        3.048E-4      -162.23       4.362E-4      -158.37       0.50778       177.10         
2306.3200     0.3859        -55.61        4.151E-4      -161.88       3.54E-4       -169.12       0.50491       177.23         
2309.3100     0.38458       -55.16        4.191E-4      -167.97       3.791E-4      -157.89       0.5018        177.22         
2312.3000     0.3831        -54.67        4.866E-4      -165.85       3.414E-4      -163.75       0.49906       177.06         
2315.2900     0.38098       -54.13        3.604E-4      -156.96       2.812E-4      176.94        0.49665       176.77         
2318.2800     0.37821       -53.56        5.219E-4      -160.81       3.575E-4      -155.11       0.49474       176.37         
2321.2700     0.37502       -53.06        3.431E-4      -170.96       3.999E-4      -168.82       0.49365       175.87         
2324.2600     0.37136       -52.55        4.823E-4      -171.89       3.661E-4      -169.77       0.49332       175.35         
2327.2500     0.36713       -52.05        4.057E-4      179.98        4.484E-4      -162.06       0.49379       174.80         
2330.2400     0.36299       -51.66        4.373E-4      -173.48       4.255E-4      175.50        0.49502       174.27         
2333.2300     0.35862       -51.30        4.092E-4      -159.53       3.224E-4      -167.18       0.4971        173.78         
2336.2200     0.35447       -51.01        4.142E-4      -176.28       5.208E-4      -169.02       0.49987       173.40         
2339.2100     0.35064       -50.76        4.20E-4       179.77        4.75E-4       178.59        0.50307       173.13         
2342.2000     0.34721       -50.56        4.751E-4      -173.33       4.664E-4      -170.95       0.50668       173.00         
2345.1900     0.34442       -50.40        3.224E-4      169.36        3.495E-4      -163.14       0.5102        173.03         
2348.1800     0.34211       -50.24        4.589E-4      175.57        3.653E-4      175.84        0.51358       173.19         
2351.1700     0.34043       -50.07        4.904E-4      -177.16       4.731E-4      -178.17       0.51678       173.50         
2354.1600     0.33907       -49.91        4.747E-4      158.97        4.015E-4      175.68        0.51906       173.91         
2357.1500     0.33818       -49.73        4.615E-4      177.46        4.462E-4      156.92        0.52076       174.40         
2360.1400     0.33753       -49.49        4.693E-4      158.62        5.228E-4      169.08        0.5216        174.92         
2363.1300     0.33697       -49.22        4.004E-4      163.31        4.457E-4      156.25        0.52141       175.44         
2366.1200     0.33642       -48.90        5.773E-4      152.75        5.331E-4      150.34        0.52071       175.93         
2369.1100     0.33596       -48.55        4.653E-4      155.56        5.525E-4      158.89        0.51929       176.35         
2372.1000     0.33491       -48.14        4.549E-4      151.73        4.628E-4      146.87        0.5172        176.69         
2375.0900     0.33369       -47.72        5.152E-4      163.31        3.971E-4      139.04        0.5149        176.92         
2378.0800     0.3316        -47.33        4.342E-4      146.08        4.017E-4      143.33        0.5122        177.03         
2381.0700     0.3291        -46.97        5.676E-4      151.22        4.336E-4      147.55        0.50946       177.00         
2384.0600     0.32611       -46.65        4.883E-4      138.41        4.654E-4      151.61        0.50709       176.87         
2387.0500     0.32273       -46.43        4.235E-4      153.20        4.903E-4      143.13        0.5046        176.57         
2390.0400     0.31908       -46.26        4.643E-4      144.76        5.092E-4      144.50        0.50289       176.17         
2393.0300     0.31524       -46.25        4.647E-4      153.78        4.554E-4      151.50        0.50215       175.68         
2396.0200     0.31118       -46.33        4.821E-4      132.46        4.357E-4      142.63        0.50205       175.13         
2399.0100     0.30713       -46.48        4.144E-4      123.06        5.829E-4      139.61        0.503         174.56         
2402.0000     0.3033        -46.72        4.584E-4      131.06        5.134E-4      118.64        0.50498       174.06         
2404.9900     0.29983       -47.02        5.485E-4      124.00        5.952E-4      133.02        0.50774       173.64         
2407.9800     0.29617       -47.36        5.239E-4      124.41        6.178E-4      110.21        0.51113       173.36         
2410.9700     0.29295       -47.65        5.258E-4      109.12        4.758E-4      115.69        0.51468       173.24         
2413.9600     0.29016       -47.94        5.291E-4      121.90        4.40E-4       102.15        0.51848       173.27         
2416.9500     0.28757       -48.14        3.626E-4      108.11        4.73E-4       102.17        0.52195       173.45         
2419.9400     0.28524       -48.28        4.188E-4      107.20        5.052E-4      115.95        0.52495       173.76         
2422.9300     0.28285       -48.35        5.541E-4      114.20        5.442E-4      112.02        0.52717       174.17         
2425.9200     0.28049       -48.33        4.773E-4      93.09         5.838E-4      98.63         0.52902       174.68         
2428.9100     0.27777       -48.25        5.301E-4      97.21         4.185E-4      106.62        0.52969       175.21         
2431.9000     0.27473       -48.10        4.438E-4      98.54         5.903E-4      88.81         0.52972       175.79         
2434.8900     0.27082       -47.90        3.592E-4      84.42         4.978E-4      97.90         0.52888       176.34         
2437.8800     0.26657       -47.70        4.932E-4      92.36         4.248E-4      95.85         0.52724       176.85         
2440.8700     0.26167       -47.51        5.341E-4      95.96         3.808E-4      92.69         0.52473       177.27         
2443.8600     0.25639       -47.33        4.89E-4       84.51         3.904E-4      77.40         0.52172       177.55         
2446.8500     0.25089       -47.21        4.301E-4      91.38         3.528E-4      109.15        0.51815       177.69         
2449.8400     0.24513       -47.16        4.686E-4      88.31         3.815E-4      77.92         0.51446       177.66         
2452.8300     0.23947       -47.21        4.992E-4      84.21         4.991E-4      92.84         0.51094       177.43         
2455.8200     0.23389       -47.34        4.917E-4      83.19         5.376E-4      66.60         0.50783       177.05         
2458.8100     0.22832       -47.55        4.856E-4      75.03         5.399E-4      71.01         0.50531       176.52         
2461.8000     0.22327       -47.82        4.505E-4      69.27         4.634E-4      73.81         0.50399       175.84         
2464.7900     0.21857       -48.11        4.538E-4      77.19         3.993E-4      87.82         0.50365       175.15         
2467.7800     0.21441       -48.43        4.756E-4      73.42         4.612E-4      73.93         0.50443       174.44         
2470.7700     0.21082       -48.72        3.925E-4      66.97         5.273E-4      59.74         0.50643       173.75         
2473.7600     0.20772       -48.93        5.269E-4      63.96         5.153E-4      61.34         0.50902       173.19         
2476.7500     0.20508       -49.08        5.821E-4      62.68         6.355E-4      59.70         0.51256       172.74         
2479.7400     0.20265       -49.08        4.488E-4      42.12         5.552E-4      59.76         0.51642       172.45         
2482.7300     0.20031       -49.05        5.021E-4      48.38         4.401E-4      59.39         0.52048       172.32         
2485.7200     0.19811       -48.95        4.386E-4      57.85         5.412E-4      52.81         0.5247        172.35         
2488.7100     0.19506       -48.79        4.256E-4      53.07         5.354E-4      53.46         0.52848       172.54         
2491.7000     0.19105       -48.52        4.465E-4      42.46         4.95E-4       61.89         0.53172       172.89         
2494.6900     0.18647       -48.11        4.535E-4      47.01         6.308E-4      50.18         0.53436       173.35         
2497.6800     0.18083       -47.54        6.453E-4      36.92         5.721E-4      38.06         0.53625       173.90         
2500.6700     0.17537       -46.73        4.381E-4      36.25         4.309E-4      32.85         0.5372        174.51         
2503.6600     0.16989       -45.83        6.006E-4      22.08         4.80E-4       30.59         0.53721       175.13         
2506.6500     0.16466       -45.09        5.358E-4      41.55         4.214E-4      33.64         0.53616       175.69         
2509.6400     0.15963       -44.29        5.863E-4      26.86         4.362E-4      22.80         0.53409       176.20         
2512.6300     0.15498       -43.73        4.924E-4      26.61         5.053E-4      23.76         0.53135       176.60         
2515.6200     0.15043       -43.30        5.003E-4      14.12         5.259E-4      10.14         0.52817       176.84         
2518.6100     0.14645       -43.04        5.215E-4      18.79         5.36E-4       13.03         0.52454       176.90         
2521.6000     0.14284       -42.91        5.31E-4       21.38         6.471E-4      17.60         0.52113       176.80         
2524.5900     0.13998       -42.80        5.422E-4      9.73          5.842E-4      4.78          0.5177        176.51         
2527.5800     0.13753       -42.71        4.757E-4      11.89         5.598E-4      0.79          0.51525       176.06         
2530.5700     0.13599       -42.50        4.949E-4      2.95          5.939E-4      9.64          0.51328       175.49         
2533.5600     0.13495       -42.19        4.95E-4       -2.75         5.641E-4      4.05          0.51244       174.85         
2536.5500     0.1345        -41.75        5.826E-4      -3.00         5.689E-4      -10.54        0.51266       174.18         
2539.5400     0.1345        -41.06        4.093E-4      -8.05         5.659E-4      -7.30         0.51387       173.50         
2542.5300     0.13457       -40.26        5.72E-4       -14.31        5.60E-4       -4.44         0.51611       172.90         
2545.5200     0.13455       -39.29        5.928E-4      -2.62         5.939E-4      -12.10        0.51927       172.40         
2548.5100     0.13455       -38.22        5.35E-4       -22.51        5.433E-4      -14.21        0.52308       172.06         
2551.5000     0.13417       -37.11        4.85E-4       -23.34        5.711E-4      -15.94        0.52715       171.88         
2554.4900     0.13358       -35.89        5.683E-4      -20.96        6.163E-4      -21.41        0.53156       171.90         
2557.4800     0.13267       -34.93        4.278E-4      -23.67        4.839E-4      -20.08        0.53557       172.11         
2560.4700     0.13154       -33.98        4.205E-4      -18.88        4.838E-4      -27.74        0.53918       172.48         
2563.4600     0.12994       -33.31        5.289E-4      -32.13        5.272E-4      -16.82        0.54195       172.98         
2566.4500     0.12818       -32.90        4.517E-4      -31.89        5.255E-4      -40.70        0.54387       173.57         
2569.4400     0.12622       -32.83        5.16E-4       -42.18        4.262E-4      -30.59        0.54455       174.22         
2572.4300     0.12438       -33.09        4.73E-4       -35.55        5.041E-4      -38.61        0.54418       174.87         
2575.4200     0.12253       -33.64        4.908E-4      -45.85        3.816E-4      -34.26        0.54269       175.46         
2578.4100     0.1209        -34.58        5.042E-4      -35.65        5.115E-4      -55.18        0.54032       175.96         
2581.4000     0.11969       -35.74        4.948E-4      -40.01        4.278E-4      -46.07        0.53722       176.33         
2584.3900     0.11875       -37.01        4.512E-4      -48.97        4.84E-4       -47.85        0.53358       176.56         
2587.3800     0.11815       -38.34        5.321E-4      -48.10        5.605E-4      -52.90        0.52982       176.57         
2590.3700     0.11802       -39.58        4.722E-4      -59.05        5.437E-4      -60.94        0.52612       176.43         
2593.3600     0.11821       -40.61        4.555E-4      -57.64        6.312E-4      -56.50        0.52287       176.10         
2596.3500     0.11864       -41.51        5.767E-4      -63.99        5.627E-4      -57.24        0.52011       175.61         
2599.3400     0.11901       -42.18        4.216E-4      -64.15        5.379E-4      -54.08        0.51838       175.01         
2602.3300     0.119         -42.74        5.005E-4      -70.53        5.503E-4      -64.18        0.51772       174.31         
2605.3200     0.11866       -43.09        4.787E-4      -75.79        4.913E-4      -71.99        0.51825       173.59         
2608.3100     0.11799       -43.30        6.013E-4      -73.11        4.622E-4      -61.77        0.52015       172.89         
2611.3000     0.11656       -43.45        4.423E-4      -77.42        5.401E-4      -78.60        0.523         172.30         
2614.2900     0.11449       -43.65        4.244E-4      -77.25        4.652E-4      -76.50        0.52679       171.86         
2617.2800     0.11191       -43.76        3.883E-4      -81.43        4.714E-4      -95.14        0.53093       171.58         
2620.2700     0.10894       -44.07        5.365E-4      -78.80        5.391E-4      -80.06        0.53561       171.50         
2623.2600     0.10564       -44.68        5.078E-4      -79.06        5.478E-4      -91.03        0.54006       171.61         
2626.2500     0.10209       -45.48        5.301E-4      -87.70        4.863E-4      -83.66        0.54434       171.92         
2629.2400     0.09824       -46.55        4.673E-4      -86.20        5.164E-4      -90.31        0.54775       172.37         
2632.2300     0.09441       -47.84        4.471E-4      -91.12        4.484E-4      -92.40        0.55018       172.93         
2635.2200     0.09098       -49.29        4.588E-4      -103.94       4.804E-4      -91.41        0.55175       173.58         
2638.2100     0.08779       -50.86        5.524E-4      -88.65        5.451E-4      -94.24        0.55219       174.27         
2641.2000     0.0851        -52.50        5.64E-4       -92.79        5.421E-4      -96.81        0.55138       174.94         
2644.1900     0.08297       -54.06        4.961E-4      -106.47       5.016E-4      -104.03       0.54974       175.55         
2647.1800     0.08116       -55.55        4.069E-4      -115.17       5.965E-4      -105.97       0.54699       176.06         
2650.1700     0.07954       -56.73        5.422E-4      -99.85        5.172E-4      -111.74       0.54374       176.45         
2653.1600     0.07814       -57.54        5.166E-4      -113.24       5.845E-4      -105.45       0.53989       176.65         
2656.1500     0.07673       -57.98        5.682E-4      -112.61       6.311E-4      -116.97       0.53603       176.70         
2659.1400     0.07511       -58.12        5.409E-4      -111.64       4.743E-4      -110.99       0.53201       176.55         
2662.1300     0.07333       -57.89        4.775E-4      -124.49       5.023E-4      -104.32       0.52842       176.20         
2665.1200     0.07101       -57.24        5.946E-4      -119.73       7.165E-4      -114.47       0.52552       175.70         
2668.1100     0.06846       -56.41        5.139E-4      -126.75       6.507E-4      -120.97       0.52353       175.06         
2671.1000     0.06551       -55.28        5.225E-4      -134.29       5.251E-4      -125.11       0.52275       174.35         
2674.0900     0.06226       -53.87        6.148E-4      -136.36       5.054E-4      -127.15       0.52306       173.62         
2677.0800     0.05883       -52.46        6.311E-4      -132.12       6.463E-4      -143.04       0.52459       172.93         
2680.0700     0.05505       -50.94        4.95E-4       -142.49       6.664E-4      -139.59       0.52738       172.32         
2683.0600     0.05122       -49.40        5.31E-4       -146.74       5.277E-4      -143.76       0.53093       171.87         
2686.0500     0.04757       -48.04        5.704E-4      -154.03       5.572E-4      -149.62       0.53523       171.58         
2689.0400     0.04386       -47.05        5.432E-4      -152.25       5.651E-4      -155.96       0.53949       171.49         
2692.0300     0.04035       -45.63        5.991E-4      -159.01       5.822E-4      -146.87       0.54369       171.58         
2695.0200     0.03717       -44.33        5.937E-4      -165.45       6.043E-4      -159.72       0.54741       171.84         
2698.0100     0.03425       -42.83        6.119E-4      -167.93       6.043E-4      -163.58       0.55044       172.26         
2701.0000     0.03203       -41.27        6.221E-4      -161.48       6.738E-4      -165.74       0.55239       172.77         
2703.9900     0.03019       -39.44        6.179E-4      -172.16       6.381E-4      -167.12       0.55346       173.34         
2706.9800     0.02868       -37.08        6.089E-4      -173.74       5.783E-4      -172.31       0.55332       173.94         
2709.9700     0.02744       -34.14        5.414E-4      -171.77       5.176E-4      -177.82       0.55257       174.52         
2712.9600     0.02645       -30.17        6.118E-4      -178.47       5.515E-4      174.20        0.55061       175.03         
2715.9500     0.02596       -25.25        6.219E-4      165.59        5.655E-4      172.33        0.54787       175.42         
2718.9400     0.02585       -19.01        6.07E-4       164.32        5.259E-4      167.79        0.54466       175.69         
2721.9300     0.02605       -12.49        5.875E-4      161.48        6.183E-4      167.54        0.54083       175.79         
2724.9200     0.02675       -5.39         5.758E-4      147.08        5.723E-4      151.40        0.53691       175.70         
2727.9100     0.02767       2.01          5.618E-4      147.11        5.519E-4      158.47        0.53334       175.41         
2730.9000     0.02901       9.05          5.332E-4      150.08        6.169E-4      152.79        0.53025       174.95         
2733.8900     0.03077       15.75         6.267E-4      154.58        6.925E-4      143.81        0.52804       174.36         
2736.8800     0.03271       21.78         4.699E-4      144.76        6.972E-4      144.13        0.52716       173.66         
2739.8700     0.03471       26.79         5.816E-4      142.01        5.404E-4      139.21        0.52728       172.91         
2742.8600     0.03671       31.31         5.855E-4      138.92        5.463E-4      133.25        0.52886       172.16         
2745.8500     0.03884       35.04         6.314E-4      137.97        5.867E-4      130.54        0.5316        171.53         
2748.8400     0.04069       38.30         4.698E-4      133.69        6.222E-4      140.39        0.53526       171.00         
2751.8300     0.04244       40.71         5.942E-4      121.08        5.542E-4      132.59        0.53961       170.64         
2754.8200     0.04401       42.78         5.809E-4      123.74        5.301E-4      125.41        0.54406       170.45         
2757.8100     0.0452        44.55         5.45E-4       119.39        5.819E-4      124.29        0.54877       170.46         
2760.8000     0.04653       46.46         6.495E-4      111.36        5.431E-4      107.09        0.55308       170.66         
2763.7900     0.04806       48.19         4.883E-4      114.96        5.316E-4      110.51        0.55687       170.98         
2766.7800     0.04975       49.47         4.943E-4      109.11        5.376E-4      118.78        0.56002       171.46         
2769.7700     0.0517        50.84         5.743E-4      106.48        5.495E-4      114.35        0.56229       172.04         
2772.7600     0.05426       52.08         5.565E-4      108.36        4.661E-4      98.39         0.56379       172.70         
2775.7500     0.05691       52.82         5.432E-4      100.56        4.882E-4      93.79         0.56373       173.40         
2778.7400     0.0599        53.61         5.666E-4      88.59         5.308E-4      97.99         0.56288       174.08         
2781.7300     0.0629        54.25         5.528E-4      93.36         5.917E-4      97.15         0.56077       174.70         
2784.7200     0.06604       55.09         4.453E-4      94.94         4.838E-4      86.22         0.55768       175.21         
2787.7100     0.06912       55.98         5.624E-4      92.04         5.099E-4      92.43         0.55375       175.58         
2790.7000     0.0726        57.06         5.887E-4      90.35         5.305E-4      91.85         0.54935       175.78         
2793.6900     0.0761        58.22         4.811E-4      79.93         4.877E-4      80.69         0.54473       175.77         
2796.6800     0.07981       59.14         5.094E-4      89.93         5.905E-4      80.90         0.54034       175.56         
2799.6700     0.08343       60.01         5.071E-4      77.83         3.819E-4      98.58         0.53659       175.17         
2802.6600     0.08695       60.64         5.90E-4       76.59         4.571E-4      70.70         0.53375       174.61         
2805.6500     0.09001       61.30         4.571E-4      71.01         5.074E-4      72.05         0.53199       173.95         
2808.6400     0.09307       62.08         5.383E-4      66.41         4.641E-4      63.01         0.53145       173.21         
2811.6300     0.09598       62.71         4.65E-4       65.33         5.155E-4      58.66         0.53204       172.47         
2814.6200     0.09905       63.25         5.086E-4      66.36         4.897E-4      65.91         0.53372       171.79         
2817.6100     0.10209       63.88         4.888E-4      51.62         4.411E-4      54.05         0.53651       171.18         
2820.6000     0.10512       64.22         4.408E-4      66.23         4.799E-4      61.20         0.54001       170.72         
2823.5900     0.10826       64.60         4.53E-4       49.05         5.001E-4      54.88         0.54412       170.41         
2826.5800     0.11135       64.88         6.392E-4      50.45         4.216E-4      44.61         0.54836       170.26         
2829.5700     0.1145        65.06         5.32E-4       42.43         5.081E-4      41.12         0.5525        170.31         
2832.5600     0.11769       65.29         5.375E-4      45.39         4.863E-4      29.53         0.55627       170.51         
2835.5500     0.12091       65.68         5.70E-4       43.75         5.012E-4      35.67         0.55948       170.87         
2838.5400     0.12447       66.13         5.048E-4      32.36         4.503E-4      44.54         0.56197       171.36         
2841.5300     0.12823       66.55         5.167E-4      34.38         5.841E-4      27.70         0.56326       171.91         
2844.5200     0.13201       67.09         5.155E-4      35.18         5.397E-4      26.53         0.56348       172.51         
2847.5100     0.13614       67.63         4.218E-4      21.30         5.674E-4      35.92         0.56278       173.11         
2850.5000     0.14014       68.05         4.421E-4      26.33         3.785E-4      23.86         0.56089       173.63         
2853.4900     0.14385       68.42         4.207E-4      25.65         4.856E-4      29.74         0.55832       174.07         
2856.4800     0.14711       68.86         4.861E-4      14.74         5.615E-4      13.34         0.55522       174.38         
2859.4700     0.15023       69.37         4.14E-4       17.88         4.396E-4      21.31         0.55178       174.55         
2862.4600     0.15328       69.94         4.048E-4      8.80          3.832E-4      16.11         0.54822       174.56         
2865.4500     0.15659       70.53         4.249E-4      -3.19         5.402E-4      14.90         0.54485       174.41         
2868.4400     0.15977       71.08         5.342E-4      8.58          5.462E-4      6.82          0.54196       174.11         
2871.4300     0.16316       71.58         4.844E-4      -2.52         5.179E-4      -2.46         0.53964       173.65         
2874.4200     0.16683       71.95         5.28E-4       0.64          4.971E-4      3.95          0.53803       173.08         
2877.4100     0.17069       72.25         5.111E-4      -8.42         4.625E-4      -10.34        0.53725       172.46         
2880.4000     0.17405       72.30         5.256E-4      3.58          5.054E-4      2.42          0.53849       171.77         
2883.3900     0.17787       72.53         4.699E-4      -5.03         4.935E-4      -2.66         0.53959       171.12         
2886.3800     0.18197       72.79         4.455E-4      -15.82        4.321E-4      -25.16        0.54183       170.52         
2889.3700     0.18621       73.06         4.494E-4      -15.04        4.522E-4      -12.76        0.54479       170.01         
2892.3600     0.19078       73.40         4.652E-4      -8.80         4.176E-4      -27.13        0.54829       169.63         
2895.3500     0.19546       73.72         4.807E-4      -14.28        5.24E-4       -25.23        0.55229       169.41         
2898.3400     0.20032       74.05         4.935E-4      -27.66        4.02E-4       -15.36        0.55609       169.35         
2901.3300     0.20498       74.38         4.499E-4      -33.94        4.758E-4      -27.61        0.55989       169.47         
2904.3200     0.20956       74.79         4.642E-4      -28.30        3.864E-4      -26.90        0.56297       169.71         
2907.3100     0.214         75.25         4.169E-4      -27.60        5.824E-4      -30.47        0.56551       170.06         
2910.3000     0.21822       75.68         3.962E-4      -39.05        5.106E-4      -46.78        0.56711       170.52         
2913.2900     0.2222        76.10         3.875E-4      -49.42        4.675E-4      -48.41        0.56797       171.01         
2916.2800     0.22615       76.49         4.599E-4      -52.89        4.472E-4      -52.31        0.56795       171.53         
2919.2700     0.22984       76.80         5.467E-4      -55.02        4.733E-4      -57.80        0.56726       172.00         
2922.2600     0.23319       77.03         4.234E-4      -59.02        4.358E-4      -61.35        0.56583       172.46         
2925.2500     0.23619       77.21         4.646E-4      -54.56        4.231E-4      -61.15        0.56387       172.83         
2928.2400     0.23921       77.38         4.731E-4      -62.24        3.724E-4      -85.84        0.5613        173.10         
2931.2300     0.24226       77.56         4.83E-4       -67.81        4.138E-4      -77.35        0.55842       173.20         
2934.2200     0.24532       77.72         5.419E-4      -82.30        5.391E-4      -62.51        0.55544       173.18         
2937.2100     0.24904       77.85         4.147E-4      -72.32        4.035E-4      -77.01        0.55264       173.02         
2940.2000     0.25317       77.92         4.372E-4      -79.72        4.286E-4      -83.87        0.55006       172.71         
2943.1900     0.25755       77.93         3.959E-4      -87.68        4.476E-4      -87.12        0.54814       172.27         
2946.1800     0.26202       77.98         5.114E-4      -89.60        4.931E-4      -84.14        0.5472        171.74         
2949.1700     0.26663       78.06         4.50E-4       -81.14        4.233E-4      -87.91        0.54713       171.16         
2952.1600     0.27139       78.19         3.866E-4      -86.06        3.83E-4       -96.70        0.54792       170.57         
2955.1500     0.27641       78.40         4.652E-4      -92.68        4.154E-4      -99.59        0.54961       170.03         
2958.1400     0.28151       78.64         3.953E-4      -112.64       4.206E-4      -96.64        0.55208       169.56         
2961.1300     0.28637       78.91         3.168E-4      -100.42       3.987E-4      -106.18       0.55534       169.21         
2964.1200     0.29099       79.23         4.293E-4      -111.06       4.369E-4      -118.96       0.55875       169.01         
2967.1100     0.29514       79.61         3.469E-4      -118.94       4.813E-4      -102.76       0.56226       168.95         
2970.1000     0.29877       79.95         3.773E-4      -130.77       3.914E-4      -113.75       0.56566       169.02         
2973.0900     0.30191       80.30         3.415E-4      -140.69       2.874E-4      -114.38       0.56884       169.25         
2976.0800     0.30464       80.63         3.615E-4      -151.33       4.062E-4      -131.29       0.57119       169.60         
2979.0700     0.30687       80.96         3.867E-4      -127.61       4.374E-4      -122.91       0.57335       170.07         
2982.0600     0.30878       81.25         3.126E-4      -138.86       3.106E-4      -130.88       0.57453       170.60         
2985.0500     0.31069       81.48         4.398E-4      -149.42       3.977E-4      -143.10       0.57499       171.17         
2988.0400     0.31259       81.62         2.284E-4      -155.88       3.863E-4      -129.48       0.57433       171.75         
2991.0300     0.31421       81.67         3.997E-4      -143.14       2.989E-4      -157.50       0.57297       172.27         
2994.0200     0.31606       81.68         4.597E-4      -139.07       4.184E-4      -145.65       0.57085       172.72         
2997.0100     0.31795       81.66         3.677E-4      -143.43       3.649E-4      -151.43       0.56791       173.07         
3000.0000     0.3197        81.67         3.647E-4      -161.00       2.763E-4      -150.13       0.56409       173.21         
