!    08/05/2026   13:53:00 
! Ref Plane: 0.000 mm
# MHZ S MA R  50
!
10.0000       0.9991        -178.94       1.089E-4      -108.41       3.258E-5      96.07         0.78088       -2.14          
11.4975       0.99923       -178.78       7.553E-5      10.99         6.043E-6      156.91        0.78234       -2.68          
12.9950       0.99942       -178.63       4.624E-5      -40.18        2.742E-5      113.70        0.78125       -3.14          
14.4925       0.99958       -178.48       6.38E-6       40.98         6.428E-5      76.65         0.77974       -3.57          
15.9900       0.99979       -178.33       1.672E-5      66.37         5.002E-5      98.91         0.77787       -3.99          
17.4875       1.00005       -178.18       1.27E-5       -177.23       4.656E-5      89.04         0.77555       -4.42          
18.9850       1.00022       -178.03       2.025E-5      -19.07        5.27E-5       52.62         0.77226       -4.82          
20.4825       1.0004        -177.88       1.211E-4      177.58        6.77E-5       41.68         0.76764       -5.15          
21.9800       1.00073       -177.74       3.949E-5      86.19         7.019E-5      67.02         0.76248       -5.23          
23.4775       1.00093       -177.58       9.749E-5      66.06         6.122E-5      45.49         0.76198       -5.02          
24.9750       1.00125       -177.43       4.832E-5      80.78         4.208E-5      48.93         0.76771       -5.10          
26.4725       1.00146       -177.29       6.972E-5      -76.42        2.503E-5      -20.31        0.77198       -5.63          
27.9700       1.00169       -177.14       1.075E-4      122.09        4.61E-5       41.33         0.77217       -6.18          
29.4675       1.0019        -176.99       7.042E-5      -14.02        5.027E-5      29.70         0.77393       -6.55          
30.9650       1.00197       -176.85       9.302E-5      -3.66         5.706E-5      -14.57        0.77501       -7.19          
32.4625       1.00207       -176.71       5.252E-5      23.15         4.985E-5      -74.62        0.77372       -7.76          
33.9600       1.0021        -176.56       6.902E-5      -89.63        3.374E-5      -43.45        0.77262       -8.20          
35.4575       1.00217       -176.42       3.052E-5      25.86         1.114E-5      139.50        0.77227       -8.65          
36.9550       1.00213       -176.27       9.658E-5      -54.87        3.751E-5      -69.25        0.77182       -9.12          
38.4525       1.00201       -176.13       8.445E-5      6.12          2.804E-5      -14.89        0.77122       -9.59          
39.9500       1.00191       -175.99       3.501E-5      -85.71        3.42E-5       5.86          0.77043       -10.04         
41.4475       1.0018        -175.85       1.665E-5      102.16        1.139E-5      54.53         0.76993       -10.49         
42.9450       1.00178       -175.70       6.393E-5      -136.53       4.318E-5      -6.98         0.76928       -10.93         
44.4425       1.00167       -175.57       5.056E-5      11.54         5.519E-5      -4.80         0.76843       -11.36         
45.9400       1.00164       -175.43       8.338E-5      43.32         3.212E-5      39.14         0.76734       -11.78         
47.4375       1.00167       -175.28       6.905E-5      79.30         3.323E-5      15.04         0.76589       -12.16         
48.9350       1.00146       -175.15       1.543E-4      24.31         7.101E-5      -10.34        0.76411       -12.52         
50.4325       1.00129       -174.99       4.484E-5      -43.98        3.691E-5      -24.85        0.76192       -12.81         
51.9300       1.00131       -174.86       3.975E-5      -97.32        7.375E-5      -45.75        0.76048       -12.99         
53.4275       1.0011        -174.72       4.772E-5      39.10         5.014E-5      -86.06        0.76139       -13.12         
54.9250       1.00093       -174.57       4.151E-5      -171.77       2.687E-5      -87.19        0.76352       -13.38         
56.4225       1.0009        -174.42       2.637E-5      -64.55        4.475E-5      -140.97       0.76499       -13.75         
57.9200       1.00075       -174.26       1.044E-4      156.73        3.552E-5      -172.05       0.76549       -14.14         
59.4175       1.00066       -174.10       4.203E-5      -139.07       2.42E-5       -58.13        0.76545       -14.50         
60.9150       1.00066       -173.96       2.194E-5      68.12         1.338E-5      -79.09        0.765         -14.86         
62.4125       1.00059       -173.80       2.515E-5      -44.87        2.322E-5      31.66         0.76436       -15.18         
63.9100       1.00069       -173.66       3.513E-5      -154.95       1.895E-5      32.40         0.76345       -15.50         
65.4075       1.0007        -173.50       5.312E-5      91.39         2.859E-5      -110.92       0.76235       -15.80         
66.9050       1.00081       -173.35       6.092E-5      -60.58        6.437E-6      -36.88        0.76099       -16.07         
68.4025       1.00102       -173.20       5.645E-5      19.45         7.738E-5      -78.09        0.75976       -16.30         
69.9000       1.00126       -173.04       3.213E-5      -102.44       3.566E-6      -25.39        0.75911       -16.50         
71.3975       1.00157       -172.88       7.376E-5      130.73        1.253E-5      -85.68        0.75908       -16.74         
72.8950       1.00183       -172.73       1.536E-4      155.66        5.396E-5      -173.27       0.7591        -17.03         
74.3925       1.00206       -172.56       1.262E-4      177.77        3.055E-5      -165.16       0.75872       -17.37         
75.8900       1.00216       -172.40       8.865E-6      152.09        2.701E-5      148.70        0.7577        -17.71         
77.3875       1.00234       -172.24       1.053E-4      110.61        1.876E-5      38.44         0.75625       -18.04         
78.8850       1.00261       -172.07       7.652E-5      21.09         4.355E-5      137.74        0.75465       -18.35         
80.3825       1.00286       -171.91       1.204E-4      89.12         5.555E-5      141.31        0.75317       -18.62         
81.8800       1.0031        -171.75       7.043E-5      147.66        5.07E-5       125.77        0.75209       -18.87         
83.3775       1.00323       -171.60       5.399E-5      -163.44       9.20E-5       111.12        0.75161       -19.16         
84.8750       1.00352       -171.46       3.078E-5      76.89         8.617E-5      131.50        0.75098       -19.52         
86.3725       1.00363       -171.31       1.098E-4      74.52         9.828E-5      108.73        0.74973       -19.92         
87.8700       1.00382       -171.16       1.528E-4      72.97         1.177E-4      68.99         0.74786       -20.29         
89.3675       1.00396       -171.02       7.973E-5      93.52         1.146E-4      64.87         0.74599       -20.63         
90.8650       1.00424       -170.87       1.139E-4      6.29          1.035E-4      26.97         0.74426       -20.98         
92.3625       1.00436       -170.72       9.976E-5      -43.45        1.30E-4       26.81         0.74243       -21.31         
93.8600       1.00445       -170.57       1.022E-4      15.54         1.076E-4      23.78         0.74072       -21.63         
95.3575       1.00456       -170.42       1.117E-5      99.96         8.462E-5      25.26         0.7392        -21.91         
96.8550       1.00466       -170.28       7.215E-5      -38.18        8.28E-5       -10.62        0.73818       -22.17         
98.3525       1.00463       -170.13       9.568E-5      -18.97        7.709E-5      -45.78        0.73768       -22.42         
99.8500       1.00448       -170.00       7.937E-5      -64.16        6.301E-5      7.50          0.73779       -22.70         
101.3475      1.00428       -169.86       4.134E-5      -120.75       4.34E-5       -78.96        0.73841       -23.00         
102.8450      1.00409       -169.72       6.397E-5      -118.46       5.45E-5       -120.86       0.73936       -23.36         
104.3425      1.004         -169.57       6.354E-6      -177.21       3.262E-5      -83.41        0.74048       -23.76         
105.8400      1.00381       -169.44       4.498E-5      -166.06       5.109E-5      -147.53       0.74148       -24.19         
107.3375      1.00372       -169.32       3.854E-5      137.02        2.256E-5      -90.57        0.74223       -24.64         
108.8350      1.00354       -169.18       3.457E-5      174.53        5.456E-5      64.57         0.7428        -25.09         
110.3325      1.00328       -169.03       2.928E-5      -152.45       2.692E-5      -77.55        0.74319       -25.56         
111.8300      1.00304       -168.89       4.32E-5       95.70         8.895E-6      25.77         0.7434        -26.01         
113.3275      1.00278       -168.74       5.11E-5       94.34         4.923E-5      34.00         0.74348       -26.46         
114.8250      1.00253       -168.59       1.568E-5      144.36        5.018E-5      84.68         0.74336       -26.89         
116.3225      1.00238       -168.44       1.977E-5      -170.12       3.351E-5      81.99         0.74321       -27.32         
117.8200      1.00217       -168.30       2.324E-5      112.64        3.68E-5       112.25        0.74288       -27.72         
119.3175      1.00215       -168.16       1.172E-5      98.40         2.972E-5      44.69         0.74253       -28.10         
120.8150      1.0022        -168.01       4.886E-5      104.88        1.472E-5      13.40         0.74202       -28.45         
122.3125      1.00228       -167.86       1.787E-5      90.89         3.332E-5      73.36         0.74136       -28.78         
123.8100      1.00225       -167.70       1.508E-5      71.79         2.566E-5      -137.64       0.74069       -29.10         
125.3075      1.00204       -167.55       2.334E-5      -169.95       6.485E-5      -37.05        0.74006       -29.39         
126.8050      1.00206       -167.39       1.988E-5      176.72        3.219E-5      -19.68        0.73939       -29.68         
128.3025      1.00194       -167.22       3.287E-5      145.44        3.775E-5      -50.93        0.73892       -29.95         
129.8000      1.00206       -167.05       5.328E-5      177.63        4.804E-5      -135.98       0.73852       -30.21         
131.2975      1.00203       -166.89       1.492E-5      104.69        3.871E-5      -40.99        0.73825       -30.47         
132.7950      1.00217       -166.73       5.254E-5      177.70        3.833E-5      -155.37       0.73792       -30.73         
134.2925      1.00222       -166.56       5.409E-5      137.08        5.66E-5       153.64        0.73765       -30.99         
135.7900      1.00231       -166.40       4.991E-5      169.55        2.706E-5      164.27        0.73731       -31.26         
137.2875      1.00237       -166.23       6.167E-5      157.31        4.512E-5      167.44        0.73688       -31.52         
138.7850      1.00252       -166.07       7.632E-5      156.39        9.158E-5      154.05        0.73636       -31.78         
140.2825      1.00279       -165.93       5.571E-5      136.78        7.364E-5      120.14        0.73574       -32.03         
141.7800      1.00307       -165.78       7.676E-5      145.84        1.014E-4      123.32        0.73503       -32.29         
143.2775      1.0034        -165.64       1.012E-4      138.04        9.857E-5      108.40        0.73429       -32.55         
144.7750      1.00372       -165.49       6.724E-5      130.17        1.118E-4      149.54        0.73349       -32.81         
146.2725      1.00411       -165.33       7.906E-5      125.09        5.103E-5      103.95        0.73252       -33.09         
147.7700      1.00445       -165.17       8.845E-5      132.02        5.426E-5      132.46        0.73154       -33.37         
149.2675      1.00477       -165.01       8.623E-5      115.14        1.091E-4      136.64        0.73041       -33.66         
150.7650      1.00488       -164.86       8.445E-5      114.28        1.078E-4      99.73         0.72916       -33.95         
152.2625      1.00513       -164.70       9.177E-5      101.11        6.389E-5      95.84         0.72782       -34.25         
153.7600      1.00529       -164.55       1.444E-4      93.72         1.333E-4      96.26         0.72649       -34.56         
155.2575      1.00538       -164.39       8.183E-5      72.60         1.459E-4      74.68         0.72514       -34.87         
156.7550      1.00537       -164.25       1.118E-4      76.10         1.545E-4      78.41         0.72371       -35.19         
158.2525      1.00539       -164.10       1.067E-4      80.69         1.535E-4      86.84         0.72233       -35.51         
159.7500      1.00548       -163.96       1.408E-4      68.21         1.426E-4      76.76         0.72109       -35.84         
161.2475      1.0055        -163.83       1.305E-4      62.33         9.208E-5      59.65         0.71981       -36.17         
162.7450      1.00551       -163.70       9.786E-5      75.77         1.044E-4      57.65         0.71862       -36.49         
164.2425      1.00537       -163.57       1.55E-4       71.48         1.72E-4       50.94         0.71759       -36.82         
165.7400      1.00523       -163.43       1.235E-4      58.05         1.155E-4      32.17         0.71672       -37.15         
167.2375      1.00506       -163.29       1.236E-4      62.77         1.924E-4      24.23         0.71606       -37.49         
168.7350      1.00497       -163.15       1.503E-4      60.68         1.503E-4      44.79         0.71559       -37.81         
170.2325      1.00484       -163.01       1.154E-4      42.37         1.432E-4      20.86         0.71529       -38.15         
171.7300      1.00463       -162.86       9.892E-5      37.38         6.647E-5      15.45         0.71511       -38.50         
173.2275      1.00451       -162.71       9.969E-5      27.00         1.453E-4      24.52         0.71512       -38.85         
174.7250      1.00434       -162.56       9.372E-5      41.30         1.395E-4      26.19         0.71523       -39.22         
176.2225      1.00397       -162.41       7.406E-5      3.89          1.36E-4       24.27         0.71538       -39.59         
177.7200      1.00366       -162.28       8.154E-5      10.76         9.314E-5      -8.99         0.71546       -39.95         
179.2175      1.00326       -162.13       1.155E-4      -3.16         1.215E-4      -1.76         0.71552       -40.31         
180.7150      1.00297       -161.99       1.955E-4      15.17         1.211E-4      -3.96         0.71549       -40.66         
182.2125      1.00277       -161.83       1.123E-4      27.06         1.451E-4      -1.52         0.71538       -41.02         
183.7100      1.00238       -161.68       9.698E-5      29.40         6.832E-5      26.87         0.71526       -41.39         
185.2075      1.00197       -161.54       1.233E-4      16.67         1.614E-4      15.32         0.71511       -41.74         
186.7050      1.00176       -161.40       9.231E-5      2.63          5.714E-5      -13.73        0.71494       -42.07         
188.2025      1.00151       -161.25       9.385E-5      9.46          1.249E-4      29.06         0.71479       -42.39         
189.7000      1.00134       -161.09       8.763E-5      -5.70         1.208E-4      -3.42         0.71464       -42.71         
191.1975      1.00112       -160.94       7.502E-5      1.20          1.24E-4       12.22         0.71448       -43.01         
192.6950      1.00093       -160.78       1.399E-4      7.54          1.415E-4      25.34         0.7144        -43.31         
194.1925      1.0009        -160.64       1.19E-4       7.36          8.721E-5      -6.98         0.7142        -43.60         
195.6900      1.0011        -160.51       9.99E-5       -0.32         1.295E-4      -4.77         0.71403       -43.88         
197.1875      1.00128       -160.37       7.931E-5      -1.54         1.517E-4      20.51         0.71388       -44.15         
198.6850      1.00153       -160.22       1.067E-4      -3.98         1.461E-4      -9.15         0.71363       -44.41         
200.1825      1.00183       -160.07       8.776E-5      -2.94         1.323E-4      -21.11        0.71346       -44.66         
201.6800      1.00214       -159.91       1.272E-4      -9.50         1.162E-4      -13.00        0.71315       -44.91         
203.1775      1.00252       -159.75       1.271E-4      -21.65        1.208E-4      2.57          0.71271       -45.15         
204.6750      1.00282       -159.58       1.065E-4      -26.50        1.519E-4      -34.66        0.71217       -45.38         
206.1725      1.0032        -159.42       1.278E-4      -26.87        9.827E-5      -5.63         0.71152       -45.62         
207.6700      1.00353       -159.25       1.011E-4      -30.21        3.921E-5      1.30          0.71075       -45.87         
209.1675      1.00389       -159.08       1.053E-4      -44.25        1.216E-4      -44.39        0.70976       -46.13         
210.6650      1.00427       -158.91       9.909E-5      -17.04        9.808E-5      -42.09        0.70885       -46.41         
212.1625      1.00442       -158.75       1.144E-4      -57.82        1.287E-4      -34.84        0.70789       -46.69         
213.6600      1.00453       -158.59       1.37E-4       -33.78        1.474E-4      -26.60        0.70699       -46.97         
215.1575      1.00464       -158.44       1.491E-4      -45.90        1.915E-4      -46.14        0.70605       -47.27         
216.6550      1.00471       -158.29       1.323E-4      -58.12        1.618E-4      -50.26        0.70518       -47.56         
218.1525      1.00498       -158.15       1.575E-4      -61.72        2.098E-4      -62.86        0.70418       -47.87         
219.6500      1.0053        -158.01       1.85E-4       -74.59        2.126E-4      -72.98        0.70317       -48.19         
221.1475      1.0056        -157.87       1.549E-4      -81.22        1.768E-4      -73.74        0.70222       -48.52         
222.6450      1.00588       -157.71       1.422E-4      -93.05        1.926E-4      -97.95        0.70121       -48.87         
224.1425      1.00622       -157.54       1.276E-4      -100.51       1.694E-4      -75.09        0.70027       -49.22         
225.6400      1.00638       -157.35       1.09E-4       -110.88       1.285E-4      -66.95        0.69932       -49.58         
227.1375      1.00648       -157.18       1.224E-4      -85.90        3.289E-5      -142.44       0.69838       -49.95         
228.6350      1.00624       -157.01       1.052E-4      -110.66       1.141E-4      -92.40        0.69741       -50.34         
230.1325      1.00613       -156.85       8.437E-5      -70.71        6.873E-5      -89.47        0.69644       -50.73         
231.6300      1.00587       -156.69       7.138E-5      -120.91       9.483E-5      -98.55        0.69543       -51.13         
233.1275      1.00555       -156.54       4.165E-5      -112.12       2.669E-5      101.84        0.69434       -51.54         
234.6250      1.00507       -156.39       6.955E-5      -118.44       5.182E-5      -127.92       0.6932        -51.95         
236.1225      1.00462       -156.23       5.862E-5      -92.42        1.561E-4      -80.81        0.69218       -52.38         
237.6200      1.00423       -156.08       4.337E-5      -99.20        9.262E-5      -71.43        0.69107       -52.80         
239.1175      1.0036        -155.94       3.444E-5      -76.31        1.141E-4      -64.89        0.69011       -53.22         
240.6150      1.00312       -155.79       8.486E-5      -98.66        4.129E-5      -14.77        0.68922       -53.64         
242.1125      1.00255       -155.64       5.163E-5      -117.57       6.774E-5      -43.07        0.6883        -54.06         
243.6100      1.00206       -155.49       4.362E-5      -136.69       9.297E-5      -84.31        0.68737       -54.48         
245.1075      1.00157       -155.34       4.578E-5      -142.28       5.997E-5      -125.73       0.68652       -54.89         
246.6050      1.00131       -155.20       4.561E-5      -158.35       1.662E-5      42.71         0.68557       -55.30         
248.1025      1.00103       -155.05       1.985E-5      -125.26       3.357E-5      -125.80       0.68471       -55.69         
249.6000      1.00078       -154.91       5.063E-5      168.74        3.717E-5      -165.65       0.68379       -56.08         
251.0975      1.00063       -154.78       4.979E-5      128.38        3.897E-5      -128.46       0.68301       -56.46         
252.5950      1.00066       -154.63       1.863E-5      137.30        5.134E-5      -139.56       0.68221       -56.81         
254.0925      1.0006        -154.50       3.564E-5      -153.36       4.294E-5      7.43          0.68137       -57.15         
255.5900      1.00061       -154.35       9.735E-6      -157.46       1.976E-5      -17.90        0.6806        -57.48         
257.0875      1.00076       -154.21       1.675E-5      -164.20       4.71E-5       -63.17        0.67984       -57.79         
258.5850      1.00101       -154.05       1.967E-5      57.99         3.334E-5      -132.32       0.67889       -58.07         
260.0825      1.00122       -153.90       4.283E-5      11.35         6.065E-5      106.46        0.67798       -58.33         
261.5800      1.00151       -153.73       1.051E-5      161.53        5.831E-5      76.36         0.67696       -58.58         
263.0775      1.00173       -153.56       3.999E-5      20.83         8.221E-5      25.51         0.67578       -58.82         
264.5750      1.00187       -153.40       5.512E-5      23.52         4.585E-5      -9.47         0.67465       -59.05         
266.0725      1.00216       -153.25       2.258E-5      -58.35        1.221E-4      12.23         0.67353       -59.26         
267.5700      1.00241       -153.09       8.767E-5      -31.76        1.368E-4      11.75         0.67244       -59.49         
269.0675      1.00276       -152.95       8.624E-5      -35.26        8.914E-5      19.09         0.67128       -59.70         
270.5650      1.0032        -152.81       1.084E-4      -30.90        1.513E-4      -47.58        0.67017       -59.92         
272.0625      1.00383       -152.66       1.147E-4      -60.84        1.119E-4      -29.58        0.66911       -60.13         
273.5600      1.00451       -152.53       9.965E-5      -42.33        8.695E-5      -48.17        0.66815       -60.34         
275.0575      1.00525       -152.38       1.298E-4      -61.32        1.259E-4      -54.09        0.66714       -60.56         
276.5550      1.00599       -152.23       1.034E-4      -80.03        1.804E-4      -63.43        0.66621       -60.76         
278.0525      1.00662       -152.06       1.129E-4      -63.79        1.056E-4      -50.89        0.66524       -60.96         
279.5500      1.00697       -151.88       1.291E-4      -84.53        2.041E-4      -78.72        0.66427       -61.17         
281.0475      1.00711       -151.70       1.269E-4      -95.13        2.131E-4      -71.08        0.66334       -61.39         
282.5450      1.00715       -151.51       1.656E-4      -96.03        1.613E-4      -77.41        0.66235       -61.60         
284.0425      1.00702       -151.32       1.377E-4      -108.88       1.417E-4      -60.41        0.66139       -61.82         
285.5400      1.00679       -151.13       1.486E-4      -105.98       1.079E-4      -72.08        0.66025       -62.05         
287.0375      1.00657       -150.94       1.469E-4      -97.79        2.591E-4      -98.77        0.65906       -62.28         
288.5350      1.00634       -150.76       1.773E-4      -106.52       1.464E-4      -92.03        0.65782       -62.53         
290.0325      1.00606       -150.59       1.969E-4      -117.26       2.04E-4       -93.09        0.65663       -62.79         
291.5300      1.00562       -150.43       1.556E-4      -110.94       1.679E-4      -110.44       0.65537       -63.07         
293.0275      1.00514       -150.27       1.774E-4      -119.66       1.206E-4      -113.03       0.65417       -63.35         
294.5250      1.00457       -150.10       1.403E-4      -117.47       1.836E-4      -112.79       0.65301       -63.64         
296.0225      1.00405       -149.94       1.457E-4      -129.44       1.653E-4      -97.28        0.65191       -63.94         
297.5200      1.00346       -149.79       2.205E-4      -120.42       1.793E-4      -137.18       0.65087       -64.25         
299.0175      1.00283       -149.63       1.578E-4      -130.02       2.144E-4      -136.15       0.64987       -64.56         
300.5150      1.00236       -149.47       1.937E-4      -130.95       1.781E-4      -126.38       0.64901       -64.87         
302.0125      1.00179       -149.32       1.959E-4      -137.09       1.505E-4      -139.62       0.64815       -65.19         
303.5100      1.00127       -149.17       1.739E-4      -134.78       1.566E-4      -113.96       0.64741       -65.53         
305.0075      1.00068       -149.02       2.038E-4      -141.96       1.821E-4      -115.47       0.64667       -65.86         
306.5050      1.00036       -148.87       1.823E-4      -143.41       2.312E-4      -113.55       0.64614       -66.20         
308.0025      1.00001       -148.73       1.502E-4      -146.73       1.252E-4      -132.32       0.64562       -66.53         
309.5000      0.9997        -148.59       1.864E-4      -133.63       1.184E-4      -129.16       0.64518       -66.86         
310.9975      0.99942       -148.45       1.55E-4       -145.21       1.078E-4      -145.91       0.64482       -67.18         
312.4950      0.99928       -148.30       1.651E-4      -156.69       1.598E-4      -134.38       0.64441       -67.50         
313.9925      0.99899       -148.16       1.699E-4      -143.93       1.682E-4      -138.39       0.64402       -67.81         
315.4900      0.99873       -148.01       1.513E-4      -158.35       1.901E-4      -145.50       0.64362       -68.12         
316.9875      0.99855       -147.86       1.94E-4       -150.56       1.966E-4      -168.75       0.64324       -68.42         
318.4850      0.99837       -147.72       1.54E-4       -164.52       1.53E-4       -140.96       0.64286       -68.72         
319.9825      0.99838       -147.58       1.336E-4      -147.86       1.778E-4      -136.54       0.64248       -69.01         
321.4800      0.99835       -147.44       1.294E-4      -159.42       1.589E-4      -176.64       0.64216       -69.30         
322.9775      0.99865       -147.31       1.297E-4      -142.06       2.018E-4      -156.42       0.64179       -69.58         
324.4750      0.99904       -147.17       1.309E-4      -147.25       2.311E-4      -173.38       0.64145       -69.85         
325.9725      0.99955       -147.03       1.493E-4      -161.80       1.644E-4      -163.01       0.64106       -70.11         
327.4700      1.00016       -146.87       1.256E-4      -138.07       1.22E-4       -161.69       0.64074       -70.38         
328.9675      1.00097       -146.72       1.673E-4      -141.29       9.882E-5      -168.22       0.6404        -70.64         
330.4650      1.00167       -146.55       1.44E-4       -149.79       1.317E-4      -110.91       0.64004       -70.89         
331.9625      1.00239       -146.38       1.387E-4      -131.58       1.185E-4      -153.83       0.63978       -71.13         
333.4600      1.0031        -146.19       1.499E-4      -147.24       2.299E-4      -158.71       0.63953       -71.37         
334.9575      1.00373       -146.00       1.645E-4      -142.58       1.043E-4      -154.23       0.63937       -71.60         
336.4550      1.00424       -145.79       1.675E-4      -146.07       1.896E-4      -146.04       0.6392        -71.82         
337.9525      1.00465       -145.58       1.297E-4      -168.90       1.441E-4      -132.97       0.63902       -72.04         
339.4500      1.00497       -145.38       1.551E-4      -147.26       8.901E-5      -87.31        0.6388        -72.24         
340.9475      1.00514       -145.17       1.904E-4      -153.48       1.782E-4      -125.19       0.63847       -72.45         
342.4450      1.00521       -144.97       1.987E-4      -138.68       1.897E-4      -108.59       0.6381        -72.66         
343.9425      1.00525       -144.78       2.052E-4      -136.49       1.432E-4      -127.15       0.63759       -72.89         
345.4400      1.00511       -144.60       1.781E-4      -125.53       2.673E-4      -118.20       0.63709       -73.11         
346.9375      1.00509       -144.42       2.605E-4      -130.92       2.157E-4      -141.25       0.63661       -73.34         
348.4350      1.00501       -144.25       2.579E-4      -124.63       2.409E-4      -109.32       0.63608       -73.58         
349.9325      1.00479       -144.07       3.474E-4      -122.95       2.843E-4      -121.49       0.63557       -73.85         
351.4300      1.00464       -143.89       3.624E-4      -131.84       3.628E-4      -133.71       0.63502       -74.12         
352.9275      1.00448       -143.72       3.296E-4      -132.18       2.923E-4      -116.98       0.63446       -74.41         
354.4250      1.00417       -143.55       3.838E-4      -144.78       3.128E-4      -146.59       0.63391       -74.69         
355.9225      1.00382       -143.38       3.507E-4      -151.84       3.058E-4      -147.84       0.63335       -75.00         
357.4200      1.00332       -143.21       4.075E-4      -152.16       3.932E-4      -149.98       0.63278       -75.32         
358.9175      1.00284       -143.05       3.754E-4      -151.59       3.664E-4      -162.76       0.63224       -75.66         
360.4150      1.00241       -142.89       4.082E-4      -159.05       4.147E-4      -158.17       0.63174       -75.99         
361.9125      1.00205       -142.73       3.85E-4       -167.34       4.079E-4      -171.88       0.63123       -76.33         
363.4100      1.00159       -142.58       3.96E-4       -171.53       4.103E-4      -174.52       0.63074       -76.68         
364.9075      1.00115       -142.43       4.115E-4      179.69        4.45E-4       -169.25       0.63031       -77.03         
366.4050      1.00049       -142.28       4.50E-4       -176.20       4.248E-4      -178.83       0.62981       -77.39         
367.9025      0.99984       -142.14       3.817E-4      177.54        4.475E-4      177.01        0.62929       -77.75         
369.4000      0.99916       -142.00       4.19E-4       172.43        3.766E-4      178.54        0.62867       -78.11         
370.8975      0.99854       -141.88       4.02E-4       157.96        4.954E-4      168.29        0.62806       -78.48         
372.3950      0.9982        -141.76       3.749E-4      164.63        4.805E-4      149.93        0.62741       -78.86         
373.8925      0.99791       -141.63       3.642E-4      167.08        4.646E-4      164.51        0.62679       -79.24         
375.3900      0.99765       -141.52       3.649E-4      153.25        4.159E-4      154.00        0.62618       -79.62         
376.8875      0.99764       -141.39       3.593E-4      153.34        3.802E-4      161.51        0.62556       -79.99         
378.3850      0.99785       -141.26       3.691E-4      147.01        3.401E-4      139.26        0.6249        -80.37         
379.8825      0.99823       -141.12       3.522E-4      150.20        4.349E-4      144.57        0.6244        -80.76         
381.3800      0.99854       -140.98       3.517E-4      139.23        3.821E-4      146.46        0.62392       -81.13         
382.8775      0.99887       -140.82       3.427E-4      148.17        3.757E-4      146.04        0.62346       -81.51         
384.3750      0.99945       -140.67       3.29E-4       142.36        3.525E-4      135.31        0.623         -81.86         
385.8725      0.9999        -140.51       2.842E-4      141.82        3.068E-4      144.16        0.62264       -82.21         
387.3700      1.00047       -140.35       2.769E-4      142.29        2.651E-4      135.86        0.62222       -82.56         
388.8675      1.00096       -140.17       2.976E-4      130.97        3.32E-4       139.33        0.62193       -82.89         
390.3650      1.0014        -139.98       2.93E-4       142.90        3.573E-4      128.18        0.62152       -83.22         
391.8625      1.00189       -139.79       2.435E-4      139.30        1.973E-4      114.36        0.62119       -83.53         
393.3600      1.00204       -139.58       2.956E-4      133.17        3.346E-4      140.63        0.62092       -83.82         
394.8575      1.00212       -139.38       3.204E-4      136.08        3.322E-4      133.49        0.62055       -84.10         
396.3550      1.00229       -139.19       3.127E-4      144.28        3.996E-4      144.20        0.62025       -84.37         
397.8525      1.00227       -138.99       3.015E-4      130.81        3.162E-4      113.43        0.61983       -84.63         
399.3500      1.00233       -138.80       3.114E-4      132.77        2.022E-4      113.91        0.61936       -84.88         
400.8475      1.00232       -138.61       3.171E-4      127.48        2.545E-4      113.33        0.61882       -85.13         
402.3450      1.00239       -138.41       3.165E-4      128.11        3.279E-4      118.10        0.61817       -85.36         
403.8425      1.00242       -138.22       3.191E-4      124.45        3.99E-4       129.48        0.61747       -85.59         
405.3400      1.00257       -138.04       3.59E-4       119.37        3.315E-4      114.14        0.61666       -85.83         
406.8375      1.00267       -137.83       2.817E-4      126.95        3.23E-4       107.26        0.61585       -86.06         
408.3350      1.00283       -137.65       3.236E-4      115.72        2.966E-4      123.68        0.61486       -86.29         
409.8325      1.00282       -137.45       2.909E-4      118.99        2.635E-4      107.70        0.61387       -86.51         
411.3300      1.0029        -137.26       3.167E-4      131.28        3.721E-4      112.38        0.61287       -86.74         
412.8275      1.00278       -137.08       3.661E-4      126.17        3.864E-4      106.08        0.61192       -86.97         
414.3250      1.00243       -136.89       3.337E-4      122.44        5.03E-4       132.67        0.61102       -87.20         
415.8225      1.00199       -136.71       4.106E-4      121.82        3.931E-4      126.54        0.61008       -87.43         
417.3200      1.00138       -136.55       4.19E-4       118.15        4.519E-4      107.99        0.60918       -87.66         
418.8175      1.00066       -136.38       3.952E-4      117.11        5.355E-4      114.16        0.60834       -87.90         
420.3150      0.99985       -136.22       4.508E-4      111.79        4.42E-4       109.25        0.6075        -88.13         
421.8125      0.999         -136.06       4.621E-4      114.55        5.142E-4      116.76        0.60656       -88.37         
423.3100      0.99795       -135.92       4.305E-4      103.39        4.479E-4      115.06        0.6055        -88.62         
424.8075      0.99709       -135.77       4.558E-4      106.18        4.49E-4       102.40        0.60442       -88.88         
426.3050      0.99625       -135.63       4.54E-4       98.62         4.335E-4      97.66         0.6033        -89.15         
427.8025      0.99566       -135.50       5.15E-4       94.90         4.986E-4      97.78         0.60201       -89.43         
429.3000      0.99511       -135.37       4.761E-4      94.12         4.819E-4      85.62         0.60063       -89.73         
430.7975      0.99473       -135.25       4.869E-4      94.34         5.047E-4      98.78         0.59928       -90.03         
432.2950      0.99469       -135.10       5.075E-4      89.23         5.239E-4      84.76         0.59782       -90.35         
433.7925      0.99467       -134.97       5.082E-4      81.94         4.728E-4      96.06         0.59637       -90.68         
435.2900      0.99493       -134.83       4.869E-4      84.60         4.929E-4      98.74         0.59489       -91.02         
436.7875      0.99503       -134.68       4.894E-4      86.31         5.033E-4      85.75         0.59341       -91.37         
438.2850      0.99539       -134.54       5.329E-4      76.74         6.367E-4      68.90         0.59203       -91.72         
439.7825      0.99556       -134.39       5.081E-4      73.25         4.195E-4      84.89         0.59071       -92.08         
441.2800      0.99588       -134.23       6.075E-4      73.40         4.645E-4      74.78         0.58941       -92.45         
442.7775      0.99611       -134.08       5.51E-4       71.04         5.047E-4      61.61         0.58834       -92.81         
444.2750      0.99618       -133.91       5.729E-4      64.89         4.812E-4      68.83         0.58727       -93.17         
445.7725      0.99636       -133.75       5.626E-4      66.11         5.756E-4      61.56         0.58627       -93.51         
447.2700      0.99644       -133.57       6.452E-4      63.83         4.886E-4      65.47         0.58537       -93.85         
448.7675      0.99649       -133.40       6.249E-4      60.85         6.042E-4      60.68         0.58448       -94.19         
450.2650      0.99658       -133.22       5.827E-4      59.02         6.028E-4      63.73         0.58362       -94.51         
451.7625      0.99651       -133.05       5.491E-4      59.14         6.265E-4      47.00         0.5827        -94.82         
453.2600      0.99646       -132.86       5.976E-4      56.57         5.077E-4      51.73         0.5819        -95.12         
454.7575      0.99649       -132.68       6.11E-4       49.75         6.975E-4      49.65         0.58114       -95.41         
456.2550      0.99681       -132.51       6.438E-4      50.77         7.061E-4      46.62         0.58044       -95.69         
457.7525      0.99683       -132.32       6.297E-4      47.50         6.742E-4      42.15         0.57974       -95.95         
459.2500      0.99713       -132.14       6.295E-4      40.95         6.356E-4      41.23         0.57905       -96.20         
460.7475      0.99734       -131.94       6.853E-4      34.98         7.395E-4      41.99         0.57839       -96.44         
462.2450      0.99782       -131.75       7.043E-4      36.57         6.761E-4      37.84         0.57776       -96.67         
463.7425      0.99827       -131.54       7.11E-4       36.42         6.968E-4      34.79         0.57713       -96.89         
465.2400      0.99865       -131.33       6.826E-4      32.68         7.103E-4      29.50         0.57656       -97.11         
466.7375      0.99873       -131.12       6.752E-4      28.23         7.706E-4      22.05         0.57602       -97.32         
468.2350      0.99874       -130.90       7.171E-4      22.19         7.485E-4      25.87         0.5755        -97.53         
469.7325      0.99866       -130.68       6.607E-4      25.15         7.23E-4       26.52         0.57498       -97.72         
471.2300      0.99844       -130.47       6.776E-4      19.08         7.727E-4      27.19         0.57459       -97.89         
472.7275      0.99798       -130.26       6.94E-4       16.82         6.575E-4      20.43         0.57425       -98.07         
474.2250      0.99757       -130.07       7.059E-4      13.79         6.861E-4      19.61         0.57385       -98.23         
475.7225      0.99709       -129.89       6.96E-4       11.70         7.308E-4      12.79         0.57348       -98.37         
477.2200      0.99663       -129.72       7.181E-4      7.15          7.148E-4      18.09         0.57309       -98.51         
478.7175      0.99629       -129.56       7.078E-4      4.50          7.23E-4       3.04          0.57267       -98.64         
480.2150      0.99597       -129.40       7.533E-4      2.25          7.731E-4      3.57          0.57208       -98.77         
481.7125      0.99549       -129.26       7.172E-4      -4.27         6.725E-4      -9.44         0.57147       -98.88         
483.2100      0.99532       -129.12       7.082E-4      -4.98         7.481E-4      -4.84         0.57073       -99.01         
484.7075      0.99522       -128.98       7.57E-4       -7.23         6.769E-4      -7.86         0.56988       -99.14         
486.2050      0.99528       -128.85       6.916E-4      -10.83        7.331E-4      -14.02        0.5689        -99.28         
487.7025      0.99524       -128.71       7.557E-4      -14.05        7.407E-4      -14.26        0.56788       -99.43         
489.2000      0.99532       -128.57       7.20E-4       -19.65        7.265E-4      -20.72        0.56669       -99.59         
490.6975      0.99541       -128.43       7.263E-4      -19.78        7.148E-4      -20.13        0.56545       -99.77         
492.1950      0.99542       -128.29       7.396E-4      -22.79        7.555E-4      -17.44        0.56415       -99.96         
493.6925      0.99547       -128.14       7.577E-4      -27.22        7.363E-4      -30.32        0.56285       -100.17        
495.1900      0.99523       -127.99       7.538E-4      -32.06        7.961E-4      -36.76        0.56151       -100.41        
496.6875      0.99505       -127.83       7.452E-4      -32.43        8.167E-4      -36.76        0.56021       -100.65        
498.1850      0.99486       -127.68       7.518E-4      -39.87        7.457E-4      -35.87        0.55889       -100.91        
499.6825      0.99449       -127.52       7.154E-4      -44.23        7.206E-4      -45.46        0.5576        -101.20        
501.1800      0.99413       -127.37       7.342E-4      -47.00        8.229E-4      -51.18        0.55636       -101.48        
502.6775      0.99365       -127.21       7.273E-4      -51.24        8.009E-4      -54.98        0.55521       -101.79        
504.1750      0.99327       -127.06       7.453E-4      -53.28        8.011E-4      -53.06        0.55403       -102.10        
505.6725      0.99274       -126.91       7.587E-4      -54.99        7.51E-4       -51.71        0.55285       -102.41        
507.1700      0.99245       -126.76       7.418E-4      -58.95        7.385E-4      -52.90        0.55169       -102.75        
508.6675      0.99198       -126.61       7.587E-4      -63.35        7.57E-4       -62.93        0.55057       -103.09        
510.1650      0.99182       -126.45       7.299E-4      -69.16        7.118E-4      -61.86        0.5494        -103.44        
511.6625      0.99172       -126.29       7.135E-4      -70.90        6.82E-4       -65.88        0.54836       -103.81        
513.1600      0.99173       -126.12       6.402E-4      -71.82        7.194E-4      -66.77        0.54732       -104.18        
514.6575      0.9918        -125.95       7.218E-4      -76.12        6.997E-4      -78.68        0.54637       -104.57        
516.1550      0.99181       -125.76       6.561E-4      -81.03        6.822E-4      -81.45        0.54552       -104.97        
517.6525      0.99195       -125.55       6.756E-4      -84.36        7.375E-4      -90.14        0.54477       -105.36        
519.1500      0.99197       -125.35       6.472E-4      -84.34        6.57E-4       -84.57        0.5441        -105.76        
520.6475      0.99196       -125.14       6.692E-4      -94.10        7.049E-4      -92.59        0.5436        -106.17        
522.1450      0.9918        -124.93       6.199E-4      -92.29        7.50E-4       -91.03        0.54324       -106.57        
523.6425      0.99136       -124.72       6.168E-4      -97.51        6.504E-4      -93.76        0.543         -106.98        
525.1400      0.99099       -124.51       5.86E-4       -101.28       5.19E-4       -103.93       0.54292       -107.39        
526.6375      0.99065       -124.30       5.71E-4       -104.32       5.135E-4      -93.32        0.543         -107.78        
528.1350      0.99028       -124.11       5.235E-4      -109.72       6.069E-4      -106.54       0.54322       -108.17        
529.6325      0.98978       -123.92       5.215E-4      -107.62       4.933E-4      -101.19       0.54363       -108.55        
531.1300      0.98949       -123.75       5.216E-4      -115.80       5.351E-4      -109.33       0.5441        -108.91        
532.6275      0.98941       -123.57       4.99E-4       -113.33       4.844E-4      -109.80       0.54465       -109.24        
534.1250      0.98929       -123.41       4.516E-4      -113.02       4.731E-4      -120.86       0.54537       -109.56        
535.6225      0.98934       -123.25       4.918E-4      -121.58       4.047E-4      -116.53       0.54606       -109.86        
537.1200      0.98943       -123.09       4.602E-4      -120.04       3.93E-4       -107.90       0.5468        -110.14        
538.6175      0.98952       -122.94       4.548E-4      -124.28       4.158E-4      -125.13       0.5475        -110.41        
540.1150      0.98987       -122.79       4.316E-4      -124.04       4.762E-4      -130.39       0.54818       -110.66        
541.6125      0.9902        -122.63       3.676E-4      -126.36       4.249E-4      -133.62       0.54882       -110.89        
543.1100      0.99061       -122.46       4.202E-4      -120.91       4.195E-4      -127.72       0.54935       -111.11        
544.6075      0.99078       -122.30       4.187E-4      -125.30       3.656E-4      -126.85       0.54986       -111.32        
546.1050      0.99101       -122.14       3.953E-4      -130.48       3.575E-4      -128.39       0.55025       -111.53        
547.6025      0.99109       -121.98       3.974E-4      -133.02       4.633E-4      -133.78       0.55059       -111.73        
549.1000      0.99111       -121.81       4.029E-4      -128.98       4.271E-4      -142.58       0.55088       -111.92        
550.5975      0.99116       -121.66       3.09E-4       -131.83       4.113E-4      -136.51       0.55106       -112.12        
552.0950      0.99071       -121.49       3.963E-4      -131.15       4.91E-4       -135.94       0.55119       -112.31        
553.5925      0.99021       -121.33       3.863E-4      -130.45       3.203E-4      -139.19       0.55128       -112.49        
555.0900      0.98962       -121.16       3.884E-4      -133.00       4.355E-4      -131.50       0.55136       -112.67        
556.5875      0.98903       -121.00       3.938E-4      -135.08       5.325E-4      -129.96       0.55137       -112.84        
558.0850      0.98819       -120.86       3.883E-4      -135.86       4.331E-4      -122.19       0.55127       -113.01        
559.5825      0.98746       -120.72       4.195E-4      -141.74       3.801E-4      -142.30       0.5511        -113.19        
561.0800      0.98665       -120.57       3.841E-4      -143.26       4.203E-4      -140.29       0.55086       -113.36        
562.5775      0.98596       -120.43       3.861E-4      -151.41       3.98E-4       -148.27       0.55058       -113.52        
564.0750      0.9853        -120.28       4.437E-4      -148.79       5.216E-4      -156.07       0.55014       -113.69        
565.5725      0.98478       -120.12       4.12E-4       -155.47       4.11E-4       -153.42       0.54957       -113.86        
567.0700      0.98446       -119.95       4.058E-4      -151.59       3.972E-4      -146.01       0.54897       -114.04        
568.5675      0.98406       -119.79       4.141E-4      -162.33       4.792E-4      -152.26       0.54825       -114.23        
570.0650      0.98361       -119.61       4.354E-4      -160.29       4.249E-4      -155.80       0.54737       -114.43        
571.5625      0.98321       -119.42       4.003E-4      -164.44       4.761E-4      -170.08       0.54646       -114.65        
573.0600      0.98303       -119.24       3.89E-4       -168.31       4.189E-4      -163.24       0.54544       -114.87        
574.5575      0.98275       -119.04       3.603E-4      179.52        4.335E-4      -163.12       0.54435       -115.12        
576.0550      0.98247       -118.85       4.136E-4      178.73        4.665E-4      -170.01       0.54329       -115.38        
577.5525      0.98199       -118.66       3.172E-4      177.93        3.358E-4      169.75        0.54229       -115.65        
579.0500      0.98151       -118.48       4.022E-4      176.70        4.097E-4      172.01        0.5413        -115.92        
580.5475      0.98094       -118.32       4.419E-4      164.35        4.222E-4      161.27        0.54043       -116.22        
582.0450      0.98038       -118.15       3.457E-4      165.43        2.952E-4      166.74        0.53964       -116.52        
583.5425      0.97991       -118.00       3.182E-4      164.05        2.285E-4      155.08        0.53883       -116.83        
585.0400      0.97959       -117.84       3.474E-4      156.09        3.309E-4      -175.93       0.53816       -117.15        
586.5375      0.97941       -117.70       3.821E-4      147.23        3.016E-4      147.00        0.53759       -117.46        
588.0350      0.97928       -117.56       3.586E-4      148.68        3.952E-4      131.58        0.5371        -117.79        
589.5325      0.97931       -117.42       2.694E-4      146.43        3.615E-4      142.39        0.53668       -118.09        
591.0300      0.97951       -117.28       3.229E-4      146.32        4.015E-4      153.24        0.53637       -118.41        
592.5275      0.97967       -117.13       3.135E-4      143.73        4.242E-4      147.82        0.53615       -118.71        
594.0250      0.97994       -116.98       3.112E-4      136.91        3.535E-4      146.07        0.53601       -119.00        
595.5225      0.98026       -116.82       3.554E-4      143.48        3.101E-4      141.16        0.53592       -119.29        
597.0200      0.9807        -116.66       3.355E-4      138.38        2.535E-4      138.95        0.53585       -119.57        
598.5175      0.98114       -116.49       2.831E-4      132.90        3.609E-4      137.26        0.53579       -119.85        
600.0150      0.98165       -116.32       2.65E-4       129.69        2.799E-4      119.72        0.53581       -120.12        
601.5125      0.98196       -116.15       3.269E-4      127.98        3.171E-4      121.23        0.53582       -120.39        
603.0100      0.98216       -115.98       3.416E-4      122.76        3.424E-4      127.47        0.53593       -120.64        
604.5075      0.98223       -115.81       3.707E-4      126.32        3.259E-4      121.35        0.53598       -120.90        
606.0050      0.98232       -115.65       3.124E-4      120.11        3.916E-4      135.75        0.5361        -121.14        
607.5025      0.98223       -115.48       3.422E-4      112.33        4.106E-4      130.27        0.53624       -121.39        
609.0000      0.98198       -115.32       2.929E-4      115.58        3.20E-4       114.70        0.53634       -121.63        
610.4975      0.98165       -115.16       3.62E-4       109.80        2.488E-4      102.73        0.53645       -121.86        
611.9950      0.98117       -115.02       3.159E-4      109.20        2.439E-4      116.32        0.53668       -122.09        
613.4925      0.98059       -114.89       3.446E-4      105.83        3.84E-4       115.13        0.53685       -122.31        
614.9900      0.98014       -114.75       3.709E-4      99.40         3.358E-4      109.68        0.537         -122.51        
616.4875      0.97946       -114.62       3.301E-4      102.05        4.103E-4      103.79        0.53709       -122.71        
617.9850      0.97885       -114.49       3.064E-4      91.78         3.624E-4      99.61         0.53718       -122.89        
619.4825      0.97824       -114.36       3.775E-4      88.70         3.037E-4      94.02         0.53723       -123.08        
620.9800      0.97746       -114.23       3.817E-4      92.66         3.923E-4      97.72         0.53709       -123.26        
622.4775      0.97674       -114.10       3.93E-4       85.89         3.443E-4      89.15         0.53695       -123.43        
623.9750      0.97573       -113.96       3.846E-4      82.52         3.552E-4      74.78         0.53664       -123.60        
625.4725      0.97486       -113.82       3.517E-4      72.11         3.294E-4      70.33         0.53624       -123.78        
626.9700      0.97387       -113.70       3.505E-4      70.15         2.829E-4      75.27         0.53571       -123.96        
628.4675      0.97274       -113.56       3.994E-4      66.37         2.772E-4      58.86         0.53502       -124.15        
629.9650      0.97145       -113.42       3.704E-4      67.02         2.926E-4      66.40         0.53423       -124.35        
631.4625      0.97016       -113.30       3.68E-4       62.03         3.761E-4      67.15         0.53342       -124.55        
632.9600      0.9686        -113.17       3.71E-4       57.13         4.191E-4      56.47         0.53252       -124.77        
634.4575      0.96703       -113.05       3.903E-4      52.35         2.681E-4      58.74         0.53156       -125.00        
635.9550      0.96541       -112.94       3.783E-4      46.89         3.278E-4      53.54         0.53063       -125.24        
637.4525      0.9641        -112.84       3.062E-4      43.05         3.224E-4      45.95         0.5297        -125.50        
638.9500      0.96275       -112.73       3.379E-4      41.17         3.306E-4      49.44         0.5287        -125.75        
640.4475      0.96151       -112.63       3.224E-4      40.81         2.847E-4      50.61         0.52784       -126.02        
641.9450      0.96041       -112.53       3.004E-4      41.72         3.454E-4      33.83         0.52696       -126.31        
643.4425      0.95952       -112.44       2.933E-4      33.69         3.345E-4      22.37         0.52611       -126.60        
644.9400      0.95867       -112.34       2.911E-4      30.48         3.199E-4      28.11         0.52527       -126.90        
646.4375      0.95792       -112.23       2.141E-4      40.66         2.759E-4      29.83         0.52446       -127.20        
647.9350      0.95727       -112.13       2.629E-4      42.33         2.291E-4      20.65         0.52369       -127.51        
649.4325      0.95664       -112.03       3.526E-4      38.62         4.09E-4       48.38         0.52295       -127.82        
650.9300      0.95567       -111.92       3.815E-4      27.92         3.883E-4      39.13         0.52235       -128.13        
652.4275      0.95484       -111.78       4.396E-4      17.53         3.961E-4      19.94         0.52177       -128.45        
653.9250      0.95409       -111.63       4.083E-4      10.36         3.913E-4      21.85         0.52126       -128.77        
655.4225      0.95339       -111.48       3.893E-4      -3.24         3.725E-4      10.67         0.52072       -129.08        
656.9200      0.95282       -111.33       4.518E-4      -5.36         4.709E-4      14.47         0.5203        -129.40        
658.4175      0.95202       -111.17       3.61E-4       -7.64         2.927E-4      -10.02        0.51992       -129.72        
659.9150      0.9513        -111.01       3.566E-4      -20.80        3.228E-4      -24.46        0.51964       -130.05        
661.4125      0.95057       -110.86       3.168E-4      -21.22        3.705E-4      -38.00        0.51944       -130.36        
662.9100      0.94985       -110.69       3.176E-4      -25.21        3.485E-4      -33.52        0.51929       -130.68        
664.4075      0.949         -110.53       3.129E-4      -30.87        3.177E-4      -43.09        0.51922       -130.99        
665.9050      0.9481        -110.37       2.831E-4      -37.45        2.77E-4       -41.90        0.51921       -131.29        
667.4025      0.94708       -110.21       3.058E-4      -43.53        3.272E-4      -70.18        0.51922       -131.59        
668.9000      0.94612       -110.05       2.736E-4      -38.34        2.962E-4      -52.71        0.51931       -131.87        
670.3975      0.94506       -109.89       2.115E-4      -44.08        3.243E-4      -52.06        0.51951       -132.15        
671.8950      0.94393       -109.72       2.879E-4      -62.61        2.257E-4      -50.38        0.51969       -132.42        
673.3925      0.94284       -109.54       2.771E-4      -57.12        2.778E-4      -67.97        0.51994       -132.67        
674.8900      0.94166       -109.37       2.243E-4      -68.39        1.733E-4      -59.95        0.52016       -132.91        
676.3875      0.94042       -109.19       2.451E-4      -75.94        1.971E-4      -78.36        0.52041       -133.14        
677.8850      0.93921       -109.01       2.466E-4      -79.32        2.505E-4      -94.98        0.5205        -133.35        
679.3825      0.93784       -108.82       1.845E-4      -84.80        2.255E-4      -100.63       0.52059       -133.55        
680.8800      0.93651       -108.64       1.504E-4      -96.60        1.692E-4      -94.83        0.52058       -133.75        
682.3775      0.93519       -108.46       1.552E-4      -105.99       1.112E-4      -99.60        0.52047       -133.94        
683.8750      0.93405       -108.29       1.421E-4      -102.87       1.27E-4       -111.21       0.52026       -134.13        
685.3725      0.93303       -108.13       7.534E-5      -118.00       1.826E-4      -124.10       0.52004       -134.31        
686.8700      0.93218       -107.99       6.83E-5       -134.05       5.508E-5      -107.77       0.51964       -134.50        
688.3675      0.93165       -107.91       2.951E-5      113.14        3.313E-5      -123.71       0.51922       -134.69        
689.8650      0.93092       -107.93       1.074E-4      3.09          1.498E-4      3.67          0.51866       -134.88        
691.3625      0.92785       -108.04       2.219E-4      -8.01         2.599E-4      18.21         0.5181        -135.08        
692.8600      0.92241       -108.03       2.806E-4      -38.18        2.754E-4      -45.22        0.5174        -135.29        
694.3575      0.91761       -107.87       3.451E-4      -54.00        3.481E-4      -53.29        0.51669       -135.49        
695.8550      0.91446       -107.67       3.145E-4      -66.97        2.706E-4      -80.54        0.51593       -135.71        
697.3525      0.91231       -107.48       2.983E-4      -80.23        3.777E-4      -89.12        0.5151        -135.93        
698.8500      0.91057       -107.32       2.907E-4      -89.00        2.826E-4      -94.38        0.51426       -136.17        
700.3475      0.90907       -107.18       2.937E-4      -106.88       2.938E-4      -84.60        0.51341       -136.41        
701.8450      0.90782       -107.05       2.125E-4      -99.92        2.199E-4      -99.15        0.51249       -136.66        
703.3425      0.90659       -106.92       2.622E-4      -116.14       2.421E-4      -114.55       0.51155       -136.93        
704.8400      0.90535       -106.80       2.28E-4       -119.14       1.944E-4      -148.11       0.5106        -137.20        
706.3375      0.90435       -106.68       2.339E-4      -128.07       1.697E-4      -130.16       0.50958       -137.48        
707.8350      0.9033        -106.56       1.988E-4      -131.17       2.041E-4      -125.70       0.50857       -137.77        
709.3325      0.90226       -106.45       2.011E-4      -132.43       2.403E-4      -147.62       0.50759       -138.06        
710.8300      0.90121       -106.35       1.856E-4      -147.19       2.088E-4      -153.68       0.5066        -138.36        
712.3275      0.9002        -106.24       1.624E-4      -144.42       9.323E-5      168.26        0.50571       -138.67        
713.8250      0.8992        -106.13       1.979E-4      -144.33       1.691E-4      -153.52       0.50488       -138.99        
715.3225      0.89817       -106.04       1.584E-4      -142.54       1.727E-4      -164.64       0.50407       -139.32        
716.8200      0.8972        -105.94       1.582E-4      -139.07       1.647E-4      -173.72       0.50336       -139.66        
718.3175      0.89621       -105.84       1.257E-4      -154.57       1.246E-4      -145.14       0.50279       -139.99        
719.8150      0.8953        -105.73       1.131E-4      -167.63       1.518E-4      174.37        0.50232       -140.34        
721.3125      0.89439       -105.61       1.141E-4      173.46        1.727E-4      163.71        0.50199       -140.69        
722.8100      0.89325       -105.51       9.461E-5      159.45        1.737E-4      146.67        0.50174       -141.03        
724.3075      0.89208       -105.39       8.76E-5       -179.88       8.804E-5      169.60        0.50172       -141.35        
725.8050      0.89087       -105.27       4.965E-5      152.95        8.144E-5      133.75        0.50176       -141.69        
727.3025      0.88959       -105.14       7.269E-5      178.78        5.597E-5      143.47        0.50191       -142.00        
728.8000      0.8881        -105.01       5.665E-5      160.69        1.204E-4      -161.26       0.50209       -142.31        
730.2975      0.88636       -104.88       4.333E-5      93.20         9.374E-5      138.07        0.5024        -142.60        
731.7950      0.88459       -104.75       2.963E-5      149.56        6.906E-5      114.66        0.50274       -142.87        
733.2925      0.88247       -104.62       1.736E-5      167.14        8.905E-5      141.49        0.50316       -143.14        
734.7900      0.88011       -104.49       2.926E-5      36.38         3.459E-5      156.65        0.50363       -143.38        
736.2875      0.87754       -104.35       3.831E-5      36.66         4.511E-5      -164.07       0.50413       -143.61        
737.7850      0.87475       -104.22       6.946E-5      -24.43        7.636E-5      -11.19        0.50454       -143.83        
739.2825      0.87168       -104.08       1.053E-4      -34.17        1.362E-4      26.85         0.50498       -144.04        
740.7800      0.86848       -103.94       9.288E-5      -8.09         4.707E-5      41.80         0.50543       -144.23        
742.2775      0.8652        -103.81       1.207E-4      -25.63        1.257E-4      -4.86         0.50578       -144.41        
743.7750      0.86182       -103.68       1.733E-4      -29.03        1.707E-4      -35.22        0.50613       -144.59        
745.2725      0.85832       -103.55       1.697E-4      -35.66        1.535E-4      -33.00        0.50637       -144.75        
746.7700      0.85462       -103.43       1.648E-4      -37.89        1.746E-4      -55.24        0.50659       -144.90        
748.2675      0.85104       -103.30       2.137E-4      -45.22        2.025E-4      -27.07        0.50665       -145.04        
749.7650      0.84754       -103.17       2.278E-4      -53.51        2.096E-4      -36.41        0.50675       -145.17        
751.2625      0.84405       -103.04       2.175E-4      -58.72        2.605E-4      -54.28        0.50678       -145.30        
752.7600      0.84049       -102.90       2.469E-4      -60.95        2.268E-4      -66.21        0.50666       -145.43        
754.2575      0.83704       -102.77       2.35E-4       -63.38        2.167E-4      -82.08        0.50649       -145.55        
755.7550      0.83364       -102.65       2.588E-4      -73.69        2.584E-4      -75.90        0.50624       -145.68        
757.2525      0.83031       -102.54       2.416E-4      -82.65        2.691E-4      -93.56        0.50588       -145.80        
758.7500      0.82672       -102.46       2.403E-4      -90.00        2.276E-4      -84.14        0.50535       -145.92        
760.2475      0.82257       -102.37       2.253E-4      -90.09        2.388E-4      -85.97        0.50475       -146.06        
761.7450      0.81819       -102.25       2.376E-4      -84.12        1.944E-4      -84.10        0.50398       -146.19        
763.2425      0.81397       -102.11       2.303E-4      -79.98        1.575E-4      -100.38       0.50312       -146.35        
764.7400      0.80997       -101.94       2.014E-4      -88.84        2.628E-4      -84.25        0.50212       -146.50        
766.2375      0.80631       -101.78       2.266E-4      -91.85        1.423E-4      -89.55        0.50103       -146.67        
767.7350      0.80273       -101.60       2.212E-4      -95.67        1.634E-4      -89.88        0.49986       -146.86        
769.2325      0.7995        -101.44       2.26E-4       -93.72        2.485E-4      -87.48        0.49863       -147.06        
770.7300      0.79644       -101.25       2.497E-4      -93.94        2.882E-4      -99.38        0.49739       -147.28        
772.2275      0.79365       -101.06       2.184E-4      -96.83        1.70E-4       -82.49        0.49614       -147.53        
773.7250      0.79106       -100.87       2.134E-4      -98.39        2.145E-4      -98.72        0.49492       -147.78        
775.2225      0.78866       -100.67       2.772E-4      -99.64        1.634E-4      -88.33        0.4937        -148.05        
776.7200      0.78645       -100.48       2.364E-4      -97.40        2.116E-4      -100.33       0.49253       -148.35        
778.2175      0.78428       -100.27       2.392E-4      -103.99       2.006E-4      -94.07        0.49146       -148.67        
779.7150      0.7823        -100.07       2.451E-4      -107.90       2.507E-4      -113.40       0.49051       -148.99        
781.2125      0.78032       -99.85        2.834E-4      -102.81       2.944E-4      -110.72       0.48966       -149.33        
782.7100      0.77841       -99.64        2.599E-4      -112.11       3.183E-4      -121.01       0.48889       -149.66        
784.2075      0.77636       -99.41        2.637E-4      -107.67       2.891E-4      -124.51       0.48817       -150.01        
785.7050      0.77429       -99.19        2.847E-4      -106.96       2.914E-4      -110.63       0.48757       -150.36        
787.2025      0.77209       -98.97        2.548E-4      -109.87       2.67E-4       -118.07       0.48706       -150.71        
788.7000      0.76982       -98.75        2.786E-4      -115.89       2.766E-4      -120.84       0.48661       -151.06        
790.1975      0.7674        -98.53        2.698E-4      -114.69       2.987E-4      -109.67       0.48631       -151.41        
791.6950      0.76486       -98.32        2.704E-4      -121.62       2.546E-4      -125.24       0.48604       -151.76        
793.1925      0.76222       -98.12        3.501E-4      -120.66       3.712E-4      -130.20       0.48593       -152.11        
794.6900      0.75949       -97.91        2.838E-4      -125.43       3.333E-4      -112.32       0.48591       -152.45        
796.1875      0.75669       -97.70        2.786E-4      -129.46       3.682E-4      -122.65       0.48597       -152.78        
797.6850      0.75393       -97.50        2.831E-4      -130.68       3.036E-4      -125.48       0.4861        -153.11        
799.1825      0.75098       -97.30        3.006E-4      -130.97       3.269E-4      -127.64       0.48636       -153.43        
800.6800      0.74802       -97.10        3.366E-4      -126.91       3.971E-4      -130.89       0.48663       -153.73        
802.1775      0.74491       -96.91        3.334E-4      -133.37       3.959E-4      -129.26       0.48704       -154.03        
803.6750      0.74175       -96.71        3.525E-4      -141.95       3.673E-4      -132.55       0.4875        -154.30        
805.1725      0.73847       -96.52        3.248E-4      -145.16       3.566E-4      -140.27       0.48801       -154.56        
806.6700      0.73498       -96.32        3.181E-4      -141.69       3.187E-4      -140.59       0.48851       -154.80        
808.1675      0.73142       -96.13        3.325E-4      -142.46       3.275E-4      -146.55       0.48913       -155.02        
809.6650      0.72756       -95.93        3.113E-4      -139.92       4.046E-4      -139.17       0.48973       -155.22        
811.1625      0.72362       -95.74        3.388E-4      -149.78       3.268E-4      -153.79       0.49033       -155.40        
812.6600      0.71952       -95.54        3.329E-4      -147.02       3.499E-4      -147.79       0.49093       -155.57        
814.1575      0.71542       -95.35        3.222E-4      -146.68       3.457E-4      -140.63       0.49143       -155.72        
815.6550      0.71117       -95.16        3.101E-4      -151.27       3.562E-4      -142.32       0.49184       -155.86        
817.1525      0.70686       -94.98        3.377E-4      -154.57       3.828E-4      -148.40       0.49212       -155.98        
818.6500      0.70253       -94.82        3.723E-4      -146.12       3.211E-4      -144.54       0.49227       -156.09        
820.1475      0.69813       -94.63        3.153E-4      -148.11       4.008E-4      -150.28       0.49227       -156.20        
821.6450      0.69373       -94.46        3.637E-4      -144.97       3.459E-4      -159.21       0.49215       -156.30        
823.1425      0.6892        -94.29        3.68E-4       -144.53       3.566E-4      -150.48       0.49182       -156.40        
824.6400      0.68474       -94.10        3.807E-4      -151.35       4.081E-4      -143.45       0.49145       -156.51        
826.1375      0.68031       -93.92        4.667E-4      -147.68       4.494E-4      -140.71       0.49097       -156.61        
827.6350      0.67584       -93.70        4.168E-4      -153.16       4.162E-4      -147.68       0.49035       -156.73        
829.1325      0.67135       -93.46        4.834E-4      -149.57       4.202E-4      -142.92       0.48965       -156.85        
830.6300      0.66695       -93.20        4.768E-4      -151.25       4.903E-4      -155.17       0.48893       -156.99        
832.1275      0.66261       -92.91        5.272E-4      -150.67       4.848E-4      -156.24       0.48813       -157.14        
833.6250      0.65841       -92.59        5.061E-4      -153.62       5.524E-4      -154.59       0.48728       -157.29        
835.1225      0.65425       -92.25        5.941E-4      -156.82       5.365E-4      -161.99       0.48637       -157.47        
836.6200      0.65017       -91.87        6.378E-4      -160.48       5.76E-4       -164.19       0.48543       -157.66        
838.1175      0.64628       -91.46        6.611E-4      -162.67       6.279E-4      -164.73       0.48447       -157.86        
839.6150      0.64266       -91.01        6.544E-4      -165.62       6.816E-4      -168.60       0.48343       -158.07        
841.1125      0.63926       -90.53        7.064E-4      -166.19       6.45E-4       -166.63       0.48241       -158.30        
842.6100      0.63612       -90.03        7.309E-4      -170.84       6.913E-4      -170.18       0.48135       -158.54        
844.1075      0.63335       -89.51        7.223E-4      -171.94       7.31E-4       178.37        0.48029       -158.79        
845.6050      0.63093       -88.96        8.005E-4      -179.81       7.254E-4      -177.99       0.47922       -159.06        
847.1025      0.62903       -88.41        7.76E-4       178.53        8.115E-4      -178.36       0.47812       -159.34        
848.6000      0.62754       -87.84        8.341E-4      175.68        8.277E-4      175.51        0.47705       -159.63        
850.0975      0.62653       -87.28        8.577E-4      174.49        1.008E-3      178.53        0.47607       -159.93        
851.5950      0.62605       -86.71        8.554E-4      169.03        9.105E-4      174.08        0.47511       -160.25        
853.0925      0.62599       -86.16        8.297E-4      166.43        9.406E-4      168.32        0.47426       -160.59        
854.5900      0.62634       -85.63        8.931E-4      162.99        8.539E-4      164.77        0.47347       -160.94        
856.0875      0.62681       -85.12        8.653E-4      162.19        9.531E-4      159.51        0.4729        -161.30        
857.5850      0.62755       -84.64        8.889E-4      154.68        8.551E-4      159.26        0.47236       -161.66        
859.0825      0.62847       -84.18        9.041E-4      154.87        8.641E-4      154.02        0.472         -162.03        
860.5800      0.6293        -83.76        9.28E-4       150.93        8.311E-4      154.03        0.47174       -162.40        
862.0775      0.63012       -83.37        9.13E-4       148.75        9.115E-4      148.61        0.47165       -162.77        
863.5750      0.6308        -83.01        9.127E-4      143.15        8.969E-4      147.59        0.47175       -163.12        
865.0725      0.63136       -82.69        9.119E-4      140.77        9.46E-4       142.38        0.472         -163.46        
866.5700      0.63168       -82.39        9.54E-4       140.25        9.116E-4      142.39        0.47231       -163.79        
868.0675      0.63168       -82.12        9.163E-4      135.22        9.774E-4      139.53        0.47275       -164.10        
869.5650      0.63141       -81.87        9.394E-4      136.07        9.493E-4      134.03        0.47335       -164.39        
871.0625      0.6309        -81.67        9.335E-4      129.17        9.482E-4      130.51        0.47396       -164.67        
872.5600      0.63016       -81.47        9.258E-4      127.11        9.017E-4      126.13        0.47463       -164.93        
874.0575      0.62912       -81.30        9.169E-4      125.34        9.612E-4      125.73        0.47529       -165.16        
875.5550      0.62786       -81.15        8.567E-4      119.24        8.779E-4      122.95        0.47591       -165.38        
877.0525      0.6264        -81.03        9.016E-4      119.21        9.66E-4       122.27        0.4765        -165.59        
878.5500      0.62486       -80.91        8.592E-4      117.21        9.386E-4      117.55        0.47698       -165.78        
880.0475      0.62314       -80.80        9.168E-4      112.56        8.938E-4      108.65        0.47746       -165.95        
881.5450      0.62126       -80.70        8.566E-4      111.95        8.996E-4      112.34        0.47789       -166.12        
883.0425      0.6192        -80.59        8.775E-4      107.15        9.12E-4       107.93        0.47819       -166.27        
884.5400      0.61708       -80.51        8.676E-4      103.38        8.825E-4      106.13        0.47851       -166.42        
886.0375      0.6148        -80.41        8.608E-4      103.60        9.007E-4      105.00        0.47878       -166.55        
887.5350      0.61256       -80.31        8.645E-4      100.03        8.356E-4      105.77        0.479         -166.68        
889.0325      0.61002       -80.21        8.653E-4      100.48        8.83E-4       98.17         0.47915       -166.80        
890.5300      0.60744       -80.11        8.314E-4      98.12         9.025E-4      99.27         0.47931       -166.92        
892.0275      0.60483       -80.01        8.191E-4      96.99         8.564E-4      99.07         0.47938       -167.03        
893.5250      0.60208       -79.92        7.943E-4      95.19         8.287E-4      96.54         0.47937       -167.13        
895.0225      0.59934       -79.82        8.426E-4      92.19         9.04E-4       94.07         0.47924       -167.23        
896.5200      0.59661       -79.73        8.351E-4      91.85         8.612E-4      90.90         0.47903       -167.33        
898.0175      0.59383       -79.63        8.04E-4       90.46         8.455E-4      92.05         0.47868       -167.43        
899.5150      0.59102       -79.52        8.18E-4       87.00         9.404E-4      85.67         0.47823       -167.53        
901.0125      0.58833       -79.41        8.299E-4      84.25         8.426E-4      82.98         0.47772       -167.63        
902.5100      0.58567       -79.29        8.199E-4      82.66         9.263E-4      85.52         0.47711       -167.75        
904.0075      0.58308       -79.16        8.188E-4      82.91         8.559E-4      86.58         0.47635       -167.87        
905.5050      0.58058       -79.02        7.99E-4       79.80         8.466E-4      79.04         0.4756        -168.00        
907.0025      0.57812       -78.86        8.356E-4      78.58         8.11E-4       77.40         0.47473       -168.15        
908.5000      0.5756        -78.70        8.246E-4      76.02         8.455E-4      77.16         0.47378       -168.31        
909.9975      0.57329       -78.52        7.984E-4      75.84         8.678E-4      76.89         0.4728        -168.49        
911.4950      0.57079       -78.32        8.547E-4      73.78         7.723E-4      75.29         0.47182       -168.69        
912.9925      0.56822       -78.12        8.305E-4      72.88         8.384E-4      73.72         0.47082       -168.90        
914.4900      0.56558       -77.90        8.459E-4      69.80         8.32E-4       77.02         0.46983       -169.14        
915.9875      0.56279       -77.67        8.562E-4      69.99         9.079E-4      69.40         0.46895       -169.39        
917.4850      0.55982       -77.43        8.403E-4      70.44         8.643E-4      74.34         0.46809       -169.66        
918.9825      0.55668       -77.18        9.018E-4      67.72         9.134E-4      69.40         0.46732       -169.94        
920.4800      0.55322       -76.92        9.245E-4      66.68         8.941E-4      62.92         0.46676       -170.24        
921.9775      0.54944       -76.62        9.733E-4      62.47         9.314E-4      64.49         0.46621       -170.54        
923.4750      0.54525       -76.30        9.683E-4      59.44         9.346E-4      61.94         0.46582       -170.83        
924.9725      0.54095       -75.93        1.023E-3      56.10         1.012E-3      61.40         0.4655        -171.13        
926.4700      0.53655       -75.49        1.005E-3      54.51         1.039E-3      56.51         0.46526       -171.43        
927.9675      0.53251       -74.99        1.06E-3       51.01         9.991E-4      53.29         0.46516       -171.73        
929.4650      0.52889       -74.45        1.051E-3      47.34         1.08E-3       45.35         0.46516       -172.02        
930.9625      0.52578       -73.91        1.056E-3      43.63         1.016E-3      43.12         0.46518       -172.31        
932.4600      0.52311       -73.40        1.035E-3      38.66         9.995E-4      43.03         0.46532       -172.59        
933.9575      0.52056       -72.91        9.929E-4      38.84         1.028E-3      38.67         0.46543       -172.87        
935.4550      0.5181        -72.44        1.042E-3      38.95         9.949E-4      37.20         0.46563       -173.14        
936.9525      0.51559       -72.00        9.796E-4      36.53         9.789E-4      37.22         0.46585       -173.41        
938.4500      0.51302       -71.57        9.914E-4      30.43         9.615E-4      33.13         0.46609       -173.67        
939.9475      0.51037       -71.14        1.008E-3      31.48         9.873E-4      29.42         0.46633       -173.91        
941.4450      0.50759       -70.72        9.856E-4      30.81         9.794E-4      32.43         0.46669       -174.16        
942.9425      0.5048        -70.31        9.862E-4      26.75         1.003E-3      27.62         0.46711       -174.38        
944.4400      0.50198       -69.90        9.867E-4      26.31         9.996E-4      24.69         0.46753       -174.61        
945.9375      0.49908       -69.50        9.713E-4      23.36         1.043E-3      25.35         0.46796       -174.81        
947.4350      0.49621       -69.12        1.009E-3      23.08         9.693E-4      24.03         0.46848       -175.00        
948.9325      0.49333       -68.72        9.753E-4      20.42         1.016E-3      22.06         0.46896       -175.17        
950.4300      0.49054       -68.35        1.013E-3      18.32         9.41E-4       19.73         0.46947       -175.34        
951.9275      0.48791       -67.97        9.874E-4      16.46         1.007E-3      14.01         0.46995       -175.49        
953.4250      0.48527       -67.60        9.693E-4      14.21         9.918E-4      16.05         0.47039       -175.63        
954.9225      0.48277       -67.23        9.974E-4      12.94         9.202E-4      12.70         0.4707        -175.76        
956.4200      0.48044       -66.87        1.012E-3      11.26         1.066E-3      11.30         0.47092       -175.87        
957.9175      0.47823       -66.51        1.04E-3       7.96          9.163E-4      7.73          0.47105       -175.98        
959.4150      0.47616       -66.14        9.658E-4      4.97          9.805E-4      0.67          0.47108       -176.08        
960.9125      0.47427       -65.77        9.879E-4      3.06          1.043E-3      -1.04         0.47104       -176.17        
962.4100      0.47252       -65.40        9.968E-4      1.09          1.01E-3       2.58          0.47082       -176.28        
963.9075      0.47091       -65.02        9.732E-4      1.12          9.953E-4      3.62          0.4705        -176.37        
965.4050      0.46946       -64.64        9.699E-4      -1.14         8.928E-4      4.08          0.47013       -176.47        
966.9025      0.46813       -64.25        9.583E-4      -4.33         9.69E-4       -1.60         0.46967       -176.58        
968.4000      0.46686       -63.86        9.366E-4      -4.91         9.607E-4      -5.73         0.46908       -176.69        
969.8975      0.46575       -63.45        9.558E-4      -7.69         9.077E-4      -2.70         0.46837       -176.82        
971.3950      0.46473       -63.03        9.547E-4      -9.34         8.854E-4      -8.89         0.46762       -176.96        
972.8925      0.4638        -62.60        9.623E-4      -11.31        9.16E-4       -13.55        0.46681       -177.11        
974.3900      0.46295       -62.17        9.232E-4      -14.71        9.439E-4      -13.32        0.46593       -177.27        
975.8875      0.46206       -61.71        9.374E-4      -16.36        9.555E-4      -22.29        0.46506       -177.46        
977.3850      0.46131       -61.25        9.636E-4      -16.39        9.172E-4      -23.39        0.4642        -177.66        
978.8825      0.46064       -60.78        9.406E-4      -20.01        9.59E-4       -18.37        0.46338       -177.86        
980.3800      0.45998       -60.32        9.514E-4      -24.20        9.656E-4      -22.49        0.46259       -178.08        
981.8775      0.45935       -59.83        8.911E-4      -25.20        9.677E-4      -28.02        0.46175       -178.31        
983.3750      0.45876       -59.34        8.959E-4      -25.05        9.382E-4      -27.53        0.46106       -178.56        
984.8725      0.45818       -58.86        9.151E-4      -34.21        9.532E-4      -34.48        0.46031       -178.80        
986.3700      0.45763       -58.36        8.681E-4      -32.63        9.245E-4      -33.28        0.4596        -179.05        
987.8675      0.45707       -57.87        8.908E-4      -35.64        8.803E-4      -33.03        0.45899       -179.30        
989.3650      0.45648       -57.36        8.413E-4      -37.35        8.112E-4      -37.49        0.45843       -179.58        
990.8625      0.45584       -56.86        9.125E-4      -40.43        9.155E-4      -41.95        0.4579        -179.86        
992.3600      0.45518       -56.36        8.485E-4      -44.94        8.838E-4      -42.92        0.4574        179.85         
993.8575      0.45445       -55.87        8.438E-4      -43.90        8.52E-4       -46.76        0.45706       179.57         
995.3550      0.45372       -55.38        8.672E-4      -47.59        8.521E-4      -47.12        0.45676       179.26         
996.8525      0.45287       -54.89        8.404E-4      -51.81        8.313E-4      -58.90        0.4565        178.96         
998.3500      0.45201       -54.40        8.461E-4      -52.16        8.01E-4       -58.57        0.45641       178.66         
999.8475      0.45107       -53.93        8.374E-4      -57.43        7.332E-4      -56.97        0.45638       178.36         
1001.3450     0.45019       -53.47        7.761E-4      -57.12        8.886E-4      -61.42        0.45643       178.05         
1002.8425     0.44922       -53.03        7.483E-4      -61.43        8.166E-4      -57.57        0.45663       177.76         
1004.3400     0.44827       -52.60        7.998E-4      -63.74        6.499E-4      -70.77        0.45683       177.48         
1005.8375     0.44733       -52.19        7.119E-4      -66.75        7.881E-4      -62.25        0.45728       177.20         
1007.3350     0.44648       -51.80        7.151E-4      -68.81        6.496E-4      -62.91        0.45768       176.93         
1008.8325     0.44562       -51.43        7.11E-4       -72.60        6.90E-4       -70.45        0.45822       176.68         
1010.3300     0.4448        -51.09        6.808E-4      -74.30        6.194E-4      -72.61        0.45876       176.43         
1011.8275     0.44404       -50.76        6.732E-4      -76.43        6.292E-4      -71.32        0.45936       176.20         
1013.3250     0.44338       -50.45        5.894E-4      -77.06        6.894E-4      -81.71        0.45997       175.99         
1014.8225     0.44282       -50.17        6.422E-4      -84.38        7.174E-4      -82.14        0.4606        175.79         
1016.3200     0.4422        -49.92        6.30E-4       -83.77        7.103E-4      -81.60        0.46122       175.61         
1017.8175     0.44166       -49.69        5.825E-4      -84.62        5.89E-4       -92.63        0.46174       175.44         
1019.3150     0.44122       -49.49        5.41E-4       -90.07        6.009E-4      -93.42        0.46222       175.29         
1020.8125     0.44065       -49.32        5.615E-4      -91.99        6.536E-4      -96.56        0.46267       175.14         
1022.3100     0.44025       -49.15        5.624E-4      -96.88        4.877E-4      -105.12       0.46304       175.00         
1023.8075     0.43978       -49.02        5.378E-4      -95.64        4.90E-4       -101.11       0.46337       174.87         
1025.3050     0.43936       -48.90        5.365E-4      -101.55       4.717E-4      -110.51       0.46367       174.76         
1026.8025     0.43887       -48.79        5.022E-4      -108.48       5.363E-4      -99.28        0.46392       174.64         
1028.3000     0.43833       -48.71        4.611E-4      -112.62       5.339E-4      -99.46        0.46413       174.53         
1029.7975     0.43774       -48.63        4.847E-4      -107.93       4.201E-4      -104.34       0.46418       174.42         
1031.2950     0.43703       -48.55        4.435E-4      -114.45       5.302E-4      -122.16       0.46418       174.31         
1032.7925     0.4362        -48.49        4.06E-4       -116.78       4.136E-4      -110.26       0.46411       174.21         
1034.2900     0.43535       -48.43        3.671E-4      -119.04       4.693E-4      -115.03       0.464         174.10         
1035.7875     0.43415       -48.37        3.516E-4      -128.66       4.723E-4      -113.61       0.46382       173.99         
1037.2850     0.4329        -48.30        3.221E-4      -126.05       3.782E-4      -139.26       0.4636        173.87         
1038.7825     0.4313        -48.27        2.532E-4      -130.98       2.805E-4      -143.41       0.46339       173.76         
1040.2800     0.42937       -48.26        2.801E-4      -140.28       3.254E-4      -132.96       0.46315       173.63         
1041.7775     0.42663       -48.27        2.596E-4      -136.37       2.037E-4      -121.61       0.4628        173.50         
1043.2750     0.4225        -48.28        1.872E-4      -162.19       2.103E-4      -151.14       0.46245       173.37         
1044.7725     0.4163        -48.16        1.834E-4      -156.07       2.253E-4      176.61        0.46213       173.24         
1046.2700     0.40898       -47.61        1.317E-4      -158.59       1.602E-4      170.31        0.46166       173.10         
1047.7675     0.40315       -46.55        1.402E-4      163.99        8.557E-5      -168.59       0.46126       172.94         
1049.2650     0.40088       -45.31        1.037E-4      169.16        1.119E-4      159.37        0.46083       172.79         
1050.7625     0.40162       -44.24        4.536E-5      120.62        8.928E-5      59.65         0.46043       172.61         
1052.2600     0.40314       -43.54        1.372E-5      93.21         1.306E-4      103.51        0.45996       172.43         
1053.7575     0.40396       -43.09        6.977E-5      48.29         1.245E-4      57.87         0.45955       172.24         
1055.2550     0.40367       -42.74        9.822E-5      43.36         3.943E-5      71.30         0.45923       172.05         
1056.7525     0.40249       -42.41        1.205E-4      48.02         1.269E-4      54.93         0.45895       171.85         
1058.2500     0.40061       -42.07        1.621E-4      22.50         1.823E-4      22.10         0.45867       171.65         
1059.7475     0.39817       -41.70        1.356E-4      31.93         3.357E-4      46.91         0.45846       171.43         
1061.2450     0.39542       -41.28        2.546E-4      24.00         2.939E-4      25.27         0.45838       171.22         
1062.7425     0.3924        -40.84        2.307E-4      25.92         2.059E-4      15.55         0.45831       171.00         
1064.2400     0.38921       -40.35        3.327E-4      22.41         3.524E-4      37.16         0.45832       170.80         
1065.7375     0.38594       -39.84        3.188E-4      22.62         3.075E-4      9.12          0.45838       170.59         
1067.2350     0.38264       -39.30        3.584E-4      19.73         4.837E-4      16.95         0.45858       170.39         
1068.7325     0.37926       -38.74        3.695E-4      15.54         3.599E-4      27.56         0.45878       170.20         
1070.2300     0.37595       -38.13        4.94E-4       12.31         4.807E-4      19.39         0.45908       170.01         
1071.7275     0.37265       -37.51        5.129E-4      6.54          5.897E-4      7.62          0.45946       169.82         
1073.2250     0.36949       -36.87        5.413E-4      3.16          5.741E-4      17.79         0.45985       169.65         
1074.7225     0.36645       -36.18        5.459E-4      4.60          6.999E-4      4.37          0.46029       169.49         
1076.2200     0.36367       -35.49        6.066E-4      2.53          5.044E-4      -0.33         0.46071       169.34         
1077.7175     0.3611        -34.77        6.47E-4       -1.71         6.63E-4       -7.95         0.46114       169.20         
1079.2150     0.3588        -34.05        7.426E-4      -0.84         6.24E-4       -6.74         0.46152       169.07         
1080.7125     0.35681       -33.32        8.065E-4      -7.13         7.775E-4      -3.86         0.46191       168.96         
1082.2100     0.35512       -32.57        8.155E-4      -8.29         8.151E-4      -3.50         0.4623        168.86         
1083.7075     0.35379       -31.80        8.704E-4      -12.94        8.555E-4      -11.90        0.46269       168.76         
1085.2050     0.35287       -31.06        8.893E-4      -16.85        8.188E-4      -16.73        0.46299       168.66         
1086.7025     0.35222       -30.32        9.157E-4      -16.92        9.746E-4      -19.54        0.46332       168.58         
1088.2000     0.35207       -29.58        1.002E-3      -21.84        9.947E-4      -23.73        0.46356       168.50         
1089.6975     0.35218       -28.85        1.077E-3      -24.61        1.057E-3      -25.79        0.46371       168.44         
1091.1950     0.35264       -28.15        1.117E-3      -26.58        1.11E-3       -26.10        0.46388       168.38         
1092.6925     0.35335       -27.46        1.175E-3      -31.38        1.16E-3       -30.99        0.46386       168.32         
1094.1900     0.3544        -26.78        1.226E-3      -32.86        1.177E-3      -34.91        0.46383       168.26         
1095.6875     0.35565       -26.14        1.285E-3      -38.23        1.265E-3      -36.72        0.4637        168.21         
1097.1850     0.3572        -25.51        1.351E-3      -40.89        1.35E-3       -40.35        0.46349       168.15         
1098.6825     0.35878       -24.90        1.346E-3      -45.45        1.368E-3      -42.65        0.46314       168.08         
1100.1800     0.36068       -24.31        1.394E-3      -47.45        1.378E-3      -45.53        0.4628        168.02         
1101.6775     0.36255       -23.73        1.439E-3      -49.14        1.459E-3      -48.33        0.46234       167.96         
1103.1750     0.36468       -23.17        1.437E-3      -51.70        1.478E-3      -53.45        0.46178       167.89         
1104.6725     0.36683       -22.63        1.477E-3      -54.93        1.525E-3      -54.10        0.4611        167.80         
1106.1700     0.36897       -22.11        1.548E-3      -57.29        1.565E-3      -58.42        0.46038       167.71         
1107.6675     0.37117       -21.59        1.564E-3      -62.07        1.628E-3      -58.34        0.45959       167.60         
1109.1650     0.37341       -21.09        1.631E-3      -63.40        1.621E-3      -64.96        0.45877       167.48         
1110.6625     0.37562       -20.59        1.663E-3      -67.30        1.605E-3      -66.23        0.45784       167.34         
1112.1600     0.37781       -20.12        1.704E-3      -69.15        1.651E-3      -67.84        0.45696       167.20         
1113.6575     0.37993       -19.66        1.718E-3      -71.74        1.758E-3      -72.38        0.45598       167.03         
1115.1550     0.38201       -19.22        1.779E-3      -75.29        1.734E-3      -73.39        0.45509       166.84         
1116.6525     0.38396       -18.76        1.793E-3      -78.20        1.783E-3      -78.97        0.45417       166.64         
1118.1500     0.38572       -18.33        1.766E-3      -80.73        1.795E-3      -79.68        0.45326       166.42         
1119.6475     0.38752       -17.93        1.833E-3      -83.42        1.77E-3       -84.10        0.45245       166.19         
1121.1450     0.38913       -17.52        1.858E-3      -86.34        1.89E-3       -83.50        0.45167       165.94         
1122.6425     0.39056       -17.13        1.88E-3       -88.11        1.845E-3      -88.16        0.45096       165.69         
1124.1400     0.39177       -16.74        1.90E-3       -90.65        1.844E-3      -90.63        0.45035       165.41         
1125.6375     0.39285       -16.37        1.905E-3      -93.22        1.904E-3      -94.93        0.44977       165.12         
1127.1350     0.39386       -16.01        1.979E-3      -96.14        1.937E-3      -94.92        0.44939       164.84         
1128.6325     0.39476       -15.67        1.982E-3      -99.48        1.879E-3      -101.69       0.44902       164.55         
1130.1300     0.39539       -15.35        1.988E-3      -101.37       1.995E-3      -101.43       0.44881       164.24         
1131.6275     0.39592       -15.04        2.006E-3      -104.78       2.017E-3      -101.39       0.44871       163.94         
1133.1250     0.3964        -14.74        2.028E-3      -107.38       2.058E-3      -107.47       0.44862       163.64         
1134.6225     0.39676       -14.46        2.059E-3      -108.82       2.054E-3      -107.77       0.44887       163.34         
1136.1200     0.39708       -14.19        2.076E-3      -111.87       2.065E-3      -112.91       0.44908       163.04         
1137.6175     0.39724       -13.95        2.072E-3      -115.69       2.064E-3      -113.83       0.44948       162.75         
1139.1150     0.39753       -13.72        2.132E-3      -118.19       2.112E-3      -117.30       0.44988       162.47         
1140.6125     0.3977        -13.52        2.128E-3      -119.34       2.153E-3      -117.83       0.45039       162.20         
1142.1100     0.39777       -13.30        2.111E-3      -122.71       2.128E-3      -122.51       0.45099       161.94         
1143.6075     0.39785       -13.11        2.151E-3      -125.52       2.095E-3      -126.11       0.45167       161.70         
1145.1050     0.39788       -12.94        2.15E-3       -128.93       2.134E-3      -126.88       0.45246       161.47         
1146.6025     0.39797       -12.78        2.151E-3      -130.41       2.149E-3      -129.09       0.45329       161.25         
1148.1000     0.39807       -12.64        2.17E-3       -132.90       2.223E-3      -132.77       0.45414       161.06         
1149.5975     0.3982        -12.50        2.214E-3      -136.69       2.20E-3       -134.86       0.45502       160.89         
1151.0950     0.39828       -12.35        2.203E-3      -138.28       2.201E-3      -137.35       0.45592       160.73         
1152.5925     0.39836       -12.23        2.219E-3      -140.71       2.194E-3      -140.57       0.45685       160.59         
1154.0900     0.39863       -12.13        2.23E-3       -143.35       2.20E-3       -142.13       0.45757       160.46         
1155.5875     0.39883       -12.00        2.206E-3      -145.48       2.19E-3       -144.34       0.45834       160.35         
1157.0850     0.39903       -11.90        2.237E-3      -147.03       2.204E-3      -146.12       0.45897       160.27         
1158.5825     0.39932       -11.79        2.226E-3      -148.91       2.197E-3      -149.52       0.45967       160.18         
1160.0800     0.39965       -11.68        2.26E-3       -151.68       2.179E-3      -150.71       0.46011       160.12         
1161.5775     0.39999       -11.56        2.232E-3      -154.16       2.245E-3      -153.84       0.46054       160.06         
1163.0750     0.40027       -11.44        2.267E-3      -155.71       2.229E-3      -155.38       0.46086       160.01         
1164.5725     0.40058       -11.31        2.216E-3      -158.05       2.199E-3      -159.04       0.46112       159.97         
1166.0700     0.40098       -11.17        2.191E-3      -160.59       2.127E-3      -161.85       0.46121       159.93         
1167.5675     0.40127       -11.02        2.266E-3      -163.55       2.272E-3      -163.49       0.46117       159.89         
1169.0650     0.40161       -10.86        2.264E-3      -165.40       2.223E-3      -165.71       0.46108       159.85         
1170.5625     0.40191       -10.69        2.234E-3      -167.98       2.249E-3      -167.46       0.46081       159.80         
1172.0600     0.40199       -10.51        2.235E-3      -169.92       2.255E-3      -167.64       0.46044       159.75         
1173.5575     0.40215       -10.31        2.285E-3      -171.31       2.189E-3      -171.09       0.46003       159.68         
1175.0550     0.40223       -10.10        2.221E-3      -172.67       2.226E-3      -171.24       0.45944       159.61         
1176.5525     0.40224       -9.88         2.259E-3      -175.48       2.266E-3      -173.27       0.45875       159.53         
1178.0500     0.40218       -9.66         2.247E-3      -176.70       2.335E-3      -176.12       0.45807       159.43         
1179.5475     0.40195       -9.41         2.279E-3      -178.74       2.244E-3      -178.56       0.45729       159.32         
1181.0450     0.40167       -9.16         2.266E-3      178.91        2.30E-3       179.27        0.45649       159.19         
1182.5425     0.40122       -8.90         2.278E-3      176.82        2.308E-3      175.90        0.45559       159.04         
1184.0400     0.40063       -8.64         2.315E-3      175.47        2.289E-3      175.98        0.45465       158.87         
1185.5375     0.39996       -8.37         2.305E-3      173.01        2.311E-3      174.17        0.45373       158.69         
1187.0350     0.39922       -8.10         2.287E-3      171.86        2.308E-3      171.23        0.45283       158.49         
1188.5325     0.39828       -7.83         2.316E-3      169.81        2.311E-3      169.69        0.4519        158.26         
1190.0300     0.39729       -7.55         2.294E-3      167.89        2.333E-3      167.08        0.45114       158.02         
1191.5275     0.39616       -7.27         2.30E-3       165.78        2.322E-3      165.25        0.45037       157.75         
1193.0250     0.39482       -6.97         2.286E-3      163.34        2.308E-3      164.34        0.4497        157.47         
1194.5225     0.39344       -6.69         2.328E-3      162.27        2.292E-3      162.48        0.44917       157.18         
1196.0200     0.39195       -6.39         2.272E-3      159.91        2.323E-3      160.95        0.44872       156.87         
1197.5175     0.39031       -6.11         2.306E-3      157.28        2.295E-3      158.09        0.44835       156.55         
1199.0150     0.38861       -5.81         2.309E-3      155.98        2.276E-3      157.38        0.44813       156.23         
1200.5125     0.38679       -5.53         2.316E-3      155.01        2.303E-3      154.96        0.44807       155.91         
1202.0100     0.38489       -5.23         2.287E-3      152.50        2.28E-3       152.61        0.44815       155.59         
1203.5075     0.3829        -4.94         2.292E-3      150.35        2.295E-3      151.01        0.44833       155.26         
1205.0050     0.38093       -4.65         2.287E-3      149.07        2.281E-3      150.06        0.44876       154.95         
1206.5025     0.37891       -4.36         2.281E-3      146.71        2.287E-3      147.48        0.44933       154.63         
1208.0000     0.3769        -4.07         2.278E-3      145.02        2.225E-3      146.12        0.44995       154.34         
1209.4975     0.37487       -3.76         2.251E-3      143.46        2.23E-3       144.80        0.45075       154.05         
1210.9950     0.37278       -3.46         2.247E-3      142.54        2.196E-3      141.69        0.45169       153.79         
1212.4925     0.37087       -3.15         2.234E-3      140.65        2.186E-3      140.02        0.45268       153.55         
1213.9900     0.3689        -2.84         2.19E-3       139.79        2.23E-3       140.07        0.45375       153.33         
1215.4875     0.36693       -2.51         2.214E-3      138.15        2.251E-3      137.75        0.45486       153.13         
1216.9850     0.36511       -2.17         2.223E-3      135.88        2.223E-3      135.81        0.45599       152.96         
1218.4825     0.36327       -1.81         2.211E-3      134.58        2.197E-3      135.47        0.45718       152.81         
1219.9800     0.36154       -1.43         2.24E-3       133.18        2.231E-3      133.78        0.45831       152.67         
1221.4775     0.35983       -1.04         2.22E-3       131.77        2.209E-3      132.69        0.45952       152.57         
1222.9750     0.35829       -0.62         2.197E-3      130.88        2.197E-3      131.25        0.4606        152.48         
1224.4725     0.35682       -0.18         2.201E-3      128.65        2.218E-3      129.06        0.46173       152.41         
1225.9700     0.35535       0.30          2.191E-3      127.74        2.227E-3      128.84        0.46271       152.38         
1227.4675     0.35399       0.79          2.195E-3      126.22        2.156E-3      127.06        0.46361       152.35         
1228.9650     0.35268       1.31          2.225E-3      124.91        2.188E-3      125.33        0.4644        152.35         
1230.4625     0.35145       1.86          2.192E-3      122.98        2.221E-3      123.81        0.46511       152.35         
1231.9600     0.3503        2.45          2.242E-3      121.81        2.214E-3      122.03        0.46565       152.37         
1233.4575     0.34934       3.06          2.209E-3      120.34        2.263E-3      120.34        0.46613       152.41         
1234.9550     0.34839       3.73          2.24E-3       119.53        2.183E-3      120.76        0.46635       152.44         
1236.4525     0.34756       4.41          2.237E-3      118.79        2.225E-3      118.62        0.46644       152.49         
1237.9500     0.34692       5.14          2.239E-3      116.35        2.239E-3      116.82        0.46635       152.53         
1239.4475     0.34639       5.89          2.248E-3      115.71        2.261E-3      115.05        0.46611       152.57         
1240.9450     0.34606       6.68          2.224E-3      112.85        2.248E-3      114.45        0.46575       152.61         
1242.4425     0.34589       7.49          2.28E-3       111.88        2.24E-3       111.71        0.46515       152.63         
1243.9400     0.34595       8.32          2.261E-3      110.75        2.265E-3      111.96        0.46451       152.64         
1245.4375     0.34621       9.17          2.271E-3      108.85        2.269E-3      109.87        0.46368       152.64         
1246.9350     0.34679       10.03         2.296E-3      107.31        2.283E-3      107.33        0.46271       152.63         
1248.4325     0.34741       10.91         2.317E-3      105.98        2.302E-3      106.18        0.46161       152.59         
1249.9300     0.34833       11.78         2.328E-3      104.14        2.293E-3      104.68        0.46045       152.53         
1251.4275     0.34943       12.68         2.314E-3      103.00        2.296E-3      103.85        0.45924       152.44         
1252.9250     0.3507        13.53         2.312E-3      101.61        2.305E-3      101.91        0.45793       152.33         
1254.4225     0.35221       14.40         2.314E-3      99.38         2.355E-3      100.72        0.45669       152.19         
1255.9200     0.35384       15.21         2.326E-3      99.04         2.321E-3      97.49         0.45539       152.02         
1257.4175     0.35568       16.01         2.326E-3      96.43         2.339E-3      97.44         0.45413       151.83         
1258.9150     0.35771       16.77         2.337E-3      95.16         2.325E-3      95.72         0.45296       151.61         
1260.4125     0.35981       17.50         2.368E-3      93.46         2.327E-3      94.11         0.45185       151.36         
1261.9100     0.36192       18.18         2.365E-3      92.07         2.353E-3      92.20         0.45076       151.10         
1263.4075     0.36422       18.83         2.36E-3       91.21         2.359E-3      91.26         0.44986       150.81         
1264.9050     0.36661       19.42         2.389E-3      88.98         2.353E-3      88.78         0.44909       150.49         
1266.4025     0.36903       19.98         2.40E-3       87.81         2.375E-3      87.68         0.44847       150.16         
1267.9000     0.3716        20.49         2.429E-3      85.99         2.406E-3      85.78         0.44797       149.82         
1269.3975     0.37419       20.95         2.411E-3      84.26         2.396E-3      84.24         0.44767       149.47         
1270.8950     0.3768        21.39         2.425E-3      83.31         2.462E-3      83.42         0.44759       149.11         
1272.3925     0.37928       21.78         2.459E-3      82.03         2.462E-3      81.57         0.44773       148.76         
1273.8900     0.38183       22.12         2.46E-3       79.87         2.472E-3      79.96         0.44797       148.40         
1275.3875     0.38442       22.44         2.447E-3      78.19         2.489E-3      78.37         0.4484        148.06         
1276.8850     0.38689       22.73         2.477E-3      76.68         2.487E-3      76.81         0.44898       147.71         
1278.3825     0.38937       22.97         2.491E-3      75.31         2.507E-3      75.77         0.44973       147.39         
1279.8800     0.39182       23.21         2.492E-3      73.90         2.522E-3      74.44         0.45057       147.08         
1281.3775     0.39419       23.41         2.528E-3      72.39         2.522E-3      72.24         0.45167       146.79         
1282.8750     0.39654       23.61         2.574E-3      70.15         2.546E-3      70.54         0.45282       146.52         
1284.3725     0.39885       23.78         2.571E-3      69.42         2.524E-3      69.85         0.45402       146.27         
1285.8700     0.40108       23.94         2.582E-3      66.91         2.592E-3      67.80         0.4554        146.05         
1287.3675     0.40325       24.08         2.588E-3      65.59         2.649E-3      65.37         0.45672       145.86         
1288.8650     0.40533       24.22         2.594E-3      64.56         2.587E-3      64.42         0.45814       145.71         
1290.3625     0.40742       24.35         2.60E-3       63.05         2.602E-3      63.63         0.45952       145.57         
1291.8600     0.40947       24.47         2.612E-3      61.22         2.595E-3      62.02         0.46086       145.47         
1293.3575     0.41146       24.60         2.631E-3      59.87         2.577E-3      59.87         0.46214       145.40         
1294.8550     0.4134        24.74         2.643E-3      58.78         2.617E-3      58.13         0.46337       145.34         
1296.3525     0.41527       24.87         2.668E-3      57.05         2.646E-3      57.26         0.46446       145.32         
1297.8500     0.41719       25.00         2.684E-3      56.01         2.677E-3      57.39         0.46548       145.30         
1299.3475     0.41909       25.14         2.704E-3      54.11         2.691E-3      54.59         0.46637       145.32         
1300.8450     0.42087       25.28         2.731E-3      53.70         2.681E-3      53.42         0.46702       145.35         
1302.3425     0.42263       25.44         2.741E-3      51.96         2.728E-3      52.00         0.46755       145.39         
1303.8400     0.42435       25.59         2.768E-3      50.33         2.726E-3      50.32         0.4679        145.43         
1305.3375     0.42612       25.77         2.79E-3       48.52         2.795E-3      48.59         0.46812       145.49         
1306.8350     0.4277        25.93         2.806E-3      47.45         2.771E-3      47.63         0.46809       145.55         
1308.3325     0.42922       26.13         2.817E-3      46.06         2.82E-3       45.94         0.46794       145.61         
1309.8300     0.43064       26.33         2.876E-3      43.88         2.844E-3      44.64         0.46761       145.66         
1311.3275     0.43193       26.53         2.863E-3      42.92         2.844E-3      43.09         0.46704       145.69         
1312.8250     0.43311       26.72         2.903E-3      41.64         2.889E-3      40.88         0.46638       145.72         
1314.3225     0.43417       26.91         2.914E-3      39.95         2.893E-3      39.35         0.4656        145.73         
1315.8200     0.43532       27.12         2.936E-3      38.46         2.942E-3      38.38         0.46464       145.73         
1317.3175     0.43625       27.32         2.973E-3      36.47         2.984E-3      36.44         0.46358       145.70         
1318.8150     0.43714       27.53         3.005E-3      35.06         2.998E-3      35.01         0.46243       145.66         
1320.3125     0.43785       27.73         3.035E-3      33.32         3.027E-3      33.00         0.46122       145.58         
1321.8100     0.43844       27.92         3.08E-3       31.98         3.044E-3      31.85         0.45995       145.48         
1323.3075     0.43911       28.14         3.061E-3      30.95         3.047E-3      29.55         0.45868       145.34         
1324.8050     0.43967       28.34         3.084E-3      28.39         3.106E-3      28.20         0.45739       145.18         
1326.3025     0.4401        28.52         3.123E-3      26.88         3.131E-3      26.50         0.45613       144.98         
1327.8000     0.4404        28.71         3.13E-3       25.22         3.146E-3      25.03         0.45496       144.76         
1329.2975     0.44062       28.90         3.16E-3       23.38         3.135E-3      23.15         0.45384       144.52         
1330.7950     0.44081       29.08         3.194E-3      21.30         3.188E-3      21.90         0.45283       144.24         
1332.2925     0.4409        29.24         3.192E-3      20.46         3.208E-3      19.89         0.45195       143.95         
1333.7900     0.44091       29.38         3.201E-3      19.21         3.243E-3      18.85         0.45121       143.63         
1335.2875     0.44064       29.52         3.265E-3      16.93         3.246E-3      17.09         0.45064       143.30         
1336.7850     0.44005       29.65         3.234E-3      15.16         3.266E-3      15.79         0.45021       142.96         
1338.2825     0.43909       29.80         3.323E-3      13.42         3.334E-3      14.07         0.45          142.60         
1339.7800     0.43798       30.00         3.324E-3      12.38         3.333E-3      11.80         0.44997       142.24         
1341.2775     0.43702       30.25         3.371E-3      10.03         3.373E-3      10.64         0.45015       141.87         
1342.7750     0.43632       30.51         3.405E-3      8.26          3.421E-3      8.52          0.45053       141.51         
1344.2725     0.4358        30.77         3.421E-3      6.68          3.413E-3      6.93          0.45112       141.16         
1345.7700     0.43546       31.02         3.457E-3      4.90          3.527E-3      5.10          0.45186       140.82         
1347.2675     0.43514       31.28         3.49E-3       3.46          3.489E-3      3.50          0.45279       140.49         
1348.7650     0.43486       31.52         3.518E-3      1.34          3.511E-3      1.68          0.45387       140.19         
1350.2625     0.43458       31.77         3.525E-3      -1.37         3.534E-3      -0.65         0.4551        139.91         
1351.7600     0.43437       32.01         3.553E-3      -1.78         3.545E-3      -2.12         0.45634       139.65         
1353.2575     0.43421       32.25         3.582E-3      -3.04         3.563E-3      -4.40         0.45779       139.41         
1354.7550     0.43422       32.50         3.591E-3      -5.87         3.648E-3      -6.32         0.45921       139.20         
1356.2525     0.43419       32.76         3.598E-3      -7.69         3.648E-3      -7.46         0.46073       139.04         
1357.7500     0.43424       33.02         3.613E-3      -10.02        3.646E-3      -9.71         0.46216       138.90         
1359.2475     0.43426       33.29         3.663E-3      -11.10        3.636E-3      -11.54        0.46364       138.79         
1360.7450     0.43441       33.56         3.713E-3      -13.25        3.685E-3      -13.76        0.46509       138.71         
1362.2425     0.43463       33.85         3.712E-3      -15.07        3.727E-3      -15.53        0.46644       138.65         
1363.7400     0.43484       34.15         3.73E-3       -17.46        3.765E-3      -17.68        0.46762       138.62         
1365.2375     0.43508       34.44         3.744E-3      -18.90        3.757E-3      -19.30        0.46873       138.61         
1366.7350     0.43524       34.77         3.772E-3      -20.85        3.779E-3      -21.82        0.46975       138.63         
1368.2325     0.43549       35.10         3.793E-3      -22.80        3.832E-3      -22.95        0.47052       138.66         
1369.7300     0.43579       35.44         3.823E-3      -24.92        3.802E-3      -24.91        0.47117       138.70         
1371.2275     0.43613       35.79         3.868E-3      -26.96        3.852E-3      -26.81        0.47161       138.76         
1372.7250     0.43649       36.14         3.85E-3       -28.75        3.882E-3      -29.58        0.47194       138.83         
1374.2225     0.43686       36.50         3.875E-3      -31.07        3.908E-3      -30.87        0.47204       138.89         
1375.7200     0.4373        36.88         3.902E-3      -32.99        3.901E-3      -32.60        0.472         138.96         
1377.2175     0.43772       37.28         3.907E-3      -35.01        3.933E-3      -35.04        0.47179       139.03         
1378.7150     0.43825       37.68         3.929E-3      -36.74        3.899E-3      -36.91        0.47135       139.10         
1380.2125     0.43869       38.10         3.935E-3      -38.72        3.958E-3      -39.08        0.47076       139.15         
1381.7100     0.43926       38.52         3.955E-3      -40.76        3.973E-3      -41.22        0.47005       139.19         
1383.2075     0.43986       38.96         3.976E-3      -43.03        3.959E-3      -42.95        0.46919       139.21         
1384.7050     0.44036       39.40         3.998E-3      -45.12        3.977E-3      -45.11        0.46822       139.21         
1386.2025     0.44103       39.85         3.991E-3      -47.15        4.016E-3      -46.89        0.46715       139.20         
1387.7000     0.44176       40.30         4.026E-3      -49.28        4.014E-3      -48.98        0.46599       139.14         
1389.1975     0.44256       40.77         4.027E-3      -51.01        4.021E-3      -50.92        0.46479       139.08         
1390.6950     0.44345       41.24         3.99E-3       -53.27        3.991E-3      -53.12        0.46354       138.97         
1392.1925     0.44461       41.72         3.991E-3      -55.52        4.03E-3       -55.59        0.46229       138.86         
1393.6900     0.44599       42.21         3.996E-3      -57.37        4.001E-3      -56.85        0.46106       138.70         
1395.1875     0.44777       42.67         4.022E-3      -58.70        3.997E-3      -58.69        0.45996       138.52         
1396.6850     0.44987       43.09         3.967E-3      -61.12        4.001E-3      -60.76        0.45887       138.32         
1398.1825     0.45232       43.46         3.983E-3      -62.74        3.944E-3      -62.91        0.45785       138.09         
1399.6800     0.45502       43.71         3.988E-3      -63.84        3.964E-3      -64.36        0.45698       137.84         
1401.1775     0.45743       43.85         3.975E-3      -65.79        3.939E-3      -65.70        0.45628       137.56         
1402.6750     0.45922       43.90         3.962E-3      -67.50        3.962E-3      -67.61        0.45571       137.26         
1404.1725     0.46012       43.95         3.97E-3       -68.97        3.984E-3      -69.60        0.45539       136.94         
1405.6700     0.46064       44.00         3.958E-3      -70.92        3.984E-3      -70.79        0.45515       136.62         
1407.1675     0.46053       44.01         3.959E-3      -72.34        3.951E-3      -72.12        0.45519       136.29         
1408.6650     0.45971       44.08         3.979E-3      -73.72        3.95E-3       -73.53        0.45535       135.96         
1410.1625     0.45855       44.26         3.989E-3      -74.93        4.009E-3      -74.91        0.45577       135.63         
1411.6600     0.45757       44.52         4.016E-3      -76.78        3.992E-3      -77.21        0.45635       135.31         
1413.1575     0.45711       44.81         4.067E-3      -78.59        4.013E-3      -78.73        0.45709       134.99         
1414.6550     0.4571        45.10         4.069E-3      -80.52        4.014E-3      -80.40        0.45798       134.69         
1416.1525     0.45729       45.38         4.103E-3      -81.76        4.056E-3      -82.18        0.45902       134.41         
1417.6500     0.45754       45.65         4.112E-3      -83.56        4.10E-3       -83.80        0.46016       134.15         
1419.1475     0.45787       45.89         4.133E-3      -85.59        4.101E-3      -85.64        0.46149       133.92         
1420.6450     0.45811       46.14         4.156E-3      -87.19        4.151E-3      -87.40        0.46282       133.71         
1422.1425     0.45834       46.41         4.174E-3      -88.93        4.162E-3      -89.46        0.46421       133.53         
1423.6400     0.45856       46.68         4.19E-3       -91.14        4.186E-3      -90.61        0.4656        133.37         
1425.1375     0.45885       46.98         4.173E-3      -93.31        4.198E-3      -93.27        0.46704       133.24         
1426.6350     0.45919       47.29         4.212E-3      -95.13        4.207E-3      -94.40        0.46838       133.14         
1428.1325     0.45983       47.61         4.222E-3      -96.68        4.252E-3      -97.11        0.46967       133.06         
1429.6300     0.46049       47.94         4.214E-3      -99.09        4.209E-3      -98.48        0.47088       133.02         
1431.1275     0.46132       48.29         4.226E-3      -101.38       4.213E-3      -100.74       0.47205       132.99         
1432.6250     0.46235       48.65         4.243E-3      -102.73       4.23E-3       -102.00       0.47306       132.99         
1434.1225     0.46357       49.01         4.217E-3      -104.42       4.266E-3      -104.34       0.47394       133.00         
1435.6200     0.46491       49.40         4.211E-3      -106.69       4.195E-3      -106.31       0.47469       133.03         
1437.1175     0.46631       49.75         4.225E-3      -108.14       4.234E-3      -107.81       0.47526       133.08         
1438.6150     0.46781       50.12         4.247E-3      -110.28       4.234E-3      -109.90       0.47568       133.14         
1440.1125     0.4694        50.48         4.226E-3      -112.09       4.215E-3      -112.08       0.47593       133.20         
1441.6100     0.47111       50.85         4.256E-3      -113.70       4.24E-3       -113.27       0.47603       133.27         
1443.1075     0.4728        51.22         4.254E-3      -115.75       4.212E-3      -115.04       0.47587       133.34         
1444.6050     0.47463       51.58         4.21E-3       -117.73       4.211E-3      -116.75       0.47561       133.39         
1446.1025     0.47647       51.94         4.22E-3       -119.41       4.199E-3      -118.54       0.47515       133.44         
1447.6000     0.47823       52.30         4.211E-3      -120.98       4.235E-3      -120.62       0.47455       133.48         
1449.0975     0.47998       52.65         4.224E-3      -122.87       4.228E-3      -122.22       0.47382       133.51         
1450.5950     0.48178       52.99         4.208E-3      -124.39       4.251E-3      -124.23       0.47296       133.53         
1452.0925     0.48364       53.33         4.21E-3       -126.02       4.217E-3      -126.03       0.47196       133.52         
1453.5900     0.48526       53.65         4.219E-3      -128.09       4.159E-3      -127.64       0.47085       133.48         
1455.0875     0.48692       53.97         4.202E-3      -130.26       4.198E-3      -129.44       0.4697        133.43         
1456.5850     0.48856       54.26         4.191E-3      -131.67       4.161E-3      -130.97       0.46851       133.34         
1458.0825     0.49009       54.56         4.188E-3      -133.32       4.171E-3      -133.25       0.4673        133.24         
1459.5800     0.49153       54.83         4.202E-3      -134.78       4.205E-3      -135.00       0.46609       133.09         
1461.0775     0.49289       55.11         4.177E-3      -136.89       4.204E-3      -136.64       0.46499       132.93         
1462.5750     0.49429       55.35         4.194E-3      -138.89       4.193E-3      -138.51       0.46393       132.73         
1464.0725     0.49542       55.60         4.159E-3      -140.20       4.164E-3      -140.20       0.46299       132.51         
1465.5700     0.49646       55.82         4.163E-3      -142.03       4.165E-3      -141.71       0.46211       132.25         
1467.0675     0.49755       56.02         4.18E-3       -143.84       4.168E-3      -144.01       0.46134       131.97         
1468.5650     0.49847       56.24         4.16E-3       -145.78       4.141E-3      -145.27       0.46071       131.68         
1470.0625     0.49932       56.43         4.154E-3      -147.52       4.169E-3      -146.44       0.46031       131.37         
1471.5600     0.50022       56.62         4.12E-3       -148.64       4.148E-3      -148.09       0.46003       131.03         
1473.0575     0.50098       56.78         4.137E-3      -150.36       4.131E-3      -150.03       0.45996       130.70         
1474.5550     0.50162       56.93         4.134E-3      -152.24       4.156E-3      -151.85       0.4601        130.36         
1476.0525     0.50221       57.06         4.116E-3      -154.06       4.131E-3      -153.27       0.46038       130.02         
1477.5500     0.50281       57.20         4.102E-3      -155.42       4.125E-3      -155.12       0.46089       129.68         
1479.0475     0.50335       57.32         4.129E-3      -157.19       4.141E-3      -156.58       0.46161       129.35         
1480.5450     0.50391       57.44         4.124E-3      -159.23       4.102E-3      -158.41       0.46243       129.03         
1482.0425     0.50438       57.56         4.117E-3      -160.62       4.111E-3      -159.79       0.46347       128.73         
1483.5400     0.50498       57.67         4.088E-3      -162.11       4.172E-3      -161.57       0.46465       128.44         
1485.0375     0.5056        57.80         4.092E-3      -163.70       4.129E-3      -163.35       0.46593       128.17         
1486.5350     0.50629       57.91         4.077E-3      -165.49       4.134E-3      -165.04       0.46733       127.93         
1488.0325     0.50689       58.03         4.089E-3      -166.90       4.129E-3      -166.34       0.46872       127.71         
1489.5300     0.50765       58.15         4.079E-3      -168.61       4.102E-3      -167.61       0.47026       127.52         
1491.0275     0.5084        58.27         4.086E-3      -170.11       4.086E-3      -169.53       0.47184       127.36         
1492.5250     0.50919       58.38         4.076E-3      -171.69       4.109E-3      -170.99       0.47342       127.23         
1494.0225     0.51002       58.51         4.086E-3      -173.22       4.125E-3      -172.32       0.47497       127.13         
1495.5200     0.51077       58.62         4.099E-3      -174.67       4.098E-3      -174.39       0.47644       127.05         
1497.0175     0.51164       58.76         4.096E-3      -176.10       4.11E-3       -175.69       0.4778        127.01         
1498.5150     0.51233       58.90         4.108E-3      -178.21       4.116E-3      -177.45       0.47906       127.00         
1500.0125     0.51316       59.04         4.116E-3      -179.66       4.13E-3       -178.99       0.4802        126.99         
1501.5100     0.51387       59.20         4.097E-3      179.33        4.131E-3      179.47        0.48126       127.02         
1503.0075     0.51463       59.37         4.114E-3      177.30        4.168E-3      178.05        0.48221       127.06         
1504.5050     0.51521       59.54         4.137E-3      176.01        4.135E-3      176.24        0.48295       127.11         
1506.0025     0.51581       59.73         4.136E-3      174.32        4.154E-3      174.13        0.48355       127.19         
1507.5000     0.51655       59.91         4.156E-3      173.13        4.201E-3      173.67        0.48399       127.26         
1508.9975     0.51708       60.11         4.155E-3      171.44        4.184E-3      171.83        0.48419       127.35         
1510.4950     0.51752       60.32         4.192E-3      169.55        4.192E-3      169.84        0.48429       127.44         
1511.9925     0.51784       60.53         4.183E-3      167.44        4.20E-3       168.18        0.48413       127.54         
1513.4900     0.51811       60.74         4.216E-3      166.21        4.24E-3       166.53        0.48386       127.62         
1514.9875     0.51814       60.95         4.204E-3      164.63        4.204E-3      164.91        0.48342       127.70         
1516.4850     0.51826       61.18         4.237E-3      162.50        4.174E-3      163.52        0.48287       127.78         
1517.9825     0.51811       61.40         4.236E-3      161.25        4.235E-3      161.62        0.48213       127.83         
1519.4800     0.51783       61.63         4.259E-3      159.68        4.243E-3      159.84        0.48134       127.87         
1520.9775     0.51746       61.87         4.292E-3      158.05        4.294E-3      158.47        0.48043       127.88         
1522.4750     0.51698       62.10         4.265E-3      156.35        4.286E-3      156.84        0.47948       127.87         
1523.9725     0.51643       62.33         4.284E-3      154.50        4.293E-3      155.15        0.47843       127.84         
1525.4700     0.51568       62.55         4.266E-3      152.49        4.326E-3      153.45        0.47735       127.78         
1526.9675     0.51488       62.78         4.318E-3      151.17        4.349E-3      151.08        0.47625       127.70         
1528.4650     0.51387       62.99         4.338E-3      149.50        4.296E-3      149.61        0.47511       127.59         
1529.9625     0.5128        63.20         4.33E-3       148.04        4.346E-3      147.93        0.47407       127.46         
1531.4600     0.5117        63.41         4.364E-3      145.82        4.374E-3      146.75        0.47307       127.29         
1532.9575     0.51043       63.61         4.387E-3      144.31        4.398E-3      144.37        0.47217       127.10         
1534.4550     0.50913       63.80         4.368E-3      142.95        4.391E-3      142.89        0.47139       126.89         
1535.9525     0.50782       63.98         4.389E-3      140.98        4.407E-3      142.34        0.47076       126.66         
1537.4500     0.50656       64.17         4.387E-3      139.12        4.413E-3      139.54        0.47014       126.41         
1538.9475     0.50523       64.35         4.394E-3      137.38        4.429E-3      137.78        0.46977       126.14         
1540.4450     0.50401       64.53         4.417E-3      135.70        4.435E-3      136.42        0.46957       125.86         
1541.9425     0.50277       64.72         4.435E-3      134.12        4.455E-3      134.51        0.4695        125.57         
1543.4400     0.50161       64.91         4.428E-3      132.45        4.458E-3      132.37        0.46963       125.27         
1544.9375     0.50046       65.10         4.447E-3      130.17        4.455E-3      131.41        0.46991       124.96         
1546.4350     0.49933       65.30         4.469E-3      128.78        4.433E-3      129.15        0.47037       124.65         
1547.9325     0.49832       65.50         4.434E-3      126.89        4.435E-3      127.00        0.47091       124.36         
1549.4300     0.49734       65.70         4.436E-3      125.06        4.465E-3      125.67        0.4717        124.07         
1550.9275     0.49653       65.90         4.453E-3      122.80        4.481E-3      124.09        0.47259       123.79         
1552.4250     0.49569       66.11         4.434E-3      121.67        4.472E-3      121.92        0.47363       123.53         
1553.9225     0.49496       66.34         4.458E-3      120.07        4.457E-3      120.04        0.47478       123.29         
1555.4200     0.49442       66.58         4.452E-3      117.83        4.455E-3      118.25        0.47594       123.07         
1556.9175     0.4939        66.82         4.432E-3      116.15        4.493E-3      116.89        0.47718       122.87         
1558.4150     0.49349       67.08         4.459E-3      114.41        4.457E-3      115.42        0.47849       122.69         
1559.9125     0.49321       67.36         4.422E-3      112.86        4.441E-3      113.37        0.47974       122.54         
1561.4100     0.493         67.65         4.463E-3      111.28        4.478E-3      111.02        0.48111       122.41         
1562.9075     0.49278       67.95         4.445E-3      109.27        4.456E-3      109.83        0.48236       122.30         
1564.4050     0.4928        68.26         4.425E-3      107.95        4.506E-3      108.05        0.48356       122.21         
1565.9025     0.49285       68.58         4.438E-3      106.46        4.438E-3      106.27        0.48477       122.16         
1567.4000     0.49289       68.92         4.473E-3      104.10        4.425E-3      104.53        0.48585       122.11         
1568.8975     0.49294       69.27         4.423E-3      102.74        4.486E-3      102.75        0.48682       122.10         
1570.3950     0.49302       69.64         4.454E-3      101.42        4.484E-3      101.01        0.48764       122.10         
1571.8925     0.49313       70.00         4.456E-3      99.32         4.403E-3      99.79         0.48844       122.13         
1573.3900     0.49325       70.38         4.449E-3      97.76         4.455E-3      98.12         0.48901       122.16         
1574.8875     0.49323       70.78         4.406E-3      96.32         4.449E-3      96.04         0.48945       122.21         
1576.3850     0.49324       71.18         4.439E-3      94.66         4.433E-3      94.56         0.48982       122.25         
1577.8825     0.49333       71.59         4.462E-3      93.21         4.453E-3      93.00         0.49003       122.31         
1579.3800     0.49321       72.01         4.434E-3      91.19         4.444E-3      91.26         0.49009       122.37         
1580.8775     0.49306       72.43         4.471E-3      89.49         4.458E-3      90.02         0.48999       122.42         
1582.3750     0.49281       72.84         4.419E-3      88.07         4.526E-3      87.44         0.4898        122.47         
1583.8725     0.49258       73.26         4.461E-3      85.93         4.456E-3      86.13         0.48954       122.51         
1585.3700     0.49222       73.67         4.45E-3       84.51         4.515E-3      84.80         0.48912       122.54         
1586.8675     0.49184       74.07         4.469E-3      83.01         4.499E-3      82.94         0.4885        122.55         
1588.3650     0.49146       74.46         4.473E-3      80.85         4.507E-3      81.17         0.48789       122.57         
1589.8625     0.49088       74.86         4.487E-3      79.53         4.525E-3      79.44         0.48718       122.56         
1591.3600     0.49032       75.23         4.477E-3      77.60         4.496E-3      78.05         0.48636       122.52         
1592.8575     0.48974       75.61         4.46E-3       76.20         4.467E-3      76.10         0.48553       122.46         
1594.3550     0.48918       75.97         4.462E-3      74.09         4.519E-3      75.17         0.48473       122.39         
1595.8525     0.48867       76.31         4.482E-3      72.57         4.509E-3      72.61         0.48385       122.29         
1597.3500     0.4881        76.65         4.512E-3      70.30         4.497E-3      71.06         0.48306       122.17         
1598.8475     0.48761       76.98         4.518E-3      69.00         4.494E-3      68.93         0.48229       122.04         
1600.3450     0.48718       77.28         4.518E-3      66.80         4.502E-3      67.47         0.48156       121.88         
1601.8425     0.48672       77.58         4.477E-3      65.25         4.516E-3      65.59         0.48091       121.70         
1603.3400     0.48638       77.86         4.475E-3      63.95         4.498E-3      64.01         0.48032       121.49         
1604.8375     0.48604       78.14         4.53E-3       62.23         4.498E-3      62.05         0.47986       121.27         
1606.3350     0.48583       78.40         4.523E-3      60.39         4.513E-3      60.47         0.47949       121.02         
1607.8325     0.48568       78.64         4.489E-3      58.87         4.487E-3      58.76         0.47932       120.77         
1609.3300     0.48561       78.88         4.463E-3      57.11         4.474E-3      56.93         0.47919       120.51         
1610.8275     0.48558       79.11         4.514E-3      55.14         4.469E-3      55.29         0.47925       120.24         
1612.3250     0.48572       79.35         4.454E-3      53.49         4.511E-3      53.19         0.47946       119.96         
1613.8225     0.48597       79.56         4.462E-3      51.60         4.523E-3      51.49         0.47976       119.68         
1615.3200     0.48631       79.79         4.43E-3       50.74         4.481E-3      50.44         0.48025       119.41         
1616.8175     0.48682       80.00         4.521E-3      48.34         4.517E-3      48.09         0.48081       119.15         
1618.3150     0.48733       80.22         4.49E-3       46.66         4.484E-3      46.51         0.48151       118.88         
1619.8125     0.48805       80.42         4.486E-3      44.61         4.502E-3      45.12         0.4823        118.64         
1621.3100     0.48882       80.64         4.49E-3       43.53         4.571E-3      43.57         0.48313       118.40         
1622.8075     0.48969       80.86         4.508E-3      41.18         4.513E-3      41.63         0.48409       118.18         
1624.3050     0.49068       81.07         4.498E-3      39.71         4.517E-3      40.16         0.48515       117.96         
1625.8025     0.49166       81.28         4.477E-3      38.26         4.526E-3      38.14         0.4862        117.78         
1627.3000     0.4926        81.51         4.524E-3      36.57         4.54E-3       36.46         0.48729       117.62         
1628.7975     0.49359       81.72         4.499E-3      34.76         4.539E-3      34.75         0.48844       117.48         
1630.2950     0.49456       81.95         4.525E-3      32.77         4.585E-3      32.99         0.48952       117.36         
1631.7925     0.49562       82.18         4.521E-3      30.97         4.495E-3      30.87         0.49059       117.27         
1633.2900     0.49648       82.42         4.50E-3       29.82         4.487E-3      29.74         0.49161       117.19         
1634.7875     0.49729       82.66         4.503E-3      27.96         4.52E-3       27.95         0.49255       117.14         
1636.2850     0.498         82.90         4.476E-3      25.95         4.514E-3      26.25         0.49343       117.10         
1637.7825     0.49858       83.14         4.507E-3      24.09         4.551E-3      24.15         0.49423       117.08         
1639.2800     0.49902       83.38         4.533E-3      22.43         4.534E-3      22.64         0.49499       117.09         
1640.7775     0.49931       83.61         4.492E-3      20.58         4.563E-3      21.38         0.49556       117.10         
1642.2750     0.49943       83.85         4.519E-3      19.14         4.486E-3      19.02         0.49618       117.12         
1643.7725     0.49941       84.09         4.522E-3      17.09         4.506E-3      17.86         0.49655       117.14         
1645.2700     0.49919       84.31         4.514E-3      15.26         4.536E-3      15.98         0.49678       117.17         
1646.7675     0.49883       84.53         4.522E-3      13.92         4.514E-3      13.89         0.49689       117.21         
1648.2650     0.49824       84.74         4.526E-3      11.88         4.516E-3      12.26         0.49679       117.25         
1649.7625     0.49744       84.94         4.519E-3      10.42         4.501E-3      10.61         0.4966        117.29         
1651.2600     0.49652       85.14         4.53E-3       8.50          4.533E-3      8.70          0.49633       117.33         
1652.7575     0.49546       85.32         4.512E-3      6.64          4.522E-3      6.73          0.49596       117.35         
1654.2550     0.49407       85.49         4.546E-3      5.13          4.54E-3       4.98          0.49543       117.38         
1655.7525     0.49267       85.64         4.564E-3      2.75          4.523E-3      3.75          0.4949        117.38         
1657.2500     0.49114       85.78         4.53E-3       1.48          4.54E-3       1.50          0.49417       117.37         
1658.7475     0.48938       85.91         4.522E-3      -0.38         4.541E-3      -0.21         0.49346       117.35         
1660.2450     0.48755       86.02         4.571E-3      -2.88         4.563E-3      -2.11         0.49266       117.31         
1661.7425     0.48561       86.13         4.541E-3      -4.23         4.535E-3      -3.83         0.49185       117.24         
1663.2400     0.48362       86.22         4.557E-3      -6.23         4.577E-3      -5.95         0.49102       117.15         
1664.7375     0.48158       86.29         4.553E-3      -7.36         4.561E-3      -7.56         0.49014       117.04         
1666.2350     0.47956       86.36         4.559E-3      -9.77         4.541E-3      -9.16         0.48932       116.90         
1667.7325     0.47731       86.41         4.535E-3      -11.49        4.537E-3      -11.60        0.4885        116.75         
1669.2300     0.4752        86.47         4.567E-3      -13.16        4.576E-3      -12.64        0.48777       116.56         
1670.7275     0.47317       86.50         4.574E-3      -15.33        4.536E-3      -15.02        0.48706       116.37         
1672.2250     0.47111       86.55         4.562E-3      -17.71        4.572E-3      -16.75        0.48653       116.14         
1673.7225     0.46913       86.58         4.526E-3      -18.87        4.562E-3      -18.84        0.48601       115.91         
1675.2200     0.46709       86.61         4.518E-3      -21.02        4.567E-3      -20.70        0.48563       115.65         
1676.7175     0.46516       86.62         4.513E-3      -22.75        4.522E-3      -22.23        0.48533       115.39         
1678.2150     0.46316       86.65         4.508E-3      -24.90        4.536E-3      -24.51        0.4852        115.11         
1679.7125     0.4612        86.67         4.511E-3      -26.91        4.53E-3       -26.34        0.48521       114.83         
1681.2100     0.45927       86.70         4.489E-3      -28.70        4.526E-3      -28.23        0.48534       114.54         
1682.7075     0.45732       86.73         4.492E-3      -30.47        4.515E-3      -30.59        0.48564       114.23         
1684.2050     0.45536       86.77         4.486E-3      -32.77        4.498E-3      -32.38        0.48603       113.94         
1685.7025     0.45329       86.83         4.477E-3      -34.87        4.481E-3      -33.69        0.48664       113.65         
1687.2000     0.45103       86.88         4.46E-3       -36.80        4.446E-3      -35.81        0.48732       113.37         
1688.6975     0.44865       86.95         4.455E-3      -38.48        4.471E-3      -37.81        0.48814       113.10         
1690.1950     0.44603       87.04         4.422E-3      -40.28        4.443E-3      -39.91        0.48907       112.84         
1691.6925     0.44315       87.16         4.376E-3      -42.41        4.381E-3      -42.33        0.49011       112.60         
1693.1900     0.43996       87.29         4.402E-3      -44.58        4.364E-3      -43.68        0.49119       112.38         
1694.6875     0.43626       87.47         4.353E-3      -46.17        4.335E-3      -46.04        0.49238       112.18         
1696.1850     0.43212       87.69         4.351E-3      -47.70        4.333E-3      -47.47        0.49355       112.01         
1697.6825     0.42741       87.98         4.303E-3      -50.07        4.297E-3      -49.77        0.49481       111.86         
1699.1800     0.42228       88.39         4.321E-3      -52.28        4.301E-3      -51.59        0.49608       111.73         
1700.6775     0.41667       88.93         4.256E-3      -53.66        4.242E-3      -53.47        0.49736       111.63         
1702.1750     0.41099       89.62         4.233E-3      -55.77        4.241E-3      -54.75        0.49866       111.55         
1703.6725     0.40564       90.50         4.235E-3      -57.01        4.193E-3      -57.01        0.49987       111.49         
1705.1700     0.40097       91.56         4.178E-3      -59.27        4.178E-3      -58.39        0.50093       111.46         
1706.6675     0.39752       92.75         4.166E-3      -60.59        4.178E-3      -60.28        0.50199       111.45         
1708.1650     0.3955        93.99         4.176E-3      -61.88        4.124E-3      -62.17        0.50298       111.46         
1709.6625     0.39484       95.17         4.122E-3      -64.02        4.155E-3      -63.59        0.50384       111.48         
1711.1600     0.39525       96.24         4.149E-3      -66.14        4.137E-3      -65.24        0.5045        111.53         
1712.6575     0.39617       97.14         4.112E-3      -67.21        4.128E-3      -67.20        0.50511       111.59         
1714.1550     0.3973        97.90         4.12E-3       -69.24        4.118E-3      -69.21        0.50561       111.67         
1715.6525     0.39832       98.52         4.086E-3      -71.28        4.066E-3      -70.99        0.50593       111.74         
1717.1500     0.39894       99.04         4.072E-3      -73.17        4.11E-3       -72.90        0.50614       111.83         
1718.6475     0.39917       99.47         4.033E-3      -74.93        4.039E-3      -74.16        0.50614       111.92         
1720.1450     0.39897       99.83         4.017E-3      -77.14        4.039E-3      -76.30        0.50606       112.01         
1721.6425     0.39836       100.14        4.004E-3      -78.79        4.008E-3      -78.59        0.50578       112.10         
1723.1400     0.39744       100.41        3.996E-3      -80.66        4.017E-3      -80.48        0.50545       112.17         
1724.6375     0.39612       100.68        3.961E-3      -82.34        3.977E-3      -82.02        0.50492       112.24         
1726.1350     0.3946        100.91        3.932E-3      -84.30        3.944E-3      -83.95        0.50425       112.29         
1727.6325     0.39289       101.14        3.916E-3      -85.97        3.939E-3      -85.62        0.50352       112.32         
1729.1300     0.39098       101.35        3.892E-3      -87.69        3.904E-3      -87.43        0.50263       112.34         
1730.6275     0.38905       101.57        3.875E-3      -89.61        3.886E-3      -89.58        0.5017        112.34         
1732.1250     0.38689       101.77        3.838E-3      -91.81        3.871E-3      -91.27        0.50068       112.32         
1733.6225     0.38476       101.99        3.82E-3       -93.58        3.823E-3      -92.93        0.4996        112.27         
1735.1200     0.38264       102.19        3.758E-3      -95.11        3.795E-3      -94.93        0.49853       112.20         
1736.6175     0.38058       102.41        3.78E-3       -97.17        3.772E-3      -96.49        0.49744       112.11         
1738.1150     0.37855       102.64        3.739E-3      -99.08        3.764E-3      -98.62        0.49635       111.98         
1739.6125     0.37661       102.88        3.711E-3      -100.34       3.739E-3      -99.95        0.49519       111.84         
1741.1100     0.37472       103.13        3.688E-3      -102.74       3.703E-3      -102.22       0.49412       111.66         
1742.6075     0.37299       103.40        3.66E-3       -104.64       3.663E-3      -104.67       0.49317       111.46         
1744.1050     0.37132       103.68        3.623E-3      -105.80       3.666E-3      -105.90       0.49227       111.23         
1745.6025     0.36973       103.98        3.602E-3      -107.81       3.545E-3      -107.46       0.49142       110.98         
1747.1000     0.36831       104.32        3.572E-3      -109.58       3.569E-3      -109.15       0.49079       110.71         
1748.5975     0.36687       104.68        3.562E-3      -111.36       3.534E-3      -111.45       0.4902        110.43         
1750.0950     0.36557       105.06        3.498E-3      -113.11       3.506E-3      -112.90       0.48981       110.13         
1751.5925     0.36436       105.47        3.487E-3      -114.91       3.476E-3      -114.42       0.48955       109.82         
1753.0900     0.36326       105.92        3.432E-3      -116.83       3.446E-3      -116.48       0.48941       109.52         
1754.5875     0.36209       106.41        3.408E-3      -118.70       3.416E-3      -118.03       0.48948       109.20         
1756.0850     0.36102       106.91        3.401E-3      -120.36       3.392E-3      -120.09       0.4897        108.88         
1757.5825     0.36003       107.47        3.346E-3      -121.47       3.374E-3      -121.95       0.49006       108.57         
1759.0800     0.35899       108.06        3.307E-3      -123.78       3.296E-3      -123.17       0.49062       108.27         
1760.5775     0.35805       108.69        3.273E-3      -125.17       3.276E-3      -124.65       0.49132       107.97         
1762.0750     0.35713       109.35        3.225E-3      -126.73       3.245E-3      -126.59       0.49212       107.68         
1763.5725     0.35638       110.04        3.19E-3       -128.85       3.187E-3      -128.23       0.49308       107.41         
1765.0700     0.35565       110.74        3.177E-3      -129.85       3.169E-3      -129.71       0.49415       107.16         
1766.5675     0.35494       111.46        3.162E-3      -131.79       3.135E-3      -130.87       0.49526       106.93         
1768.0650     0.35423       112.18        3.103E-3      -133.71       3.139E-3      -133.03       0.49639       106.72         
1769.5625     0.35378       112.93        3.058E-3      -134.92       3.082E-3      -134.15       0.49763       106.54         
1771.0600     0.35339       113.65        3.03E-3       -136.11       3.046E-3      -135.63       0.49884       106.39         
1772.5575     0.35306       114.32        3.011E-3      -137.77       3.025E-3      -137.06       0.50009       106.27         
1774.0550     0.35244       114.94        2.971E-3      -139.83       2.982E-3      -138.30       0.50135       106.17         
1775.5525     0.35155       115.58        2.95E-3       -140.82       2.971E-3      -139.97       0.50263       106.09         
1777.0500     0.35052       116.19        2.915E-3      -142.54       2.941E-3      -141.79       0.50376       106.04         
1778.5475     0.34945       116.79        2.883E-3      -143.06       2.892E-3      -142.92       0.5049        106.01         
1780.0450     0.34816       117.40        2.835E-3      -145.54       2.864E-3      -144.77       0.50593       106.01         
1781.5425     0.34698       117.98        2.823E-3      -147.02       2.824E-3      -146.44       0.5068        106.02         
1783.0400     0.3457        118.54        2.783E-3      -148.78       2.817E-3      -147.94       0.50763       106.05         
1784.5375     0.34437       119.08        2.756E-3      -149.40       2.759E-3      -149.15       0.50834       106.09         
1786.0350     0.34302       119.60        2.728E-3      -152.40       2.728E-3      -150.48       0.50891       106.13         
1787.5325     0.34176       120.09        2.705E-3      -153.19       2.679E-3      -152.63       0.5093        106.19         
1789.0300     0.34049       120.55        2.659E-3      -154.36       2.659E-3      -153.83       0.50955       106.25         
1790.5275     0.3392        120.97        2.597E-3      -155.33       2.687E-3      -154.60       0.50963       106.32         
1792.0250     0.33786       121.35        2.59E-3       -157.37       2.621E-3      -156.33       0.5096        106.38         
1793.5225     0.33674       121.71        2.544E-3      -158.44       2.553E-3      -158.32       0.50941       106.44         
1795.0200     0.33561       122.03        2.556E-3      -159.75       2.578E-3      -158.33       0.50904       106.49         
1796.5175     0.3346        122.35        2.518E-3      -160.88       2.56E-3       -160.07       0.50861       106.54         
1798.0150     0.33366       122.62        2.486E-3      -161.98       2.468E-3      -160.91       0.50805       106.57         
1799.5125     0.33279       122.87        2.444E-3      -163.64       2.472E-3      -163.17       0.50735       106.59         
1801.0100     0.332         123.09        2.441E-3      -164.03       2.45E-3       -164.02       0.50652       106.59         
1802.5075     0.33137       123.30        2.403E-3      -166.13       2.415E-3      -165.48       0.50574       106.56         
1804.0050     0.33086       123.48        2.373E-3      -167.19       2.393E-3      -166.80       0.50485       106.52         
1805.5025     0.33035       123.64        2.345E-3      -168.25       2.365E-3      -168.00       0.50396       106.45         
1807.0000     0.33001       123.79        2.348E-3      -169.14       2.339E-3      -170.62       0.50302       106.36         
1808.4975     0.32969       123.93        2.297E-3      -169.70       2.339E-3      -170.02       0.50207       106.25         
1809.9950     0.32944       124.05        2.32E-3       -170.76       2.296E-3      -171.02       0.50121       106.11         
1811.4925     0.32922       124.18        2.312E-3      -172.39       2.309E-3      -172.33       0.50038       105.94         
1812.9900     0.32907       124.30        2.254E-3      -174.10       2.269E-3      -173.17       0.49957       105.76         
1814.4875     0.32883       124.44        2.227E-3      -174.63       2.243E-3      -174.33       0.49892       105.56         
1815.9850     0.32854       124.58        2.234E-3      -176.13       2.238E-3      -175.26       0.4983        105.34         
1817.4825     0.32826       124.74        2.203E-3      -177.28       2.243E-3      -177.64       0.49786       105.10         
1818.9800     0.32788       124.89        2.185E-3      -178.48       2.212E-3      -177.39       0.49754       104.85         
1820.4775     0.32742       125.07        2.184E-3      -179.55       2.199E-3      -179.14       0.49737       104.59         
1821.9750     0.32686       125.26        2.153E-3      179.64        2.179E-3      -179.56       0.49734       104.32         
1823.4725     0.32621       125.47        2.145E-3      178.55        2.156E-3      179.31        0.49753       104.05         
1824.9700     0.32533       125.68        2.131E-3      177.48        2.126E-3      177.36        0.49773       103.77         
1826.4675     0.32433       125.90        2.093E-3      176.16        2.108E-3      177.57        0.49816       103.50         
1827.9650     0.32318       126.15        2.083E-3      175.44        2.124E-3      176.44        0.49872       103.24         
1829.4625     0.32175       126.40        2.058E-3      174.31        2.087E-3      175.29        0.49942       102.99         
1830.9600     0.32016       126.66        2.053E-3      172.84        2.101E-3      174.00        0.50026       102.76         
1832.4575     0.31835       126.92        2.024E-3      172.36        2.083E-3      172.95        0.50126       102.55         
1833.9550     0.31626       127.20        2.041E-3      170.82        2.045E-3      172.23        0.50237       102.36         
1835.4525     0.31398       127.46        2.027E-3      169.89        2.034E-3      171.09        0.50347       102.18         
1836.9500     0.31153       127.74        1.997E-3      168.56        2.047E-3      170.04        0.5047        102.04         
1838.4475     0.30881       128.00        1.988E-3      168.08        2.024E-3      168.38        0.50585       101.91         
1839.9450     0.30583       128.27        1.997E-3      166.89        2.007E-3      167.71        0.50717       101.81         
1841.4425     0.30265       128.52        1.997E-3      166.42        2.02E-3       167.34        0.50839       101.74         
1842.9400     0.29918       128.77        1.965E-3      165.87        1.991E-3      165.68        0.50956       101.69         
1844.4375     0.29555       129.02        1.941E-3      164.93        1.977E-3      164.72        0.51072       101.66         
1845.9350     0.29172       129.24        1.94E-3       163.41        1.985E-3      163.99        0.51178       101.66         
1847.4325     0.28778       129.46        1.958E-3      162.84        1.968E-3      162.58        0.51271       101.68         
1848.9300     0.28356       129.66        1.935E-3      161.65        1.965E-3      162.18        0.51356       101.72         
1850.4275     0.27928       129.86        1.909E-3      160.72        1.976E-3      161.48        0.51417       101.78         
1851.9250     0.27487       130.05        1.95E-3       160.11        1.992E-3      159.99        0.51471       101.86         
1853.4225     0.2704        130.24        1.936E-3      158.47        1.972E-3      159.59        0.51506       101.94         
1854.9200     0.26583       130.42        1.965E-3      158.93        1.962E-3      158.07        0.51527       102.04         
1856.4175     0.26113       130.60        1.95E-3       157.49        1.969E-3      158.03        0.51527       102.14         
1857.9150     0.25646       130.77        1.968E-3      156.44        1.979E-3      156.40        0.51517       102.24         
1859.4125     0.25182       130.95        1.931E-3      153.70        1.977E-3      155.58        0.51486       102.34         
1860.9100     0.24713       131.14        1.946E-3      153.80        1.972E-3      154.49        0.51442       102.43         
1862.4075     0.24253       131.33        1.951E-3      152.69        1.981E-3      153.09        0.51376       102.52         
1863.9050     0.23798       131.54        1.965E-3      151.96        1.97E-3       151.02        0.51296       102.59         
1865.4025     0.23344       131.77        1.966E-3      150.79        1.999E-3      150.01        0.51201       102.64         
1866.9000     0.22893       132.02        1.967E-3      150.17        1.98E-3       148.82        0.51095       102.68         
1868.3975     0.22449       132.30        1.978E-3      148.44        1.991E-3      148.95        0.50979       102.69         
1869.8950     0.22016       132.61        1.99E-3       147.60        1.991E-3      148.05        0.50849       102.68         
1871.3925     0.21595       132.99        2.005E-3      146.07        2.016E-3      146.13        0.50717       102.63         
1872.8900     0.2117        133.39        1.984E-3      144.72        2.011E-3      145.59        0.50577       102.57         
1874.3875     0.20755       133.87        2.002E-3      143.08        2.00E-3       144.38        0.50443       102.48         
1875.8850     0.20348       134.43        2.007E-3      141.57        1.99E-3       142.94        0.50307       102.36         
1877.3825     0.19951       135.04        1.987E-3      141.02        2.006E-3      141.25        0.50173       102.20         
1878.8800     0.19558       135.76        2.002E-3      139.88        2.008E-3      139.83        0.50046       102.02         
1880.3775     0.19161       136.56        1.997E-3      138.46        2.025E-3      139.01        0.49927       101.81         
1881.8750     0.18782       137.47        2.014E-3      137.04        2.001E-3      137.60        0.49823       101.56         
1883.3725     0.18402       138.43        2.02E-3       136.42        2.01E-3       136.25        0.49735       101.29         
1884.8700     0.18034       139.55        2.017E-3      134.85        2.015E-3      135.08        0.49653       101.00         
1886.3675     0.17671       140.75        1.989E-3      132.31        2.013E-3      134.00        0.49591       100.68         
1887.8650     0.1731        142.09        2.014E-3      131.73        1.998E-3      132.17        0.49553       100.36         
1889.3625     0.16962       143.53        1.993E-3      129.36        1.98E-3       130.96        0.49531       100.02         
1890.8600     0.16635       145.09        2.029E-3      128.78        2.046E-3      129.27        0.49535       99.68          
1892.3575     0.16306       146.79        2.022E-3      127.15        2.011E-3      128.30        0.49563       99.35          
1893.8550     0.16          148.61        1.998E-3      126.05        2.018E-3      126.62        0.49609       99.01          
1895.3525     0.15712       150.55        2.034E-3      124.21        2.021E-3      124.80        0.4967        98.68          
1896.8500     0.15439       152.60        2.01E-3       122.40        2.009E-3      123.35        0.49765       98.37          
1898.3475     0.15194       154.77        2.011E-3      122.37        2.014E-3      121.38        0.4988        98.07          
1899.8450     0.14965       157.04        1.995E-3      119.76        2.014E-3      120.96        0.49996       97.80          
1901.3425     0.14763       159.38        2.00E-3       118.79        1.955E-3      119.20        0.50135       97.55          
1902.8400     0.14583       161.82        1.977E-3      116.55        1.989E-3      117.38        0.50284       97.33          
1904.3375     0.14436       164.26        2.013E-3      115.16        1.99E-3       116.76        0.50444       97.14          
1905.8350     0.14311       166.77        1.959E-3      114.21        1.966E-3      115.55        0.50607       96.98          
1907.3325     0.14212       169.28        1.953E-3      113.10        2.003E-3      114.20        0.50773       96.85          
1908.8300     0.14144       171.78        1.933E-3      111.58        1.955E-3      112.03        0.5094        96.76          
1910.3275     0.141         174.28        1.941E-3      110.26        1.96E-3       111.08        0.51105       96.70          
1911.8250     0.14085       176.74        1.953E-3      109.23        1.954E-3      109.42        0.51259       96.68          
1913.3225     0.14099       179.12        1.943E-3      108.25        1.942E-3      108.60        0.51404       96.70          
1914.8200     0.1412        -178.56       1.944E-3      107.09        1.927E-3      106.56        0.51542       96.74          
1916.3175     0.14178       -176.29       1.923E-3      105.65        1.95E-3       105.32        0.5166        96.81          
1917.8150     0.1425        -174.15       1.943E-3      104.94        1.955E-3      104.79        0.51764       96.90          
1919.3125     0.14337       -172.09       1.94E-3       102.92        1.94E-3       103.64        0.5185        97.01          
1920.8100     0.14443       -170.14       1.925E-3      101.35        1.931E-3      102.55        0.51911       97.14          
1922.3075     0.1458        -168.31       1.914E-3      101.13        1.951E-3      100.66        0.51962       97.29          
1923.8050     0.14721       -166.57       1.91E-3       98.77         1.944E-3      100.13        0.51983       97.44          
1925.3025     0.14874       -164.92       1.90E-3       98.21         1.918E-3      98.16         0.51983       97.60          
1926.8000     0.15037       -163.41       1.921E-3      96.81         1.93E-3       98.33         0.51965       97.76          
1928.2975     0.15221       -162.00       1.917E-3      95.57         1.914E-3      95.43         0.51921       97.92          
1929.7950     0.15406       -160.70       1.918E-3      94.17         1.911E-3      95.58         0.51857       98.07          
1931.2925     0.15596       -159.51       1.903E-3      92.84         1.891E-3      94.20         0.51772       98.21          
1932.7900     0.15799       -158.39       1.889E-3      92.25         1.937E-3      92.57         0.5167        98.33          
1934.2875     0.16009       -157.36       1.894E-3      90.49         1.922E-3      91.61         0.51551       98.43          
1935.7850     0.16218       -156.43       1.901E-3      89.04         1.926E-3      89.86         0.51417       98.51          
1937.2825     0.1643        -155.58       1.866E-3      87.29         1.90E-3       89.20         0.51277       98.57          
1938.7800     0.1666        -154.79       1.90E-3       86.97         1.909E-3      87.59         0.51117       98.59          
1940.2775     0.16883       -154.07       1.911E-3      85.49         1.874E-3      86.70         0.50947       98.58          
1941.7750     0.17108       -153.39       1.886E-3      83.76         1.901E-3      84.88         0.50783       98.53          
1943.2725     0.17344       -152.78       1.899E-3      81.66         1.911E-3      83.08         0.5061        98.45          
1944.7700     0.17579       -152.20       1.888E-3      81.20         1.924E-3      82.28         0.5044        98.33          
1946.2675     0.17814       -151.67       1.861E-3      79.99         1.878E-3      80.50         0.50271       98.17          
1947.7650     0.18051       -151.13       1.876E-3      78.12         1.869E-3      79.38         0.50117       97.99          
1949.2625     0.18281       -150.62       1.898E-3      77.01         1.887E-3      77.44         0.49969       97.76          
1950.7600     0.18511       -150.13       1.878E-3      75.92         1.88E-3       76.84         0.49848       97.51          
1952.2575     0.18726       -149.66       1.867E-3      75.11         1.901E-3      75.25         0.49738       97.23          
1953.7550     0.18946       -149.22       1.868E-3      74.15         1.862E-3      75.09         0.49651       96.92          
1955.2525     0.19156       -148.74       1.849E-3      72.45         1.865E-3      72.68         0.49593       96.59          
1956.7500     0.19356       -148.29       1.896E-3      71.03         1.89E-3       71.89         0.49545       96.24          
1958.2475     0.19547       -147.84       1.818E-3      69.04         1.848E-3      70.15         0.4953        95.88          
1959.7450     0.19724       -147.36       1.847E-3      68.56         1.837E-3      69.87         0.49535       95.52          
1961.2425     0.19884       -146.87       1.854E-3      68.37         1.854E-3      67.73         0.49568       95.15          
1962.7400     0.2003        -146.39       1.839E-3      65.73         1.851E-3      66.93         0.49624       94.80          
1964.2375     0.20159       -145.88       1.833E-3      64.64         1.834E-3      66.31         0.49699       94.45          
1965.7350     0.20274       -145.35       1.848E-3      64.26         1.84E-3       65.18         0.49801       94.12          
1967.2325     0.20366       -144.82       1.809E-3      62.30         1.853E-3      62.38         0.49919       93.82          
1968.7300     0.20444       -144.27       1.84E-3       61.22         1.846E-3      61.93         0.50057       93.54          
1970.2275     0.20495       -143.72       1.847E-3      60.10         1.816E-3      61.28         0.50208       93.30          
1971.7250     0.20536       -143.15       1.854E-3      59.97         1.836E-3      59.55         0.50368       93.08          
1973.2225     0.20558       -142.61       1.834E-3      58.24         1.833E-3      58.78         0.50538       92.90          
1974.7200     0.20561       -142.00       1.849E-3      57.26         1.83E-3       57.61         0.50709       92.77          
1976.2175     0.20554       -141.38       1.831E-3      54.06         1.85E-3       56.72         0.50886       92.66          
1977.7150     0.2052        -140.77       1.836E-3      55.27         1.831E-3      54.95         0.51059       92.60          
1979.2125     0.20471       -140.14       1.822E-3      54.02         1.832E-3      54.30         0.51229       92.57          
1980.7100     0.20402       -139.48       1.824E-3      52.54         1.837E-3      52.89         0.51387       92.58          
1982.2075     0.20314       -138.82       1.867E-3      51.20         1.81E-3       52.56         0.51529       92.63          
1983.7050     0.20218       -138.12       1.849E-3      49.80         1.826E-3      51.59         0.51665       92.71          
1985.2025     0.20115       -137.42       1.838E-3      48.87         1.824E-3      49.86         0.51778       92.80          
1986.7000     0.19989       -136.69       1.82E-3       46.97         1.809E-3      47.86         0.51867       92.94          
1988.1975     0.19858       -135.95       1.819E-3      46.57         1.843E-3      46.61         0.51934       93.09          
1989.6950     0.19713       -135.17       1.856E-3      45.35         1.831E-3      45.85         0.51978       93.26          
1991.1925     0.19568       -134.36       1.849E-3      43.61         1.815E-3      45.63         0.52          93.45          
1992.6900     0.19411       -133.54       1.85E-3       43.13         1.836E-3      44.73         0.51996       93.64          
1994.1875     0.19246       -132.68       1.862E-3      40.93         1.86E-3       43.03         0.51974       93.83          
1995.6850     0.19078       -131.83       1.859E-3      40.85         1.868E-3      41.83         0.51924       94.02          
1997.1825     0.18908       -130.89       1.865E-3      38.44         1.886E-3      39.50         0.51852       94.21          
1998.6800     0.18752       -129.97       1.889E-3      38.68         1.862E-3      38.50         0.51752       94.38          
2000.1775     0.18592       -129.01       1.864E-3      36.03         1.844E-3      37.14         0.51634       94.54          
2001.6750     0.1844        -128.00       1.875E-3      34.43         1.872E-3      35.46         0.51497       94.67          
2003.1725     0.18297       -126.95       1.899E-3      33.90         1.89E-3       35.51         0.51339       94.78          
2004.6700     0.18172       -125.85       1.87E-3       31.99         1.875E-3      33.23         0.51171       94.85          
2006.1675     0.18055       -124.72       1.891E-3      31.23         1.915E-3      31.71         0.50987       94.89          
2007.6650     0.17954       -123.55       1.903E-3      30.03         1.914E-3      30.27         0.50796       94.90          
2009.1625     0.17876       -122.32       1.923E-3      28.37         1.935E-3      29.52         0.50602       94.87          
2010.6600     0.17803       -121.07       1.928E-3      27.04         1.897E-3      27.91         0.50397       94.80          
2012.1575     0.17759       -119.76       1.903E-3      24.86         1.907E-3      26.28         0.50205       94.68          
2013.6550     0.17732       -118.40       1.975E-3      23.35         1.946E-3      25.10         0.50014       94.53          
2015.1525     0.17725       -117.01       1.925E-3      23.69         1.946E-3      23.34         0.49831       94.33          
2016.6500     0.17745       -115.61       1.959E-3      20.74         1.964E-3      22.48         0.49664       94.09          
2018.1475     0.17789       -114.12       1.96E-3       20.21         1.974E-3      21.02         0.49509       93.81          
2019.6450     0.1785        -112.66       1.966E-3      18.97         1.979E-3      19.36         0.49377       93.50          
2021.1425     0.1795        -111.15       1.968E-3      17.27         1.976E-3      17.72         0.49263       93.15          
2022.6400     0.1807        -109.61       1.973E-3      16.36         1.966E-3      16.44         0.49172       92.78          
2024.1375     0.18217       -108.08       1.986E-3      14.58         1.948E-3      14.64         0.49117       92.38          
2025.6350     0.1839        -106.54       1.997E-3      13.29         1.957E-3      13.42         0.49077       91.97          
2027.1325     0.18588       -104.96       1.96E-3       11.88         1.998E-3      11.79         0.49076       91.55          
2028.6300     0.1881        -103.40       2.011E-3      10.16         2.02E-3       9.58          0.49097       91.13          
2030.1275     0.19058       -101.86       1.987E-3      8.69          2.012E-3      9.07          0.49153       90.70          
2031.6250     0.19335       -100.33       2.014E-3      8.02          2.052E-3      7.07          0.4923        90.30          
2033.1225     0.19651       -98.82        2.028E-3      5.28          2.011E-3      5.57          0.49341       89.91          
2034.6200     0.19991       -97.29        2.019E-3      3.67          2.022E-3      3.34          0.49474       89.54          
2036.1175     0.20361       -95.80        1.991E-3      1.82          2.06E-3       1.45          0.49629       89.20          
2037.6150     0.20764       -94.32        2.021E-3      0.87          2.001E-3      1.00          0.49799       88.90          
2039.1125     0.21217       -92.89        2.022E-3      -1.48         2.024E-3      -3.10         0.49984       88.63          
2040.6100     0.21704       -91.56        2.002E-3      -3.29         2.006E-3      -1.86         0.50183       88.40          
2042.1075     0.22226       -90.35        2.009E-3      -4.69         2.002E-3      -5.00         0.50392       88.21          
2043.6050     0.22776       -89.28        1.998E-3      -5.73         1.998E-3      -6.39         0.50599       88.07          
2045.1025     0.23329       -88.35        2.011E-3      -7.95         1.977E-3      -7.07         0.50812       87.98          
2046.6000     0.23859       -87.53        2.00E-3       -9.04         1.985E-3      -8.30         0.5101        87.92          
2048.0975     0.24378       -86.80        1.977E-3      -9.74         1.992E-3      -9.57         0.51203       87.91          
2049.5950     0.24884       -86.09        1.988E-3      -12.37        1.973E-3      -11.26        0.51392       87.95          
2051.0925     0.25372       -85.43        1.982E-3      -13.23        1.965E-3      -13.83        0.5156        88.02          
2052.5900     0.25843       -84.79        1.969E-3      -14.69        1.962E-3      -14.85        0.5171        88.12          
2054.0875     0.26308       -84.18        1.954E-3      -15.55        1.958E-3      -16.44        0.51842       88.25          
2055.5850     0.26772       -83.59        1.943E-3      -18.04        1.966E-3      -18.00        0.51953       88.42          
2057.0825     0.27232       -83.06        1.95E-3       -19.26        1.928E-3      -18.79        0.52043       88.61          
2058.5800     0.27689       -82.54        1.956E-3      -20.38        1.966E-3      -19.85        0.52102       88.82          
2060.0775     0.28136       -82.08        1.964E-3      -22.21        1.954E-3      -22.18        0.52139       89.03          
2061.5750     0.28591       -81.65        1.931E-3      -23.14        1.93E-3       -22.67        0.5215        89.26          
2063.0725     0.29031       -81.27        1.948E-3      -24.31        1.887E-3      -24.27        0.52128       89.48          
2064.5700     0.29468       -80.93        1.969E-3      -25.57        1.934E-3      -24.93        0.52096       89.72          
2066.0675     0.29899       -80.63        1.922E-3      -28.43        1.937E-3      -26.08        0.52021       89.94          
2067.5650     0.30326       -80.38        1.946E-3      -30.46        1.904E-3      -27.78        0.51935       90.15          
2069.0625     0.30738       -80.16        1.944E-3      -29.35        1.907E-3      -30.80        0.51819       90.34          
2070.5600     0.31148       -79.97        1.947E-3      -31.39        1.931E-3      -31.32        0.51688       90.51          
2072.0575     0.31553       -79.81        1.939E-3      -33.14        1.903E-3      -32.83        0.51539       90.66          
2073.5550     0.31947       -79.68        1.938E-3      -35.00        1.941E-3      -34.20        0.51383       90.76          
2075.0525     0.32329       -79.57        1.954E-3      -35.61        1.942E-3      -36.38        0.51204       90.84          
2076.5500     0.32707       -79.50        1.959E-3      -36.99        1.915E-3      -37.87        0.51025       90.88          
2078.0475     0.33085       -79.45        1.928E-3      -38.54        1.916E-3      -37.01        0.50833       90.89          
2079.5450     0.33455       -79.43        1.938E-3      -40.79        1.885E-3      -39.85        0.5064        90.85          
2081.0425     0.33819       -79.41        1.96E-3       -42.31        1.906E-3      -41.72        0.50449       90.77          
2082.5400     0.34169       -79.42        1.937E-3      -43.04        1.909E-3      -43.49        0.50268       90.64          
2084.0375     0.34517       -79.44        1.921E-3      -45.12        1.921E-3      -44.84        0.50082       90.48          
2085.5350     0.34858       -79.46        1.907E-3      -46.98        1.91E-3       -45.56        0.49926       90.26          
2087.0325     0.35192       -79.49        1.949E-3      -47.11        1.891E-3      -48.34        0.49778       90.02          
2088.5300     0.35519       -79.52        1.922E-3      -48.64        1.893E-3      -49.48        0.49648       89.74          
2090.0275     0.35844       -79.56        1.929E-3      -50.82        1.878E-3      -49.30        0.49549       89.43          
2091.5250     0.36154       -79.59        1.873E-3      -52.72        1.896E-3      -52.62        0.49468       89.10          
2093.0225     0.36463       -79.61        1.901E-3      -52.44        1.905E-3      -53.72        0.49411       88.75          
2094.5200     0.36759       -79.65        1.903E-3      -53.81        1.91E-3       -54.91        0.49384       88.38          
2096.0175     0.37054       -79.67        1.912E-3      -55.56        1.87E-3       -56.49        0.49383       88.00          
2097.5150     0.3733        -79.68        1.902E-3      -57.53        1.889E-3      -58.08        0.49412       87.63          
2099.0125     0.37603       -79.68        1.871E-3      -59.20        1.889E-3      -59.43        0.49471       87.26          
2100.5100     0.37872       -79.68        1.87E-3       -60.41        1.80E-3       -62.19        0.49547       86.91          
2102.0075     0.38129       -79.65        1.844E-3      -61.85        1.854E-3      -62.96        0.49661       86.57          
2103.5050     0.38383       -79.63        1.847E-3      -63.05        1.862E-3      -62.53        0.49788       86.25          
2105.0025     0.38614       -79.60        1.848E-3      -64.65        1.826E-3      -64.19        0.49923       85.97          
2106.5000     0.38834       -79.52        1.821E-3      -66.02        1.859E-3      -66.13        0.50088       85.72          
2107.9975     0.39051       -79.45        1.821E-3      -67.55        1.828E-3      -67.59        0.50261       85.51          
2109.4950     0.39252       -79.34        1.827E-3      -68.60        1.826E-3      -69.17        0.5044        85.35          
2110.9925     0.39448       -79.23        1.84E-3       -69.60        1.745E-3      -69.49        0.50626       85.22          
2112.4900     0.39616       -79.10        1.845E-3      -71.61        1.806E-3      -71.06        0.50811       85.13          
2113.9875     0.39786       -78.97        1.827E-3      -72.83        1.724E-3      -72.51        0.5099        85.08          
2115.4850     0.39933       -78.82        1.80E-3       -73.95        1.801E-3      -75.27        0.51167       85.07          
2116.9825     0.40081       -78.65        1.819E-3      -75.72        1.767E-3      -74.47        0.5133        85.11          
2118.4800     0.40222       -78.46        1.781E-3      -76.35        1.75E-3       -77.08        0.51485       85.18          
2119.9775     0.40348       -78.28        1.83E-3       -77.40        1.761E-3      -76.97        0.5162        85.30          
2121.4750     0.40477       -78.09        1.82E-3       -79.77        1.813E-3      -80.26        0.51742       85.44          
2122.9725     0.40585       -77.90        1.791E-3      -80.65        1.796E-3      -80.56        0.51845       85.60          
2124.4700     0.40693       -77.72        1.786E-3      -82.44        1.749E-3      -81.63        0.51915       85.80          
2125.9675     0.40801       -77.54        1.794E-3      -83.24        1.779E-3      -83.89        0.51967       86.02          
2127.4650     0.40903       -77.40        1.783E-3      -84.63        1.777E-3      -84.51        0.51992       86.26          
2128.9625     0.40994       -77.27        1.778E-3      -85.70        1.759E-3      -85.34        0.51995       86.50          
2130.4600     0.41067       -77.15        1.809E-3      -87.59        1.757E-3      -86.15        0.51974       86.74          
2131.9575     0.41123       -77.06        1.757E-3      -88.95        1.769E-3      -88.88        0.51924       86.99          
2133.4550     0.41165       -77.01        1.775E-3      -87.80        1.774E-3      -89.57        0.51849       87.23          
2134.9525     0.41183       -76.97        1.775E-3      -90.55        1.765E-3      -90.76        0.51753       87.47          
2136.4500     0.41172       -76.94        1.761E-3      -91.79        1.747E-3      -92.56        0.51634       87.68          
2137.9475     0.41117       -76.90        1.779E-3      -94.62        1.767E-3      -94.09        0.51491       87.88          
2139.4450     0.41049       -76.85        1.778E-3      -94.51        1.737E-3      -95.59        0.51334       88.05          
2140.9425     0.40971       -76.78        1.735E-3      -95.64        1.727E-3      -96.58        0.51158       88.19          
2142.4400     0.40877       -76.67        1.781E-3      -98.25        1.776E-3      -97.53        0.50966       88.31          
2143.9375     0.40793       -76.56        1.751E-3      -98.76        1.768E-3      -99.92        0.50769       88.37          
2145.4350     0.40711       -76.42        1.753E-3      -100.02       1.779E-3      -100.56       0.5056        88.40          
2146.9325     0.40634       -76.28        1.774E-3      -100.50       1.739E-3      -102.06       0.50344       88.39          
2148.4300     0.40581       -76.12        1.741E-3      -103.09       1.786E-3      -103.80       0.50133       88.33          
2149.9275     0.40524       -75.95        1.761E-3      -104.58       1.785E-3      -104.19       0.4992        88.23          
2151.4250     0.40483       -75.78        1.755E-3      -106.02       1.745E-3      -105.76       0.49717       88.08          
2152.9225     0.40456       -75.61        1.79E-3       -107.09       1.775E-3      -107.47       0.49527       87.89          
2154.4200     0.40439       -75.42        1.77E-3       -109.31       1.748E-3      -107.74       0.49349       87.66          
2155.9175     0.40433       -75.23        1.758E-3      -110.34       1.778E-3      -109.80       0.49185       87.40          
2157.4150     0.40442       -75.03        1.771E-3      -111.82       1.762E-3      -112.20       0.4905        87.08          
2158.9125     0.40467       -74.83        1.747E-3      -113.38       1.725E-3      -113.11       0.4893        86.75          
2160.4100     0.40502       -74.61        1.789E-3      -114.09       1.727E-3      -114.10       0.4883        86.38          
2161.9075     0.40545       -74.40        1.753E-3      -116.04       1.769E-3      -116.35       0.48756       86.00          
2163.4050     0.40599       -74.16        1.755E-3      -116.61       1.822E-3      -114.85       0.48714       85.60          
2164.9025     0.40658       -73.92        1.772E-3      -119.54       1.775E-3      -118.17       0.48699       85.19          
2166.4000     0.40735       -73.65        1.736E-3      -119.23       1.693E-3      -118.41       0.48724       84.78          
2167.8975     0.4081        -73.40        1.725E-3      -121.45       1.717E-3      -122.45       0.48766       84.37          
2169.3950     0.40892       -73.11        1.744E-3      -122.64       1.657E-3      -123.17       0.48838       83.98          
2170.8925     0.40982       -72.82        1.703E-3      -124.18       1.724E-3      -122.70       0.4893        83.61          
2172.3900     0.41062       -72.52        1.702E-3      -124.21       1.692E-3      -124.88       0.49049       83.25          
2173.8875     0.41151       -72.21        1.734E-3      -126.74       1.695E-3      -126.50       0.49183       82.92          
2175.3850     0.41237       -71.89        1.73E-3       -128.89       1.73E-3       -126.97       0.49337       82.63          
2176.8825     0.41327       -71.57        1.695E-3      -129.15       1.675E-3      -129.68       0.49502       82.37          
2178.3800     0.4141        -71.22        1.721E-3      -129.93       1.652E-3      -132.15       0.49682       82.15          
2179.8775     0.41476       -70.88        1.69E-3       -131.79       1.677E-3      -133.04       0.49867       81.98          
2181.3750     0.41547       -70.53        1.704E-3      -134.22       1.692E-3      -133.03       0.50057       81.84          
2182.8725     0.41612       -70.18        1.705E-3      -136.22       1.634E-3      -135.52       0.50243       81.75          
2184.3700     0.41662       -69.84        1.684E-3      -137.82       1.726E-3      -136.87       0.50422       81.69          
2185.8675     0.41713       -69.48        1.666E-3      -138.26       1.606E-3      -138.44       0.50594       81.69          
2187.3650     0.41754       -69.12        1.693E-3      -140.07       1.648E-3      -141.01       0.50757       81.71          
2188.8625     0.41782       -68.78        1.645E-3      -141.95       1.63E-3       -142.57       0.50906       81.78          
2190.3600     0.41798       -68.43        1.658E-3      -143.11       1.683E-3      -142.13       0.51045       81.88          
2191.8575     0.41818       -68.09        1.634E-3      -144.68       1.599E-3      -143.82       0.51161       82.01          
2193.3550     0.41829       -67.76        1.635E-3      -146.48       1.57E-3       -146.43       0.51256       82.16          
2194.8525     0.41827       -67.43        1.591E-3      -146.80       1.61E-3       -145.54       0.51331       82.33          
2196.3500     0.41824       -67.13        1.592E-3      -147.75       1.573E-3      -149.04       0.51385       82.52          
2197.8475     0.41803       -66.82        1.60E-3       -148.46       1.598E-3      -151.12       0.51424       82.73          
2199.3450     0.4178        -66.54        1.558E-3      -151.13       1.572E-3      -151.62       0.51431       82.94          
2200.8425     0.41753       -66.26        1.562E-3      -152.13       1.572E-3      -152.43       0.51415       83.16          
2202.3400     0.41724       -66.01        1.563E-3      -152.82       1.581E-3      -154.75       0.51379       83.37          
2203.8375     0.41691       -65.78        1.54E-3       -154.17       1.547E-3      -154.60       0.51327       83.58          
2205.3350     0.41666       -65.56        1.555E-3      -155.12       1.57E-3       -155.32       0.51243       83.77          
2206.8325     0.41633       -65.35        1.547E-3      -157.23       1.508E-3      -155.95       0.51143       83.95          
2208.3300     0.41609       -65.16        1.521E-3      -157.20       1.499E-3      -157.27       0.51028       84.10          
2209.8275     0.41589       -64.98        1.532E-3      -160.52       1.468E-3      -157.85       0.50894       84.23          
2211.3250     0.41572       -64.83        1.528E-3      -161.55       1.514E-3      -160.76       0.50748       84.34          
2212.8225     0.41559       -64.68        1.493E-3      -161.52       1.494E-3      -158.85       0.5059        84.41          
2214.3200     0.41563       -64.56        1.514E-3      -162.13       1.498E-3      -161.75       0.50428       84.45          
2215.8175     0.41569       -64.44        1.518E-3      -162.88       1.452E-3      -162.29       0.50262       84.45          
2217.3150     0.41581       -64.33        1.507E-3      -163.28       1.48E-3       -164.44       0.5009        84.41          
2218.8125     0.41602       -64.22        1.508E-3      -167.14       1.471E-3      -164.92       0.49926       84.34          
2220.3100     0.41633       -64.13        1.516E-3      -166.01       1.517E-3      -163.27       0.49757       84.22          
2221.8075     0.41681       -64.03        1.476E-3      -167.57       1.491E-3      -166.03       0.496         84.07          
2223.3050     0.41737       -63.93        1.473E-3      -169.43       1.368E-3      -167.53       0.49449       83.88          
2224.8025     0.41799       -63.82        1.48E-3       -169.07       1.447E-3      -169.63       0.49315       83.65          
2226.3000     0.41863       -63.72        1.471E-3      -170.94       1.475E-3      -170.00       0.492         83.40          
2227.7975     0.41953       -63.61        1.46E-3       -170.14       1.456E-3      -171.79       0.49105       83.12          
2229.2950     0.42026       -63.47        1.404E-3      -172.56       1.442E-3      -168.42       0.49025       82.81          
2230.7925     0.42113       -63.33        1.506E-3      -174.78       1.415E-3      -172.63       0.48974       82.48          
2232.2900     0.4221        -63.18        1.439E-3      -175.22       1.438E-3      -174.17       0.48942       82.15          
2233.7875     0.423         -63.02        1.456E-3      -175.08       1.473E-3      -176.00       0.48944       81.80          
2235.2850     0.4239        -62.84        1.474E-3      -177.67       1.477E-3      -175.00       0.48951       81.45          
2236.7825     0.42472       -62.64        1.464E-3      -178.05       1.363E-3      -176.60       0.48997       81.11          
2238.2800     0.4255        -62.44        1.476E-3      -179.86       1.433E-3      -178.69       0.49063       80.76          
2239.7775     0.42632       -62.22        1.509E-3      -179.58       1.508E-3      178.89        0.4915        80.44          
2241.2750     0.42688       -61.99        1.447E-3      179.33        1.41E-3       177.60        0.4926        80.14          
2242.7725     0.42743       -61.76        1.467E-3      177.43        1.452E-3      177.00        0.49381       79.86          
2244.2700     0.42798       -61.51        1.486E-3      176.86        1.508E-3      175.02        0.49524       79.61          
2245.7675     0.4283        -61.27        1.478E-3      174.85        1.498E-3      177.10        0.49675       79.39          
2247.2650     0.42848       -61.00        1.49E-3       174.50        1.488E-3      175.72        0.49831       79.21          
2248.7625     0.42857       -60.74        1.45E-3       171.90        1.485E-3      172.19        0.49998       79.06          
2250.2600     0.42849       -60.48        1.487E-3      171.41        1.464E-3      171.55        0.50169       78.95          
2251.7575     0.42826       -60.22        1.429E-3      170.19        1.54E-3       170.36        0.50344       78.88          
2253.2550     0.42784       -59.97        1.492E-3      168.19        1.529E-3      170.20        0.50515       78.83          
2254.7525     0.42731       -59.71        1.519E-3      169.31        1.47E-3       168.11        0.50679       78.84          
2256.2500     0.4265        -59.48        1.509E-3      168.07        1.484E-3      168.09        0.50843       78.88          
2257.7475     0.42569       -59.24        1.516E-3      165.51        1.534E-3      166.39        0.50987       78.95          
2259.2450     0.42471       -59.00        1.495E-3      165.01        1.513E-3      166.27        0.51122       79.06          
2260.7425     0.42365       -58.80        1.509E-3      165.16        1.493E-3      165.37        0.5124        79.19          
2262.2400     0.42249       -58.61        1.501E-3      164.04        1.47E-3       162.83        0.51345       79.35          
2263.7375     0.42118       -58.42        1.527E-3      163.06        1.556E-3      163.87        0.51427       79.53          
2265.2350     0.41987       -58.27        1.515E-3      160.51        1.545E-3      161.89        0.51493       79.73          
2266.7325     0.41847       -58.13        1.546E-3      159.82        1.527E-3      158.79        0.51526       79.95          
2268.2300     0.41708       -58.01        1.502E-3      159.15        1.509E-3      159.46        0.5155        80.16          
2269.7275     0.41571       -57.91        1.554E-3      158.88        1.523E-3      156.41        0.51552       80.39          
2271.2250     0.41425       -57.83        1.552E-3      157.72        1.545E-3      156.60        0.51525       80.62          
2272.7225     0.41294       -57.78        1.541E-3      155.24        1.541E-3      157.06        0.5148        80.85          
2274.2200     0.41164       -57.75        1.517E-3      155.53        1.479E-3      154.21        0.51412       81.07          
2275.7175     0.41047       -57.72        1.564E-3      153.51        1.552E-3      156.71        0.51335       81.27          
2277.2150     0.40942       -57.72        1.557E-3      152.27        1.551E-3      152.83        0.5123        81.46          
2278.7125     0.40844       -57.73        1.58E-3       151.41        1.542E-3      151.38        0.51116       81.63          
2280.2100     0.40768       -57.73        1.596E-3      149.41        1.527E-3      151.57        0.50978       81.76          
2281.7075     0.40698       -57.75        1.652E-3      149.34        1.519E-3      148.91        0.50833       81.89          
2283.2050     0.4064        -57.78        1.552E-3      147.18        1.533E-3      148.11        0.50679       81.97          
2284.7025     0.40609       -57.82        1.573E-3      145.96        1.512E-3      142.99        0.5051        82.03          
2286.2000     0.40582       -57.84        1.614E-3      145.94        1.638E-3      146.86        0.50345       82.04          
2287.6975     0.4056        -57.85        1.558E-3      143.89        1.564E-3      141.94        0.50174       82.02          
2289.1950     0.40547       -57.87        1.586E-3      142.03        1.634E-3      142.80        0.50009       81.96          
2290.6925     0.40555       -57.87        1.625E-3      141.92        1.631E-3      138.34        0.49847       81.87          
2292.1900     0.40569       -57.84        1.627E-3      140.23        1.576E-3      139.86        0.49693       81.74          
2293.6875     0.40584       -57.82        1.609E-3      137.23        1.607E-3      139.42        0.49542       81.58          
2295.1850     0.40592       -57.78        1.628E-3      136.05        1.641E-3      134.37        0.49403       81.38          
2296.6825     0.40606       -57.72        1.635E-3      135.48        1.60E-3       136.51        0.49284       81.15          
2298.1800     0.40609       -57.65        1.613E-3      134.19        1.649E-3      132.69        0.49174       80.90          
2299.6775     0.40614       -57.57        1.64E-3       131.98        1.707E-3      131.67        0.49089       80.61          
2301.1750     0.40613       -57.47        1.609E-3      130.77        1.64E-3       130.67        0.49019       80.31          
2302.6725     0.40591       -57.35        1.631E-3      131.19        1.708E-3      129.97        0.48977       80.00          
2304.1700     0.40564       -57.22        1.626E-3      129.13        1.68E-3       129.42        0.48951       79.68          
2305.6675     0.4052        -57.08        1.689E-3      126.77        1.664E-3      126.92        0.48948       79.35          
2307.1650     0.40465       -56.93        1.691E-3      125.46        1.725E-3      127.56        0.48966       79.02          
2308.6625     0.40394       -56.77        1.68E-3       125.46        1.70E-3       125.41        0.49005       78.69          
2310.1600     0.40282       -56.60        1.681E-3      123.10        1.701E-3      122.32        0.49066       78.37          
2311.6575     0.40178       -56.45        1.662E-3      121.46        1.711E-3      122.39        0.49148       78.08          
2313.1550     0.40031       -56.27        1.68E-3       121.34        1.752E-3      118.53        0.49249       77.79          
2314.6525     0.39881       -56.11        1.676E-3      118.60        1.725E-3      117.80        0.49366       77.53          
2316.1500     0.39706       -55.96        1.665E-3      116.68        1.699E-3      117.67        0.495         77.30          
2317.6475     0.39503       -55.79        1.668E-3      116.44        1.641E-3      116.45        0.49642       77.10          
2319.1450     0.3928        -55.66        1.73E-3       113.46        1.711E-3      114.48        0.49791       76.93          
2320.6425     0.39044       -55.53        1.697E-3      113.00        1.664E-3      113.45        0.49951       76.80          
2322.1400     0.38789       -55.44        1.71E-3       111.35        1.72E-3       111.88        0.5011        76.70          
2323.6375     0.38516       -55.33        1.703E-3      110.97        1.736E-3      111.44        0.5027        76.64          
2325.1350     0.38247       -55.25        1.68E-3       107.79        1.706E-3      109.16        0.50437       76.61          
2326.6325     0.37944       -55.21        1.70E-3       107.40        1.719E-3      105.98        0.50577       76.61          
2328.1300     0.37657       -55.18        1.706E-3      106.19        1.677E-3      105.88        0.50722       76.65          
2329.6275     0.37356       -55.18        1.694E-3      104.46        1.68E-3       103.62        0.50853       76.73          
2331.1250     0.37057       -55.20        1.696E-3      102.11        1.648E-3      102.44        0.50974       76.83          
2332.6225     0.3676        -55.24        1.672E-3      100.77        1.675E-3      101.43        0.51085       76.96          
2334.1200     0.3647        -55.30        1.676E-3      100.04        1.682E-3      100.90        0.51179       77.11          
2335.6175     0.36177       -55.38        1.656E-3      96.85         1.62E-3       98.75         0.51246       77.27          
2337.1150     0.35906       -55.45        1.677E-3      95.94         1.659E-3      97.66         0.513         77.46          
2338.6125     0.35645       -55.56        1.654E-3      94.16         1.635E-3      97.95         0.51334       77.65          
2340.1100     0.35396       -55.66        1.693E-3      93.84         1.646E-3      93.24         0.51346       77.85          
2341.6075     0.35167       -55.77        1.681E-3      92.45         1.618E-3      93.19         0.51348       78.06          
2343.1050     0.34952       -55.88        1.679E-3      92.31         1.65E-3       89.43         0.51327       78.26          
2344.6025     0.34746       -55.99        1.647E-3      90.26         1.586E-3      90.75         0.51278       78.47          
2346.1000     0.3456        -56.08        1.684E-3      89.25         1.603E-3      86.46         0.51211       78.66          
2347.5975     0.34381       -56.15        1.675E-3      87.99         1.634E-3      87.55         0.51138       78.84          
2349.0950     0.34217       -56.22        1.66E-3       85.65         1.639E-3      86.77         0.51041       79.00          
2350.5925     0.34061       -56.25        1.636E-3      85.80         1.636E-3      85.22         0.50936       79.14          
2352.0900     0.33917       -56.29        1.669E-3      84.69         1.639E-3      87.10         0.50813       79.26          
2353.5875     0.33774       -56.27        1.67E-3       82.88         1.664E-3      81.58         0.50687       79.35          
2355.0850     0.33642       -56.26        1.66E-3       82.15         1.66E-3       84.70         0.50546       79.42          
2356.5825     0.33514       -56.19        1.626E-3      78.85         1.688E-3      81.40         0.50393       79.45          
2358.0800     0.33392       -56.12        1.685E-3      78.94         1.674E-3      80.88         0.50242       79.45          
2359.5775     0.33263       -56.00        1.681E-3      78.27         1.629E-3      78.92         0.50089       79.43          
2361.0750     0.33121       -55.85        1.693E-3      76.61         1.628E-3      78.23         0.49941       79.35          
2362.5725     0.32986       -55.67        1.646E-3      75.13         1.692E-3      76.08         0.49793       79.25          
2364.0700     0.32847       -55.47        1.673E-3      72.30         1.708E-3      75.39         0.49654       79.12          
2365.5675     0.32693       -55.25        1.669E-3      73.95         1.668E-3      74.55         0.49518       78.95          
2367.0650     0.3253        -55.00        1.649E-3      71.73         1.684E-3      72.87         0.49403       78.76          
2368.5625     0.32358       -54.74        1.65E-3       70.55         1.643E-3      73.03         0.4929        78.54          
2370.0600     0.32166       -54.42        1.692E-3      68.68         1.652E-3      69.92         0.49202       78.29          
2371.5575     0.3196        -54.10        1.686E-3      65.85         1.682E-3      67.42         0.49128       78.02          
2373.0550     0.31738       -53.76        1.685E-3      66.92         1.686E-3      68.50         0.49077       77.74          
2374.5525     0.31499       -53.41        1.627E-3      66.11         1.763E-3      64.70         0.49041       77.44          
2376.0500     0.31241       -53.07        1.681E-3      64.13         1.665E-3      64.59         0.4903        77.14          
2377.5475     0.30962       -52.69        1.658E-3      63.11         1.689E-3      64.46         0.4904        76.84          
2379.0450     0.30671       -52.36        1.686E-3      63.31         1.692E-3      62.30         0.49067       76.53          
2380.5425     0.30377       -51.99        1.622E-3      61.04         1.666E-3      59.10         0.49117       76.25          
2382.0400     0.30054       -51.65        1.68E-3       59.84         1.68E-3       59.26         0.49191       75.96          
2383.5375     0.29736       -51.31        1.69E-3       59.17         1.703E-3      59.18         0.49278       75.70          
2385.0350     0.29406       -50.99        1.69E-3       57.81         1.726E-3      56.76         0.49384       75.46          
2386.5325     0.29064       -50.68        1.671E-3      55.68         1.713E-3      56.79         0.495         75.26          
2388.0300     0.2873        -50.41        1.712E-3      56.33         1.662E-3      54.15         0.49631       75.07          
2389.5275     0.28402       -50.15        1.669E-3      54.46         1.657E-3      54.04         0.49763       74.92          
2391.0250     0.28065       -49.90        1.741E-3      53.84         1.722E-3      51.07         0.49914       74.79          
2392.5225     0.27746       -49.68        1.712E-3      50.68         1.683E-3      50.21         0.50061       74.71          
2394.0200     0.27422       -49.50        1.741E-3      51.26         1.701E-3      49.02         0.5021        74.65          
2395.5175     0.27124       -49.32        1.715E-3      48.90         1.673E-3      48.21         0.50356       74.64          
2397.0150     0.26835       -49.14        1.726E-3      47.85         1.729E-3      47.94         0.50507       74.65          
2398.5125     0.26557       -48.98        1.765E-3      46.10         1.704E-3      45.91         0.50629       74.70          
2400.0100     0.26291       -48.85        1.727E-3      45.61         1.691E-3      45.80         0.50755       74.78          
2401.5075     0.26039       -48.73        1.723E-3      44.57         1.765E-3      44.91         0.50865       74.89          
2403.0050     0.25822       -48.59        1.758E-3      42.96         1.746E-3      44.18         0.50958       75.02          
2404.5025     0.25612       -48.47        1.731E-3      41.74         1.691E-3      43.72         0.5104        75.18          
2406.0000     0.25429       -48.33        1.76E-3       40.98         1.723E-3      40.43         0.51098       75.36          
2407.4975     0.25265       -48.19        1.794E-3      39.94         1.782E-3      41.30         0.51145       75.55          
2408.9950     0.25125       -48.03        1.789E-3      39.01         1.833E-3      40.63         0.51166       75.75          
2410.4925     0.24995       -47.85        1.811E-3      38.99         1.825E-3      37.08         0.51165       75.96          
2411.9900     0.24887       -47.65        1.838E-3      36.16         1.821E-3      36.91         0.51154       76.16          
2413.4875     0.24798       -47.44        1.835E-3      36.09         1.855E-3      37.18         0.51115       76.37          
2414.9850     0.24733       -47.16        1.867E-3      33.83         1.876E-3      35.80         0.51054       76.57          
2416.4825     0.24679       -46.89        1.845E-3      32.67         1.852E-3      33.25         0.50978       76.75          
2417.9800     0.24642       -46.55        1.85E-3       30.61         1.812E-3      32.54         0.50881       76.92          
2419.4775     0.24616       -46.19        1.885E-3      30.59         1.858E-3      30.43         0.50763       77.07          
2420.9750     0.24593       -45.78        1.891E-3      28.17         1.905E-3      29.46         0.50625       77.19          
2422.4725     0.24594       -45.34        1.893E-3      27.51         1.893E-3      28.59         0.50489       77.27          
2423.9700     0.2459        -44.87        1.944E-3      25.81         1.894E-3      26.28         0.50333       77.34          
2425.4675     0.24605       -44.35        1.95E-3       24.66         1.934E-3      26.59         0.50171       77.37          
2426.9650     0.24614       -43.83        1.932E-3      22.92         1.939E-3      24.64         0.50005       77.36          
2428.4625     0.2463        -43.26        1.972E-3      21.05         1.956E-3      21.90         0.49836       77.31          
2429.9600     0.24636       -42.69        1.965E-3      20.65         1.981E-3      21.06         0.49665       77.23          
2431.4575     0.24643       -42.09        1.997E-3      18.75         2.017E-3      20.40         0.49497       77.09          
2432.9550     0.24637       -41.50        2.009E-3      16.99         2.009E-3      18.22         0.49337       76.93          
2434.4525     0.24629       -40.90        2.031E-3      15.39         1.996E-3      16.24         0.49188       76.73          
2435.9500     0.24607       -40.33        2.061E-3      14.11         2.022E-3      15.63         0.49051       76.49          
2437.4475     0.24587       -39.76        2.029E-3      12.50         2.055E-3      11.71         0.48937       76.21          
2438.9450     0.24556       -39.21        2.077E-3      11.43         2.045E-3      10.94         0.48843       75.91          
2440.4425     0.24514       -38.69        2.093E-3      10.59         2.051E-3      9.41          0.48771       75.58          
2441.9400     0.24463       -38.20        2.062E-3      7.73          2.11E-3       7.13          0.48713       75.22          
2443.4375     0.24406       -37.74        2.091E-3      5.56          2.111E-3      6.18          0.48694       74.86          
2444.9350     0.24353       -37.35        2.114E-3      3.89          2.11E-3       4.16          0.48695       74.49          
2446.4325     0.24291       -37.02        2.096E-3      2.62          2.131E-3      0.93          0.48711       74.11          
2447.9300     0.24223       -36.75        2.122E-3      1.68          2.13E-3       -0.19         0.48763       73.74          
2449.4275     0.24142       -36.53        2.123E-3      -0.41         2.125E-3      0.22          0.48832       73.38          
2450.9250     0.24071       -36.38        2.19E-3       -1.89         2.141E-3      -2.65         0.48925       73.03          
2452.4225     0.23996       -36.25        2.159E-3      -3.46         2.133E-3      -4.15         0.49046       72.70          
2453.9200     0.23922       -36.22        2.174E-3      -5.49         2.184E-3      -5.13         0.49185       72.39          
2455.4175     0.23852       -36.26        2.161E-3      -7.52         2.213E-3      -7.11         0.49342       72.12          
2456.9150     0.23782       -36.33        2.20E-3       -9.30         2.203E-3      -8.48         0.49517       71.88          
2458.4125     0.23718       -36.51        2.166E-3      -10.85        2.20E-3       -10.10        0.49694       71.68          
2459.9100     0.23665       -36.73        2.172E-3      -12.99        2.232E-3      -13.25        0.49884       71.52          
2461.4075     0.23619       -37.03        2.193E-3      -15.00        2.205E-3      -15.64        0.50083       71.41          
2462.9050     0.23587       -37.34        2.24E-3       -16.09        2.171E-3      -15.57        0.50281       71.33          
2464.4025     0.23556       -37.74        2.203E-3      -19.12        2.248E-3      -17.88        0.50483       71.30          
2465.9000     0.23542       -38.18        2.185E-3      -20.76        2.232E-3      -19.67        0.50678       71.30          
2467.3975     0.23539       -38.66        2.245E-3      -21.53        2.248E-3      -22.59        0.50857       71.35          
2468.8950     0.23553       -39.13        2.219E-3      -23.38        2.201E-3      -21.97        0.51031       71.44          
2470.3925     0.2358        -39.66        2.217E-3      -25.92        2.175E-3      -24.29        0.51196       71.57          
2471.8900     0.23616       -40.14        2.221E-3      -27.76        2.167E-3      -25.99        0.51342       71.72          
2473.3875     0.23659       -40.71        2.207E-3      -28.22        2.262E-3      -27.98        0.5147        71.91          
2474.8850     0.2372        -41.21        2.202E-3      -30.41        2.188E-3      -29.60        0.51587       72.12          
2476.3825     0.23779       -41.75        2.223E-3      -32.11        2.123E-3      -30.77        0.51674       72.35          
2477.8800     0.23849       -42.24        2.17E-3       -33.78        2.177E-3      -33.43        0.51743       72.60          
2479.3775     0.23923       -42.71        2.208E-3      -36.16        2.162E-3      -35.31        0.51782       72.86          
2480.8750     0.23993       -43.15        2.18E-3       -37.62        2.253E-3      -33.86        0.51803       73.14          
2482.3725     0.24058       -43.60        2.144E-3      -38.66        2.144E-3      -38.38        0.51796       73.41          
2483.8700     0.24119       -44.01        2.20E-3       -40.10        2.181E-3      -39.94        0.51767       73.68          
2485.3675     0.24171       -44.45        2.14E-3       -41.81        2.18E-3       -40.44        0.51714       73.93          
2486.8650     0.24185       -44.87        2.159E-3      -42.82        2.141E-3      -42.30        0.51643       74.19          
2488.3625     0.24178       -45.29        2.179E-3      -45.09        2.113E-3      -43.06        0.51543       74.41          
2489.8600     0.24133       -45.67        2.233E-3      -46.11        2.181E-3      -45.92        0.51428       74.62          
2491.3575     0.2405        -46.06        2.155E-3      -47.68        2.135E-3      -48.58        0.51289       74.81          
2492.8550     0.23941       -46.40        2.175E-3      -49.01        2.177E-3      -48.12        0.51139       74.96          
2494.3525     0.23779       -46.73        2.191E-3      -50.55        2.141E-3      -50.59        0.50977       75.07          
2495.8500     0.23578       -47.05        2.127E-3      -51.30        2.14E-3       -49.96        0.50801       75.14          
2497.3475     0.23337       -47.28        2.148E-3      -52.36        2.132E-3      -52.96        0.50619       75.18          
2498.8450     0.23085       -47.47        2.209E-3      -55.05        2.159E-3      -54.26        0.50438       75.17          
2500.3425     0.22824       -47.65        2.193E-3      -56.38        2.182E-3      -55.70        0.50245       75.12          
2501.8400     0.22552       -47.86        2.183E-3      -57.92        2.184E-3      -57.34        0.50067       75.03          
2503.3375     0.22269       -48.11        2.206E-3      -59.18        2.195E-3      -59.16        0.49884       74.89          
2504.8350     0.21973       -48.38        2.177E-3      -61.70        2.224E-3      -60.38        0.49715       74.72          
2506.3325     0.21656       -48.70        2.199E-3      -62.72        2.165E-3      -62.00        0.49558       74.51          
2507.8300     0.21319       -49.04        2.17E-3       -63.57        2.206E-3      -64.16        0.49415       74.26          
2509.3275     0.20984       -49.41        2.18E-3       -65.17        2.143E-3      -65.05        0.49295       73.97          
2510.8250     0.20633       -49.83        2.186E-3      -67.39        2.148E-3      -66.43        0.49191       73.66          
2512.3225     0.20269       -50.33        2.15E-3       -68.86        2.164E-3      -68.89        0.49115       73.32          
2513.8200     0.19901       -50.88        2.158E-3      -70.45        2.127E-3      -68.43        0.49065       72.96          
2515.3175     0.19535       -51.46        2.151E-3      -71.73        2.16E-3       -70.19        0.49044       72.60          
2516.8150     0.1917        -52.11        2.158E-3      -73.55        2.12E-3       -72.45        0.49052       72.23          
2518.3125     0.18806       -52.80        2.134E-3      -74.43        2.124E-3      -74.37        0.49086       71.87          
2519.8100     0.18469       -53.55        2.117E-3      -76.63        2.102E-3      -75.78        0.49146       71.51          
2521.3075     0.18131       -54.27        2.124E-3      -78.19        2.101E-3      -77.41        0.4923        71.18          
2522.8050     0.17809       -55.04        2.104E-3      -78.47        2.076E-3      -77.47        0.49341       70.86          
2524.3025     0.175         -55.87        2.131E-3      -81.06        2.081E-3      -78.37        0.49469       70.57          
2525.8000     0.17215       -56.65        2.111E-3      -82.03        2.048E-3      -81.31        0.49629       70.31          
2527.2975     0.16931       -57.45        2.089E-3      -83.91        2.065E-3      -81.64        0.49796       70.09          
2528.7950     0.16672       -58.21        2.074E-3      -85.41        2.071E-3      -83.91        0.49983       69.91          
2530.2925     0.16433       -58.95        2.051E-3      -85.85        2.063E-3      -85.24        0.50178       69.77          
2531.7900     0.16213       -59.66        2.082E-3      -86.56        2.014E-3      -86.76        0.50377       69.69          
2533.2875     0.15999       -60.29        2.081E-3      -88.17        2.05E-3       -87.43        0.50571       69.64          
2534.7850     0.15795       -60.88        2.04E-3       -88.59        2.081E-3      -88.32        0.50772       69.64          
2536.2825     0.15599       -61.34        2.07E-3       -89.73        2.076E-3      -89.79        0.50975       69.68          
2537.7800     0.15408       -61.74        2.064E-3      -91.56        1.991E-3      -92.60        0.51163       69.76          
2539.2775     0.15218       -62.07        2.065E-3      -93.77        2.043E-3      -91.36        0.51331       69.89          
2540.7750     0.15015       -62.29        2.05E-3       -94.11        2.043E-3      -93.91        0.51489       70.05          
2542.2725     0.14816       -62.43        2.069E-3      -95.04        2.025E-3      -95.72        0.51631       70.24          
2543.7700     0.14601       -62.47        2.10E-3       -97.16        2.00E-3       -97.28        0.51749       70.46          
2545.2675     0.14382       -62.46        2.064E-3      -98.75        2.048E-3      -97.93        0.51843       70.70          
2546.7650     0.14151       -62.35        2.051E-3      -99.76        2.066E-3      -98.58        0.5192        70.97          
2548.2625     0.13909       -62.14        2.079E-3      -100.95       2.043E-3      -101.05       0.51965       71.24          
2549.7600     0.13658       -61.86        2.093E-3      -102.03       2.063E-3      -103.10       0.51988       71.53          
2551.2575     0.13383       -61.48        2.076E-3      -103.38       2.037E-3      -102.44       0.51982       71.81          
2552.7550     0.13094       -61.01        2.067E-3      -104.87       2.057E-3      -103.60       0.51949       72.09          
2554.2525     0.12792       -60.53        2.079E-3      -106.15       2.077E-3      -105.00       0.5189        72.37          
2555.7500     0.12471       -59.95        2.086E-3      -107.65       2.089E-3      -107.25       0.51805       72.63          
2557.2475     0.12152       -59.33        2.099E-3      -109.06       2.101E-3      -108.66       0.51704       72.86          
2558.7450     0.11819       -58.58        2.075E-3      -109.92       2.089E-3      -109.90       0.51571       73.08          
2560.2425     0.11482       -57.83        2.069E-3      -112.05       2.072E-3      -111.34       0.51424       73.26          
2561.7400     0.11131       -57.04        2.079E-3      -113.36       2.086E-3      -113.17       0.5126        73.41          
2563.2375     0.10794       -56.19        2.115E-3      -114.60       2.136E-3      -113.54       0.5108        73.52          
2564.7350     0.10443       -55.32        2.115E-3      -116.39       2.067E-3      -115.01       0.5088        73.58          
2566.2325     0.10093       -54.39        2.088E-3      -117.21       2.092E-3      -117.24       0.50683       73.61          
2567.7300     0.09768       -53.51        2.11E-3       -118.23       2.083E-3      -118.17       0.5048        73.59          
2569.2275     0.09437       -52.61        2.138E-3      -120.50       2.091E-3      -119.92       0.50271       73.52          
2570.7250     0.09128       -51.66        2.117E-3      -122.53       2.102E-3      -119.76       0.50071       73.41          
2572.2225     0.08827       -50.77        2.092E-3      -123.32       2.114E-3      -121.51       0.49874       73.24          
2573.7200     0.08535       -49.91        2.109E-3      -124.59       2.127E-3      -124.44       0.49695       73.04          
2575.2175     0.08261       -49.06        2.114E-3      -125.43       2.118E-3      -126.06       0.49531       72.78          
2576.7150     0.0802        -48.22        2.143E-3      -127.52       2.119E-3      -127.02       0.49384       72.50          
2578.2125     0.07794       -47.53        2.133E-3      -128.49       2.125E-3      -127.76       0.49269       72.18          
2579.7100     0.07591       -46.78        2.128E-3      -130.50       2.104E-3      -129.05       0.49174       71.83          
2581.2075     0.07415       -46.06        2.129E-3      -130.74       2.117E-3      -131.51       0.49103       71.46          
2582.7050     0.07264       -45.41        2.19E-3       -133.17       2.133E-3      -132.12       0.49065       71.08          
2584.2025     0.07139       -44.75        2.149E-3      -134.96       2.158E-3      -133.66       0.49054       70.69          
2585.7000     0.07026       -44.14        2.151E-3      -136.54       2.12E-3       -136.05       0.49085       70.31          
2587.1975     0.06948       -43.52        2.181E-3      -137.48       2.129E-3      -136.85       0.49137       69.92          
2588.6950     0.06897       -42.95        2.18E-3       -138.55       2.144E-3      -138.01       0.49225       69.55          
2590.1925     0.06867       -42.31        2.189E-3      -140.08       2.143E-3      -139.08       0.49334       69.21          
2591.6900     0.06864       -41.70        2.15E-3       -141.79       2.128E-3      -140.69       0.49478       68.90          
2593.1875     0.06884       -41.00        2.193E-3      -142.73       2.149E-3      -142.48       0.49637       68.62          
2594.6850     0.06925       -40.31        2.184E-3      -144.83       2.178E-3      -144.11       0.49816       68.37          
2596.1825     0.06988       -39.57        2.20E-3       -146.23       2.167E-3      -145.94       0.50011       68.17          
2597.6800     0.07063       -38.75        2.194E-3      -147.50       2.202E-3      -147.37       0.50218       68.02          
2599.1775     0.07164       -37.91        2.192E-3      -148.72       2.193E-3      -148.90       0.50434       67.91          
2600.6750     0.07276       -37.02        2.204E-3      -151.00       2.217E-3      -150.09       0.50652       67.85          
2602.1725     0.07398       -36.12        2.238E-3      -152.18       2.223E-3      -153.36       0.50867       67.84          
2603.6700     0.0754        -35.17        2.214E-3      -153.75       2.167E-3      -152.93       0.51083       67.88          
2605.1675     0.0768        -34.22        2.231E-3      -154.51       2.20E-3       -154.41       0.5128        67.97          
2606.6650     0.07832       -33.24        2.231E-3      -156.21       2.231E-3      -156.31       0.51468       68.10          
2608.1625     0.07995       -32.26        2.213E-3      -158.33       2.254E-3      -157.96       0.5164        68.26          
2609.6600     0.08159       -31.34        2.253E-3      -159.88       2.242E-3      -159.46       0.51786       68.46          
2611.1575     0.08318       -30.44        2.226E-3      -161.54       2.223E-3      -161.85       0.51919       68.70          
2612.6550     0.08467       -29.57        2.244E-3      -162.21       2.287E-3      -162.89       0.52028       68.96          
2614.1525     0.08623       -28.72        2.262E-3      -164.57       2.233E-3      -164.34       0.52108       69.24          
2615.6500     0.0877        -27.94        2.278E-3      -165.54       2.22E-3       -165.36       0.52155       69.54          
2617.1475     0.08899       -27.23        2.245E-3      -167.88       2.258E-3      -167.07       0.52181       69.83          
2618.6450     0.09022       -26.58        2.241E-3      -169.26       2.252E-3      -168.52       0.52175       70.15          
2620.1425     0.09138       -26.00        2.275E-3      -171.11       2.237E-3      -169.92       0.5214        70.46          
2621.6400     0.0923        -25.52        2.268E-3      -173.03       2.253E-3      -171.86       0.52076       70.75          
2623.1375     0.09314       -25.08        2.218E-3      -174.02       2.213E-3      -172.70       0.51987       71.03          
2624.6350     0.09376       -24.75        2.248E-3      -175.43       2.226E-3      -175.70       0.51871       71.29          
2626.1325     0.0943        -24.52        2.252E-3      -176.43       2.204E-3      -176.43       0.5173        71.53          
2627.6300     0.09463       -24.38        2.263E-3      -179.47       2.25E-3       -178.42       0.51566       71.73          
2629.1275     0.0948        -24.34        2.244E-3      179.70        2.232E-3      -179.66       0.5138        71.91          
2630.6250     0.0948        -24.39        2.238E-3      178.00        2.251E-3      178.85        0.51173       72.04          
2632.1225     0.09472       -24.54        2.266E-3      176.79        2.248E-3      176.61        0.50965       72.13          
2633.6200     0.09447       -24.84        2.252E-3      174.58        2.255E-3      176.13        0.50738       72.18          
2635.1175     0.09405       -25.23        2.276E-3      173.43        2.251E-3      173.89        0.50506       72.16          
2636.6150     0.0937        -25.72        2.24E-3       172.62        2.242E-3      171.66        0.50271       72.11          
2638.1125     0.0932        -26.36        2.278E-3      170.21        2.226E-3      170.36        0.50054       72.00          
2639.6100     0.09271       -27.03        2.243E-3      168.88        2.199E-3      169.71        0.49832       71.83          
2641.1075     0.09224       -27.89        2.296E-3      167.44        2.251E-3      167.99        0.49626       71.63          
2642.6050     0.09168       -28.82        2.297E-3      165.13        2.252E-3      165.92        0.49425       71.37          
2644.1025     0.09118       -29.79        2.27E-3       164.43        2.237E-3      164.25        0.49258       71.08          
2645.6000     0.09077       -30.88        2.244E-3      162.61        2.252E-3      163.50        0.49112       70.75          
2647.0975     0.09035       -32.04        2.276E-3      161.24        2.279E-3      161.22        0.48995       70.38          
2648.5950     0.09006       -33.24        2.24E-3       159.21        2.232E-3      159.53        0.4891        69.99          
2650.0925     0.08981       -34.50        2.24E-3       157.83        2.259E-3      157.69        0.48847       69.57          
2651.5900     0.08966       -35.76        2.266E-3      155.93        2.245E-3      155.81        0.48828       69.15          
2653.0875     0.08957       -37.00        2.27E-3       154.35        2.236E-3      154.45        0.48841       68.72          
2654.5850     0.08962       -38.20        2.248E-3      152.14        2.217E-3      152.32        0.48887       68.29          
2656.0825     0.08966       -39.37        2.215E-3      151.15        2.219E-3      150.97        0.48959       67.88          
2657.5800     0.08979       -40.55        2.239E-3      148.31        2.163E-3      148.54        0.49072       67.49          
2659.0775     0.08992       -41.67        2.221E-3      147.93        2.225E-3      147.68        0.49213       67.13          
2660.5750     0.09005       -42.70        2.224E-3      145.53        2.226E-3      146.52        0.49375       66.80          
2662.0725     0.09017       -43.62        2.166E-3      144.19        2.179E-3      144.54        0.49563       66.51          
2663.5700     0.09023       -44.50        2.184E-3      143.10        2.181E-3      144.05        0.49773       66.26          
2665.0675     0.0902        -45.32        2.166E-3      141.34        2.133E-3      142.09        0.49992       66.06          
2666.5650     0.09012       -46.01        2.169E-3      139.55        2.152E-3      139.33        0.50224       65.92          
2668.0625     0.09001       -46.67        2.137E-3      137.87        2.132E-3      139.18        0.50459       65.82          
2669.5600     0.08971       -47.20        2.132E-3      137.11        2.117E-3      136.85        0.50697       65.77          
2671.0575     0.08927       -47.70        2.12E-3       135.69        2.131E-3      135.01        0.50932       65.77          
2672.5550     0.08874       -48.06        2.121E-3      133.14        2.137E-3      134.43        0.51161       65.82          
2674.0525     0.08799       -48.42        2.079E-3      132.12        2.108E-3      132.54        0.51368       65.92          
2675.5500     0.08712       -48.72        2.076E-3      130.87        2.084E-3      131.55        0.51565       66.06          
2677.0475     0.08606       -48.96        2.102E-3      129.68        2.078E-3      129.97        0.51742       66.23          
2678.5450     0.08482       -49.14        2.08E-3       128.06        2.096E-3      128.08        0.51899       66.44          
2680.0425     0.08343       -49.31        2.113E-3      125.39        2.079E-3      127.24        0.52029       66.67          
2681.5400     0.08184       -49.37        2.071E-3      125.07        2.05E-3       125.11        0.52131       66.93          
2683.0375     0.08017       -49.49        2.067E-3      123.40        2.073E-3      123.74        0.52209       67.20          
2684.5350     0.07833       -49.54        2.079E-3      123.07        2.061E-3      123.57        0.52259       67.48          
2686.0325     0.07633       -49.61        2.078E-3      121.09        2.039E-3      121.10        0.52277       67.78          
2687.5300     0.07426       -49.67        2.04E-3       120.04        2.023E-3      119.99        0.52269       68.08          
2689.0275     0.07206       -49.77        2.033E-3      119.08        2.055E-3      119.18        0.5223        68.37          
2690.5250     0.06972       -49.89        2.063E-3      116.52        2.051E-3      116.69        0.52155       68.65          
2692.0225     0.06731       -49.98        2.053E-3      114.89        2.025E-3      115.61        0.52058       68.91          
2693.5200     0.0649        -50.21        2.029E-3      114.66        2.029E-3      114.47        0.51938       69.15          
2695.0175     0.06237       -50.36        2.06E-3       113.39        2.048E-3      112.64        0.51794       69.35          
2696.5150     0.05986       -50.66        2.047E-3      111.92        1.999E-3      111.63        0.51628       69.52          
2698.0125     0.0573        -50.93        2.044E-3      108.69        1.998E-3      109.71        0.51448       69.66          
2699.5100     0.05483       -51.35        2.029E-3      108.01        2.017E-3      108.78        0.51258       69.74          
2701.0075     0.05224       -51.66        2.00E-3       107.61        2.017E-3      106.85        0.51052       69.78          
2702.5050     0.04976       -52.11        2.032E-3      105.83        2.013E-3      106.88        0.50845       69.79          
2704.0025     0.04728       -52.61        2.004E-3      104.86        2.015E-3      104.90        0.50635       69.75          
2705.5000     0.04486       -53.09        2.023E-3      102.68        1.997E-3      103.39        0.50424       69.64          
2706.9975     0.04262       -53.69        2.013E-3      101.50        2.008E-3      102.03        0.50226       69.50          
2708.4950     0.04034       -54.28        2.021E-3      99.73         2.026E-3      100.01        0.50036       69.31          
2709.9925     0.03815       -54.74        1.998E-3      98.76         2.023E-3      100.09        0.49872       69.08          
2711.4900     0.03606       -55.11        2.00E-3       97.42         1.97E-3       98.66         0.49723       68.79          
2712.9875     0.03406       -55.52        2.003E-3      95.71         2.012E-3      96.45         0.49597       68.49          
2714.4850     0.03212       -55.69        2.002E-3      95.24         1.985E-3      95.62         0.49496       68.14          
2715.9825     0.03032       -55.64        2.006E-3      93.37         1.984E-3      92.93         0.49428       67.78          
2717.4800     0.02847       -55.50        1.997E-3      91.79         1.978E-3      91.96         0.49387       67.39          
2718.9775     0.02679       -54.98        1.997E-3      89.77         1.988E-3      90.55         0.4939        67.00          
2720.4750     0.02516       -54.08        2.002E-3      89.33         2.02E-3       89.45         0.49414       66.60          
2721.9725     0.02351       -52.71        1.994E-3      88.26         1.993E-3      88.59         0.49479       66.21          
2723.4700     0.02195       -51.02        2.014E-3      85.26         1.986E-3      86.41         0.4957        65.83          
2724.9675     0.02054       -48.41        1.979E-3      84.10         1.994E-3      84.39         0.49692       65.49          
2726.4650     0.01921       -45.00        1.98E-3       83.54         1.986E-3      84.51         0.49844       65.17          
2727.9625     0.01794       -40.91        1.999E-3      81.61         2.003E-3      82.11         0.50017       64.88          
2729.4600     0.01694       -35.75        2.008E-3      80.34         1.995E-3      81.33         0.50217       64.63          
2730.9575     0.01609       -29.56        1.992E-3      79.32         2.003E-3      79.45         0.5043        64.42          
2732.4550     0.01558       -22.37        1.993E-3      77.28         1.968E-3      78.64         0.50655       64.26          
2733.9525     0.01538       -14.22        2.018E-3      76.77         2.009E-3      76.82         0.50894       64.15          
2735.4500     0.01559       -5.80         1.992E-3      74.87         2.01E-3       74.74         0.51133       64.09          
2736.9475     0.01626       2.57          2.012E-3      72.98         1.988E-3      73.98         0.51366       64.08          
2738.4450     0.0172        10.02         2.003E-3      71.64         1.975E-3      72.44         0.516         64.11          
2739.9425     0.01865       16.57         1.972E-3      70.79         2.023E-3      70.84         0.51822       64.20          
2741.4400     0.02032       22.23         1.989E-3      68.35         1.975E-3      69.38         0.5203        64.33          
2742.9375     0.02222       26.80         1.989E-3      67.18         2.00E-3       66.88         0.52224       64.50          
2744.4350     0.02417       30.71         1.991E-3      64.88         1.996E-3      65.68         0.5239        64.71          
2745.9325     0.0262        33.86         2.02E-3       63.80         1.998E-3      63.97         0.52533       64.95          
2747.4300     0.02815       36.81         2.015E-3      63.11         1.966E-3      61.86         0.5266        65.22          
2748.9275     0.03013       39.46         1.991E-3      61.44         1.965E-3      61.76         0.52763       65.52          
2750.4250     0.03216       41.89         1.971E-3      58.95         1.95E-3       59.42         0.52817       65.83          
2751.9225     0.03423       44.23         1.97E-3       57.87         1.967E-3      57.45         0.52851       66.16          
2753.4200     0.03631       46.26         1.972E-3      57.08         1.949E-3      56.52         0.52854       66.50          
2754.9175     0.03844       48.22         1.95E-3       55.14         1.933E-3      55.01         0.52829       66.82          
2756.4150     0.0405        49.95         1.939E-3      53.76         1.943E-3      52.79         0.52765       67.15          
2757.9125     0.04259       51.41         1.939E-3      52.54         1.946E-3      52.34         0.52679       67.47          
2759.4100     0.04463       52.98         1.928E-3      51.86         1.932E-3      51.80         0.52563       67.77          
2760.9075     0.04679       54.16         1.932E-3      49.72         1.888E-3      49.57         0.52419       68.04          
2762.4050     0.04877       55.33         1.912E-3      46.97         1.894E-3      47.42         0.52247       68.29          
2763.9025     0.05079       56.42         1.898E-3      45.66         1.879E-3      46.71         0.52052       68.50          
2765.4000     0.05264       57.33         1.881E-3      44.02         1.876E-3      45.86         0.51837       68.67          
2766.8975     0.0544        58.14         1.913E-3      43.27         1.857E-3      44.63         0.51611       68.80          
2768.3950     0.05601       58.83         1.909E-3      42.46         1.889E-3      42.17         0.51376       68.89          
2769.8925     0.05765       59.54         1.898E-3      40.80         1.894E-3      40.61         0.51131       68.92          
2771.3900     0.05918       60.04         1.879E-3      39.41         1.861E-3      39.61         0.50878       68.90          
2772.8875     0.06067       60.59         1.888E-3      38.53         1.897E-3      39.93         0.50631       68.83          
2774.3850     0.06195       60.99         1.866E-3      36.48         1.855E-3      36.64         0.5039        68.70          
2775.8825     0.0633        61.27         1.85E-3       35.55         1.898E-3      35.08         0.50153       68.53          
2777.3800     0.06454       61.58         1.867E-3      34.34         1.852E-3      33.53         0.49935       68.29          
2778.8775     0.06573       61.77         1.873E-3      32.25         1.858E-3      32.79         0.4974        68.02          
2780.3750     0.06678       61.94         1.879E-3      30.58         1.83E-3       31.37         0.49565       67.69          
2781.8725     0.0679        61.94         1.867E-3      28.91         1.812E-3      30.06         0.49424       67.34          
2783.3700     0.06903       62.01         1.843E-3      27.49         1.811E-3      27.91         0.49302       66.95          
2784.8675     0.07007       61.98         1.848E-3      26.17         1.837E-3      26.40         0.49217       66.53          
2786.3650     0.07115       61.87         1.814E-3      24.82         1.846E-3      24.74         0.49169       66.10          
2787.8625     0.07229       61.78         1.823E-3      23.54         1.855E-3      23.93         0.49153       65.65          
2789.3600     0.07338       61.61         1.832E-3      21.45         1.815E-3      22.57         0.49174       65.21          
2790.8575     0.07459       61.47         1.836E-3      19.99         1.811E-3      19.62         0.49236       64.77          
2792.3550     0.07589       61.22         1.805E-3      18.81         1.811E-3      18.13         0.4933        64.34          
2793.8525     0.07717       60.99         1.813E-3      16.85         1.804E-3      16.36         0.49457       63.93          
2795.3500     0.07855       60.72         1.794E-3      15.42         1.787E-3      16.14         0.49615       63.56          
2796.8475     0.08          60.50         1.80E-3       13.82         1.763E-3      14.21         0.49802       63.21          
2798.3450     0.08148       60.27         1.808E-3      12.45         1.816E-3      13.07         0.50004       62.91          
2799.8425     0.08303       60.03         1.776E-3      10.65         1.739E-3      9.19          0.50231       62.65          
2801.3400     0.08464       59.81         1.765E-3      8.55          1.76E-3       8.67          0.50466       62.44          
2802.8375     0.08636       59.58         1.717E-3      7.65          1.75E-3       7.57          0.5071        62.27          
2804.3350     0.08808       59.44         1.735E-3      6.03          1.761E-3      6.84          0.50963       62.16          
2805.8325     0.08992       59.39         1.725E-3      3.70          1.716E-3      3.91          0.51215       62.10          
2807.3300     0.09181       59.31         1.706E-3      1.71          1.717E-3      2.91          0.51454       62.10          
2808.8275     0.09371       59.33         1.721E-3      0.77          1.712E-3      2.45          0.51695       62.14          
2810.3250     0.09563       59.34         1.691E-3      0.57          1.669E-3      0.30          0.51916       62.23          
2811.8225     0.09757       59.45         1.665E-3      -1.17         1.648E-3      -1.85         0.52129       62.36          
2813.3200     0.09961       59.59         1.623E-3      -1.95         1.649E-3      -2.43         0.52318       62.54          
2814.8175     0.10159       59.77         1.612E-3      -4.22         1.64E-3       -4.49         0.52477       62.74          
2816.3150     0.10356       60.00         1.624E-3      -5.20         1.607E-3      -5.55         0.52623       62.98          
2817.8125     0.10562       60.33         1.608E-3      -5.59         1.564E-3      -4.73         0.52735       63.24          
2819.3100     0.10756       60.64         1.56E-3       -7.64         1.583E-3      -8.80         0.52822       63.52          
2820.8075     0.10956       61.03         1.581E-3      -8.70         1.594E-3      -7.21         0.52874       63.81          
2822.3050     0.11148       61.48         1.583E-3      -8.93         1.537E-3      -9.58         0.52908       64.12          
2823.8025     0.11339       61.93         1.519E-3      -11.10        1.548E-3      -11.08        0.52898       64.43          
2825.3000     0.11523       62.39         1.547E-3      -10.78        1.524E-3      -12.57        0.52873       64.74          
2826.7975     0.11711       62.92         1.529E-3      -11.43        1.523E-3      -12.24        0.52807       65.03          
2828.2950     0.11882       63.49         1.534E-3      -14.29        1.541E-3      -13.32        0.52717       65.30          
2829.7925     0.12062       63.99         1.496E-3      -15.07        1.458E-3      -15.16        0.52608       65.57          
2831.2900     0.12226       64.55         1.506E-3      -15.88        1.465E-3      -15.52        0.5247        65.81          
2832.7875     0.12394       65.09         1.502E-3      -18.19        1.495E-3      -18.64        0.52312       66.01          
2834.2850     0.12551       65.65         1.517E-3      -18.56        1.53E-3       -17.56        0.52137       66.19          
2835.7825     0.12704       66.19         1.49E-3       -18.69        1.479E-3      -18.78        0.51952       66.32          
2837.2800     0.12857       66.71         1.468E-3      -19.17        1.495E-3      -19.61        0.51753       66.41          
2838.7775     0.13007       67.21         1.495E-3      -20.97        1.48E-3       -20.29        0.51548       66.47          
2840.2750     0.13149       67.70         1.482E-3      -22.11        1.467E-3      -21.98        0.51336       66.47          
2841.7725     0.13292       68.14         1.49E-3       -24.11        1.466E-3      -22.27        0.51129       66.42          
2843.2700     0.13426       68.59         1.462E-3      -24.55        1.473E-3      -24.47        0.50923       66.34          
2844.7675     0.1357        68.97         1.485E-3      -24.97        1.468E-3      -24.40        0.50727       66.20          
2846.2650     0.1372        69.38         1.459E-3      -28.15        1.478E-3      -25.12        0.50539       66.02          
2847.7625     0.13866       69.73         1.473E-3      -28.10        1.491E-3      -27.16        0.50374       65.80          
2849.2600     0.14015       69.95         1.475E-3      -28.77        1.474E-3      -28.57        0.50228       65.54          
2850.7575     0.14168       70.18         1.442E-3      -28.99        1.464E-3      -29.34        0.50101       65.26          
2852.2550     0.14315       70.31         1.449E-3      -31.31        1.485E-3      -31.26        0.50009       64.93          
2853.7525     0.1446        70.40         1.455E-3      -33.27        1.454E-3      -32.69        0.49936       64.59          
2855.2500     0.14602       70.46         1.453E-3      -33.19        1.434E-3      -34.62        0.49899       64.22          
2856.7475     0.14745       70.46         1.449E-3      -35.25        1.472E-3      -35.46        0.49888       63.84          
2858.2450     0.14883       70.48         1.431E-3      -35.67        1.443E-3      -35.68        0.49921       63.46          
2859.7425     0.15021       70.46         1.432E-3      -38.34        1.415E-3      -37.03        0.49969       63.09          
2861.2400     0.15173       70.48         1.444E-3      -39.47        1.452E-3      -36.80        0.50048       62.73          
2862.7375     0.15343       70.43         1.403E-3      -40.89        1.44E-3       -37.49        0.50156       62.38          
2864.2350     0.15511       70.44         1.405E-3      -40.23        1.423E-3      -38.30        0.50294       62.05          
2865.7325     0.15707       70.43         1.402E-3      -40.92        1.422E-3      -40.70        0.50447       61.76          
2867.2300     0.15908       70.43         1.422E-3      -42.31        1.437E-3      -42.64        0.50623       61.49          
2868.7275     0.16121       70.42         1.396E-3      -43.65        1.434E-3      -42.36        0.50818       61.26          
2870.2250     0.16342       70.39         1.412E-3      -45.38        1.414E-3      -42.69        0.51016       61.08          
2871.7225     0.16582       70.40         1.403E-3      -45.25        1.38E-3       -43.93        0.51232       60.94          
2873.2200     0.16826       70.40         1.395E-3      -46.79        1.421E-3      -46.51        0.51448       60.84          
2874.7175     0.17079       70.44         1.414E-3      -47.96        1.417E-3      -46.85        0.51663       60.80          
2876.2150     0.17351       70.46         1.406E-3      -47.22        1.40E-3       -48.45        0.51867       60.79          
2877.7125     0.17625       70.56         1.41E-3       -49.09        1.42E-3       -49.33        0.52076       60.82          
2879.2100     0.17904       70.62         1.389E-3      -52.26        1.40E-3       -48.73        0.5228        60.90          
2880.7075     0.18192       70.73         1.413E-3      -51.53        1.425E-3      -49.64        0.52463       61.01          
2882.2050     0.18481       70.83         1.369E-3      -54.24        1.401E-3      -51.45        0.52629       61.16          
2883.7025     0.18768       71.00         1.368E-3      -54.71        1.352E-3      -53.52        0.52776       61.33          
2885.2000     0.19056       71.16         1.376E-3      -54.87        1.374E-3      -54.26        0.52901       61.55          
2886.6975     0.19348       71.37         1.393E-3      -56.02        1.386E-3      -55.78        0.53007       61.78          
2888.1950     0.19632       71.58         1.378E-3      -56.68        1.421E-3      -57.00        0.53083       62.02          
2889.6925     0.1992        71.80         1.415E-3      -58.61        1.392E-3      -55.92        0.53142       62.30          
2891.1900     0.20203       72.03         1.406E-3      -59.46        1.402E-3      -58.84        0.53177       62.57          
2892.6875     0.20477       72.29         1.392E-3      -60.08        1.393E-3      -58.97        0.53183       62.85          
2894.1850     0.20744       72.56         1.388E-3      -60.72        1.407E-3      -60.54        0.5316        63.13          
2895.6825     0.21005       72.82         1.36E-3       -62.34        1.379E-3      -62.81        0.53122       63.41          
2897.1800     0.21248       73.07         1.393E-3      -62.75        1.43E-3       -62.31        0.53054       63.67          
2898.6775     0.21482       73.32         1.38E-3       -64.90        1.408E-3      -62.50        0.52966       63.93          
2900.1750     0.21719       73.55         1.39E-3       -67.51        1.41E-3       -65.19        0.52853       64.16          
2901.6725     0.21935       73.79         1.403E-3      -66.70        1.439E-3      -66.22        0.52726       64.37          
2903.1700     0.22144       74.01         1.389E-3      -66.37        1.415E-3      -66.91        0.52579       64.54          
2904.6675     0.22333       74.21         1.421E-3      -67.68        1.394E-3      -68.29        0.52419       64.69          
2906.1650     0.22506       74.40         1.422E-3      -69.72        1.439E-3      -68.40        0.52252       64.80          
2907.6625     0.22672       74.56         1.438E-3      -70.52        1.44E-3       -70.49        0.52071       64.88          
2909.1600     0.22817       74.69         1.417E-3      -71.88        1.454E-3      -70.49        0.51893       64.92          
2910.6575     0.22953       74.80         1.433E-3      -72.93        1.452E-3      -71.71        0.51707       64.91          
2912.1550     0.23094       74.88         1.453E-3      -74.72        1.471E-3      -73.70        0.51527       64.87          
2913.6525     0.23209       74.92         1.448E-3      -76.17        1.486E-3      -75.14        0.51361       64.79          
2915.1500     0.23323       74.92         1.464E-3      -77.51        1.497E-3      -75.67        0.51192       64.66          
2916.6475     0.23428       74.91         1.472E-3      -77.05        1.497E-3      -76.94        0.51041       64.50          
2918.1450     0.2354        74.84         1.462E-3      -79.42        1.477E-3      -78.32        0.50905       64.30          
2919.6425     0.23645       74.77         1.483E-3      -80.95        1.511E-3      -79.89        0.50789       64.06          
2921.1400     0.23748       74.66         1.48E-3       -82.64        1.483E-3      -80.81        0.50694       63.80          
2922.6375     0.23857       74.54         1.496E-3      -83.63        1.511E-3      -81.59        0.50614       63.51          
2924.1350     0.23961       74.40         1.49E-3       -84.59        1.481E-3      -83.82        0.50562       63.20          
2925.6325     0.24076       74.23         1.526E-3      -87.15        1.514E-3      -86.23        0.50532       62.88          
2927.1300     0.24201       74.08         1.536E-3      -89.47        1.476E-3      -87.49        0.50521       62.56          
2928.6275     0.24328       73.87         1.535E-3      -89.76        1.544E-3      -87.68        0.50545       62.23          
2930.1250     0.24472       73.68         1.56E-3       -92.21        1.527E-3      -89.70        0.50588       61.91          
2931.6225     0.24617       73.50         1.53E-3       -93.31        1.545E-3      -90.89        0.50664       61.60          
2933.1200     0.24768       73.31         1.533E-3      -94.88        1.515E-3      -92.91        0.50759       61.30          
2934.6175     0.24942       73.13         1.538E-3      -96.90        1.56E-3       -94.12        0.50874       61.03          
2936.1150     0.25117       72.99         1.536E-3      -97.39        1.533E-3      -95.42        0.5101        60.79          
2937.6125     0.25294       72.86         1.52E-3       -99.41        1.514E-3      -99.73        0.51152       60.56          
2939.1100     0.25483       72.74         1.532E-3      -102.03       1.541E-3      -99.74        0.51319       60.37          
2940.6075     0.25683       72.66         1.548E-3      -103.29       1.533E-3      -100.99       0.51491       60.22          
2942.1050     0.25882       72.62         1.565E-3      -102.58       1.497E-3      -102.65       0.51666       60.11          
2943.6025     0.2609        72.61         1.542E-3      -104.63       1.501E-3      -104.37       0.51849       60.03          
2945.1000     0.26293       72.64         1.542E-3      -106.02       1.539E-3      -105.59       0.52029       59.99          
2946.5975     0.26501       72.71         1.564E-3      -107.25       1.511E-3      -106.13       0.52202       60.00          
2948.0950     0.26705       72.81         1.527E-3      -108.84       1.52E-3       -108.22       0.52365       60.04          
2949.5925     0.26902       72.95         1.54E-3       -109.60       1.536E-3      -108.34       0.52521       60.12          
2951.0900     0.27096       73.13         1.521E-3      -111.98       1.559E-3      -108.96       0.52672       60.23          
2952.5875     0.27288       73.37         1.548E-3      -112.92       1.551E-3      -111.46       0.52801       60.37          
2954.0850     0.27467       73.60         1.532E-3      -115.61       1.52E-3       -113.27       0.52912       60.55          
2955.5825     0.27645       73.87         1.572E-3      -114.59       1.534E-3      -114.35       0.53008       60.75          
2957.0800     0.27817       74.18         1.526E-3      -116.46       1.515E-3      -115.44       0.53081       60.97          
2958.5775     0.27962       74.50         1.545E-3      -116.86       1.505E-3      -116.98       0.53135       61.20          
2960.0750     0.28101       74.85         1.533E-3      -118.99       1.50E-3       -117.86       0.53165       61.45          
2961.5725     0.28232       75.23         1.513E-3      -120.79       1.552E-3      -120.95       0.53169       61.70          
2963.0700     0.2834        75.61         1.53E-3       -121.68       1.531E-3      -120.98       0.53154       61.95          
2964.5675     0.28447       76.00         1.578E-3      -122.40       1.532E-3      -122.11       0.53114       62.20          
2966.0650     0.28529       76.41         1.561E-3      -125.28       1.555E-3      -123.94       0.53054       62.44          
2967.5625     0.28598       76.80         1.557E-3      -125.40       1.566E-3      -124.99       0.52963       62.67          
2969.0600     0.28658       77.18         1.528E-3      -127.50       1.53E-3       -126.27       0.52856       62.89          
2970.5575     0.28701       77.56         1.547E-3      -128.48       1.533E-3      -126.40       0.5274        63.09          
2972.0550     0.2874        77.91         1.541E-3      -129.34       1.56E-3       -127.87       0.52596       63.25          
2973.5525     0.28765       78.26         1.547E-3      -132.27       1.517E-3      -130.07       0.52445       63.39          
2975.0500     0.28786       78.59         1.544E-3      -132.11       1.553E-3      -131.51       0.52279       63.50          
2976.5475     0.28804       78.88         1.539E-3      -135.65       1.533E-3      -133.58       0.521         63.56          
2978.0450     0.28811       79.17         1.554E-3      -135.87       1.522E-3      -134.05       0.51925       63.59          
2979.5425     0.28811       79.43         1.564E-3      -138.33       1.551E-3      -136.07       0.51732       63.57          
2981.0400     0.28811       79.65         1.546E-3      -138.33       1.54E-3       -136.57       0.5155        63.52          
2982.5375     0.28832       79.85         1.536E-3      -140.19       1.539E-3      -138.17       0.51372       63.42          
2984.0350     0.2884        80.05         1.555E-3      -141.34       1.529E-3      -139.91       0.51195       63.28          
2985.5325     0.2885        80.20         1.565E-3      -142.70       1.542E-3      -141.05       0.51031       63.09          
2987.0300     0.28883       80.34         1.57E-3       -142.85       1.506E-3      -143.05       0.50874       62.87          
2988.5275     0.28919       80.47         1.512E-3      -145.06       1.534E-3      -143.58       0.50733       62.62          
2990.0250     0.28974       80.59         1.528E-3      -146.79       1.538E-3      -145.73       0.50622       62.32          
2991.5225     0.29039       80.69         1.54E-3       -148.60       1.512E-3      -146.38       0.50517       62.00          
2993.0200     0.29123       80.78         1.546E-3      -148.85       1.535E-3      -149.36       0.50452       61.67          
2994.5175     0.2923        80.87         1.529E-3      -149.85       1.514E-3      -149.46       0.504         61.31          
2996.0150     0.29357       80.95         1.494E-3      -151.17       1.52E-3       -151.50       0.50379       60.94          
2997.5125     0.29507       81.04         1.505E-3      -152.94       1.519E-3      -152.88       0.50384       60.56          
2999.0100     0.29668       81.15         1.522E-3      -153.55       1.493E-3      -153.16       0.50425       60.18          
3000.5075     0.29871       81.25         1.544E-3      -154.80       1.508E-3      -154.43       0.50486       59.81          
3002.0050     0.30083       81.39         1.48E-3       -155.85       1.552E-3      -156.35       0.50571       59.45          
3003.5025     0.3031        81.52         1.468E-3      -157.69       1.523E-3      -157.20       0.50683       59.11          
3005.0000     0.30554       81.69         1.462E-3      -157.67       1.511E-3      -158.97       0.50824       58.79          
3006.4975     0.30817       81.88         1.505E-3      -159.18       1.451E-3      -160.10       0.50979       58.51          
3007.9950     0.31082       82.09         1.521E-3      -161.43       1.47E-3       -162.49       0.51142       58.26          
3009.4925     0.3136        82.31         1.489E-3      -162.45       1.508E-3      -162.61       0.51336       58.04          
3010.9900     0.31656       82.60         1.487E-3      -162.85       1.504E-3      -162.88       0.51526       57.87          
3012.4875     0.31955       82.86         1.454E-3      -163.94       1.46E-3       -164.40       0.51732       57.75          
3013.9850     0.3225        83.15         1.471E-3      -166.36       1.487E-3      -165.98       0.51943       57.67          
3015.4825     0.3254        83.49         1.514E-3      -167.02       1.453E-3      -167.15       0.52152       57.64          
3016.9800     0.32833       83.82         1.452E-3      -167.24       1.456E-3      -168.09       0.52349       57.65          
3018.4775     0.33122       84.18         1.454E-3      -169.17       1.457E-3      -169.19       0.52554       57.69          
3019.9750     0.33401       84.55         1.43E-3       -169.23       1.48E-3       -170.68       0.52751       57.78          
3021.4725     0.33665       84.94         1.496E-3      -170.45       1.478E-3      -171.70       0.52923       57.92          
3022.9700     0.33915       85.32         1.453E-3      -172.32       1.458E-3      -173.17       0.53084       58.09          
3024.4675     0.3415        85.72         1.496E-3      -173.61       1.458E-3      -172.28       0.53228       58.28          
3025.9650     0.34362       86.11         1.46E-3       -175.07       1.446E-3      -174.67       0.53348       58.50          
3027.4625     0.34566       86.48         1.474E-3      -176.79       1.457E-3      -176.62       0.5345        58.76          
3028.9600     0.34749       86.86         1.481E-3      -179.37       1.475E-3      -176.72       0.53531       59.03          
3030.4575     0.34914       87.23         1.497E-3      -178.50       1.446E-3      -176.73       0.53587       59.31          
3031.9550     0.35063       87.55         1.468E-3      179.80        1.422E-3      -178.71       0.53617       59.61          
3033.4525     0.35197       87.88         1.456E-3      178.87        1.492E-3      179.77        0.53622       59.91          
3034.9500     0.35304       88.18         1.442E-3      178.68        1.459E-3      179.38        0.53603       60.20          
3036.4475     0.35417       88.44         1.458E-3      177.05        1.47E-3       177.54        0.53553       60.49          
3037.9450     0.35499       88.69         1.435E-3      176.14        1.441E-3      178.08        0.53489       60.77          
3039.4425     0.35574       88.90         1.435E-3      174.57        1.442E-3      175.17        0.53394       61.02          
3040.9400     0.35631       89.06         1.469E-3      174.75        1.397E-3      173.82        0.53287       61.25          
3042.4375     0.35684       89.20         1.461E-3      172.31        1.45E-3       172.90        0.53156       61.46          
3043.9350     0.35737       89.28         1.46E-3       170.32        1.438E-3      171.74        0.53004       61.64          
3045.4325     0.35789       89.35         1.458E-3      169.91        1.448E-3      170.37        0.5284        61.78          
3046.9300     0.35841       89.37         1.463E-3      168.27        1.448E-3      168.60        0.52661       61.88          
3048.4275     0.35901       89.37         1.462E-3      169.24        1.459E-3      166.90        0.5247        61.95          
3049.9250     0.35961       89.35         1.432E-3      165.28        1.46E-3       166.17        0.5227        61.97          
3051.4225     0.36027       89.29         1.454E-3      165.77        1.461E-3      165.09        0.52071       61.95          
3052.9200     0.36107       89.20         1.479E-3      163.77        1.48E-3       163.12        0.5187        61.89          
3054.4175     0.36202       89.08         1.496E-3      163.70        1.478E-3      163.70        0.51676       61.78          
3055.9150     0.36306       88.95         1.47E-3       161.92        1.48E-3       161.80        0.51485       61.63          
3057.4125     0.36433       88.83         1.458E-3      160.16        1.458E-3      161.08        0.51321       61.43          
3058.9100     0.36572       88.68         1.487E-3      157.15        1.463E-3      160.37        0.51156       61.19          
3060.4075     0.36726       88.52         1.479E-3      158.73        1.475E-3      158.68        0.51012       60.91          
3061.9050     0.36905       88.40         1.482E-3      157.50        1.502E-3      157.29        0.50893       60.61          
3063.4025     0.37076       88.28         1.524E-3      155.99        1.499E-3      156.42        0.50785       60.28          
3064.9000     0.37271       88.17         1.534E-3      153.60        1.465E-3      154.18        0.50713       59.92          
3066.3975     0.3748        88.08         1.494E-3      152.74        1.521E-3      153.23        0.50663       59.55          
3067.8950     0.37704       88.02         1.502E-3      152.57        1.489E-3      151.99        0.50642       59.17          
3069.3925     0.37919       87.96         1.509E-3      150.08        1.515E-3      152.30        0.50651       58.79          
3070.8900     0.38143       87.94         1.523E-3      149.01        1.524E-3      149.69        0.50688       58.41          
3072.3875     0.38372       87.94         1.537E-3      147.91        1.507E-3      148.24        0.5075        58.05          
3073.8850     0.38595       87.95         1.50E-3       147.13        1.53E-3       147.98        0.50843       57.71          
3075.3825     0.38813       88.02         1.529E-3      146.25        1.484E-3      147.10        0.50963       57.39          
3076.8800     0.39016       88.11         1.535E-3      144.94        1.543E-3      145.72        0.51094       57.10          
3078.3775     0.39209       88.21         1.54E-3       143.33        1.485E-3      143.08        0.51251       56.85          
3079.8750     0.39381       88.34         1.548E-3      142.33        1.532E-3      142.49        0.51424       56.64          
3081.3725     0.39548       88.50         1.513E-3      140.88        1.537E-3      142.80        0.5161        56.47          
3082.8700     0.39689       88.67         1.543E-3      138.49        1.511E-3      142.02        0.51812       56.33          
3084.3675     0.39802       88.86         1.56E-3       137.47        1.501E-3      138.18        0.52021       56.24          
3085.8650     0.399         89.04         1.567E-3      138.52        1.581E-3      138.58        0.52224       56.21          
3087.3625     0.39977       89.23         1.565E-3      137.37        1.563E-3      136.10        0.52426       56.22          
3088.8600     0.4002        89.45         1.544E-3      134.44        1.513E-3      136.45        0.52621       56.27          
3090.3575     0.40036       89.64         1.521E-3      134.41        1.535E-3      132.60        0.52807       56.36          
3091.8550     0.40038       89.84         1.584E-3      132.50        1.52E-3       133.13        0.52985       56.50          
3093.3525     0.40005       90.04         1.625E-3      130.72        1.565E-3      132.41        0.53136       56.67          
3094.8500     0.39941       90.23         1.579E-3      130.18        1.571E-3      131.29        0.53281       56.88          
3096.3475     0.39866       90.39         1.552E-3      130.01        1.553E-3      128.56        0.53402       57.11          
3097.8450     0.39759       90.52         1.58E-3       128.67        1.572E-3      129.05        0.53501       57.36          
3099.3425     0.39645       90.66         1.59E-3       128.78        1.586E-3      127.87        0.53576       57.64          
3100.8400     0.39508       90.75         1.596E-3      127.12        1.562E-3      125.65        0.53625       57.92          
3102.3375     0.3936        90.83         1.614E-3      124.21        1.615E-3      126.49        0.53656       58.21          
3103.8350     0.392         90.90         1.613E-3      123.41        1.601E-3      124.83        0.5365        58.50          
3105.3325     0.39028       90.94         1.612E-3      122.79        1.606E-3      123.53        0.53617       58.79          
3106.8300     0.38854       90.94         1.623E-3      121.63        1.608E-3      120.28        0.53559       59.07          
3108.3275     0.38673       90.92         1.58E-3       120.73        1.681E-3      118.93        0.53475       59.35          
3109.8250     0.38494       90.89         1.624E-3      120.06        1.625E-3      119.86        0.53364       59.59          
3111.3225     0.38314       90.84         1.644E-3      117.20        1.696E-3      118.57        0.53231       59.82          
3112.8200     0.38142       90.77         1.684E-3      118.90        1.672E-3      117.12        0.53081       60.01          
3114.3175     0.37992       90.68         1.651E-3      117.18        1.686E-3      115.69        0.52909       60.17          
3115.8150     0.37836       90.58         1.678E-3      115.26        1.672E-3      114.57        0.5272        60.29          
3117.3125     0.37693       90.47         1.676E-3      113.30        1.69E-3       114.44        0.52523       60.37          
3118.8100     0.37574       90.37         1.655E-3      113.02        1.72E-3       112.84        0.52308       60.41          
3120.3075     0.3746        90.28         1.704E-3      111.84        1.715E-3      111.11        0.52089       60.40          
3121.8050     0.37355       90.20         1.702E-3      108.98        1.73E-3       109.02        0.51869       60.33          
3123.3025     0.37275       90.14         1.746E-3      107.07        1.712E-3      107.57        0.51646       60.21          
3124.8000     0.37201       90.10         1.748E-3      105.60        1.729E-3      108.65        0.51438       60.05          
3126.2975     0.37143       90.07         1.781E-3      106.14        1.708E-3      107.34        0.51239       59.84          
3127.7950     0.37088       90.07         1.769E-3      106.16        1.745E-3      105.85        0.51053       59.58          
3129.2925     0.37038       90.10         1.807E-3      103.22        1.729E-3      103.24        0.50875       59.28          
3130.7900     0.37004       90.16         1.761E-3      103.36        1.755E-3      103.91        0.50729       58.95          
3132.2875     0.36969       90.27         1.781E-3      99.86         1.762E-3      101.63        0.50604       58.57          
3133.7850     0.36931       90.43         1.835E-3      98.65         1.767E-3      98.69         0.50509       58.17          
3135.2825     0.36903       90.62         1.816E-3      98.08         1.812E-3      98.88         0.50447       57.75          
3136.7800     0.36861       90.84         1.812E-3      96.29         1.772E-3      96.49         0.50419       57.32          
3138.2775     0.36822       91.11         1.852E-3      94.53         1.82E-3       96.90         0.50427       56.89          
3139.7750     0.36768       91.42         1.837E-3      93.87         1.812E-3      95.76         0.50465       56.46          
3141.2725     0.36702       91.78         1.893E-3      92.50         1.836E-3      93.12         0.50543       56.05          
3142.7700     0.36635       92.15         1.811E-3      92.21         1.829E-3      91.71         0.50653       55.64          
3144.2675     0.36542       92.57         1.873E-3      89.86         1.871E-3      90.20         0.5079        55.26          
3145.7650     0.36443       93.02         1.855E-3      89.14         1.845E-3      90.15         0.50962       54.92          
3147.2625     0.36321       93.49         1.919E-3      86.68         1.872E-3      86.62         0.51158       54.61          
3148.7600     0.36189       94.00         1.894E-3      84.94         1.874E-3      86.49         0.51373       54.36          
3150.2575     0.36027       94.55         1.909E-3      83.52         1.851E-3      83.77         0.51609       54.15          
3151.7550     0.35851       95.09         1.931E-3      81.57         1.902E-3      82.16         0.51852       54.00          
3153.2525     0.35664       95.64         1.921E-3      81.18         1.915E-3      81.92         0.52112       53.90          
3154.7500     0.35458       96.22         1.951E-3      78.50         1.933E-3      79.25         0.5237        53.84          
3156.2475     0.35233       96.78         1.944E-3      78.49         1.914E-3      78.27         0.5263        53.85          
3157.7450     0.35015       97.38         1.882E-3      75.90         1.944E-3      75.72         0.52896       53.91          
3159.2425     0.3476        97.97         1.949E-3      74.92         1.966E-3      74.85         0.53144       54.02          
3160.7400     0.34513       98.56         1.984E-3      73.51         1.972E-3      74.27         0.53378       54.18          
3162.2375     0.34259       99.14         1.965E-3      72.05         1.985E-3      70.61         0.536         54.37          
3163.7350     0.33999       99.71         1.983E-3      70.35         1.981E-3      70.10         0.538         54.62          
3165.2325     0.33733       100.28        2.008E-3      68.68         2.036E-3      70.65         0.5397        54.89          
3166.7300     0.33474       100.84        1.941E-3      67.00         2.013E-3      67.28         0.5412        55.20          
3168.2275     0.33218       101.36        1.985E-3      66.18         1.957E-3      66.05         0.54237       55.53          
3169.7250     0.32979       101.88        1.976E-3      63.81         1.989E-3      65.12         0.54327       55.88          
3171.2225     0.32751       102.38        2.004E-3      62.69         1.995E-3      62.71         0.54379       56.25          
3172.7200     0.32533       102.87        1.998E-3      61.01         2.043E-3      60.62         0.54408       56.61          
3174.2175     0.32346       103.33        2.009E-3      59.82         1.983E-3      60.61         0.54395       56.98          
3175.7150     0.32174       103.78        2.015E-3      58.19         2.013E-3      58.14         0.54344       57.35          
3177.2125     0.32021       104.22        2.018E-3      56.73         2.014E-3      57.46         0.5428        57.70          
3178.7100     0.31893       104.67        1.993E-3      55.06         1.997E-3      55.59         0.54169       58.03          
3180.2075     0.31792       105.11        2.013E-3      53.16         2.007E-3      54.85         0.54029       58.34          
3181.7050     0.31712       105.52        1.997E-3      52.50         2.038E-3      51.81         0.53868       58.62          
3183.2025     0.31661       105.93        2.02E-3       50.60         2.018E-3      51.46         0.53679       58.85          
3184.7000     0.31636       106.35        2.057E-3      48.56         2.031E-3      49.42         0.53459       59.06          
3186.1975     0.31639       106.78        2.001E-3      47.84         1.992E-3      47.95         0.53227       59.20          
3187.6950     0.31671       107.20        2.049E-3      45.72         1.984E-3      45.32         0.52975       59.30          
3189.1925     0.31715       107.62        2.064E-3      43.97         2.01E-3       44.36         0.5271        59.35          
3190.6900     0.31791       108.07        2.042E-3      44.14         2.021E-3      43.70         0.52433       59.34          
3192.1875     0.31884       108.52        2.077E-3      40.95         1.98E-3       42.08         0.52161       59.27          
3193.6850     0.32006       108.99        2.054E-3      39.50         2.056E-3      40.71         0.51891       59.15          
3195.1825     0.32135       109.51        2.062E-3      37.56         2.063E-3      38.51         0.51626       58.96          
3196.6800     0.32277       110.02        2.073E-3      37.11         2.063E-3      36.58         0.51381       58.72          
3198.1775     0.32424       110.56        2.035E-3      35.16         2.025E-3      36.53         0.51154       58.43          
3199.6750     0.32591       111.14        2.041E-3      33.28         2.066E-3      34.37         0.50953       58.09          
3201.1725     0.32761       111.72        2.06E-3       31.79         2.033E-3      32.96         0.50775       57.70          
3202.6700     0.32937       112.35        2.089E-3      30.37         2.102E-3      31.49         0.5063        57.27          
3204.1675     0.33129       112.98        2.068E-3      30.31         2.102E-3      29.48         0.50521       56.81          
3205.6650     0.33324       113.63        2.091E-3      29.07         2.067E-3      28.77         0.50445       56.34          
3207.1625     0.33521       114.28        2.108E-3      25.88         2.093E-3      27.85         0.5042        55.84          
3208.6600     0.33717       114.95        2.07E-3       25.76         2.099E-3      26.48         0.50435       55.35          
3210.1575     0.33912       115.58        2.071E-3      23.72         2.074E-3      25.21         0.50482       54.87          
3211.6550     0.34085       116.21        2.12E-3       22.20         2.099E-3      22.23         0.50574       54.40          
3213.1525     0.34258       116.83        2.106E-3      21.19         2.098E-3      21.58         0.50708       53.97          
3214.6500     0.34412       117.42        2.13E-3       20.69         2.118E-3      19.85         0.50879       53.55          
3216.1475     0.34559       118.01        2.102E-3      17.41         2.108E-3      19.09         0.51078       53.19          
3217.6450     0.34693       118.58        2.123E-3      17.49         2.098E-3      17.64         0.51312       52.87          
3219.1425     0.34808       119.12        2.094E-3      15.07         2.098E-3      16.29         0.51568       52.60          
3220.6400     0.34913       119.64        2.094E-3      13.98         2.101E-3      13.96         0.51842       52.39          
3222.1375     0.35007       120.14        2.099E-3      12.73         2.119E-3      12.63         0.52133       52.23          
3223.6350     0.35084       120.62        2.115E-3      11.63         2.125E-3      12.11         0.5243        52.14          
3225.1325     0.35153       121.05        2.12E-3       10.33         2.093E-3      10.28         0.52726       52.11          
3226.6300     0.35233       121.44        2.104E-3      7.68          2.135E-3      8.17          0.53021       52.14          
3228.1275     0.35287       121.79        2.101E-3      7.10          2.108E-3      6.76          0.5331        52.23          
3229.6250     0.35349       122.10        2.10E-3       6.88          2.07E-3       6.81          0.5358        52.37          
3231.1225     0.35411       122.38        2.086E-3      5.22          2.087E-3      5.51          0.53843       52.57          
3232.6200     0.35465       122.62        2.121E-3      4.00          2.068E-3      3.18          0.54072       52.82          
3234.1175     0.35515       122.80        2.104E-3      1.98          2.092E-3      1.06          0.54283       53.10          
3235.6150     0.35565       122.96        2.065E-3      1.27          2.101E-3      1.35          0.54465       53.43          
3237.1125     0.35623       123.07        2.054E-3      -0.90         2.078E-3      -0.35         0.54611       53.77          
3238.6100     0.35677       123.14        2.101E-3      -0.97         2.046E-3      -1.70         0.54728       54.15          
3240.1075     0.3572        123.20        2.071E-3      -2.88         2.056E-3      -2.73         0.54818       54.55          
3241.6050     0.35786       123.22        2.076E-3      -4.36         2.071E-3      -3.42         0.5486        54.95          
3243.1025     0.35852       123.21        2.093E-3      -5.84         2.097E-3      -5.06         0.54864       55.36          
3244.6000     0.35925       123.17        2.098E-3      -6.06         2.042E-3      -6.43         0.54827       55.76          
3246.0975     0.36013       123.13        2.111E-3      -7.96         2.082E-3      -7.35         0.54756       56.15          
3247.5950     0.36091       123.08        2.104E-3      -9.39         2.072E-3      -9.86         0.54651       56.52          
3249.0925     0.36193       122.98        2.13E-3       -10.16        2.076E-3      -10.34        0.54506       56.86          
3250.5900     0.36295       122.91        2.096E-3      -11.60        2.081E-3      -11.79        0.54334       57.18          
3252.0875     0.36411       122.81        2.106E-3      -13.33        2.095E-3      -12.97        0.54128       57.46          
3253.5850     0.36531       122.73        2.124E-3      -13.72        2.088E-3      -14.35        0.53897       57.70          
3255.0825     0.36652       122.66        2.135E-3      -15.37        2.096E-3      -15.28        0.53644       57.89          
3256.5800     0.36769       122.59        2.133E-3      -17.39        2.112E-3      -15.92        0.53379       58.03          
3258.0775     0.36896       122.52        2.121E-3      -18.30        2.091E-3      -18.08        0.53088       58.11          
3259.5750     0.37024       122.47        2.137E-3      -19.47        2.116E-3      -19.47        0.52794       58.13          
3261.0725     0.37136       122.43        2.123E-3      -19.74        2.152E-3      -19.48        0.52502       58.09          
3262.5700     0.37254       122.42        2.136E-3      -21.23        2.141E-3      -20.77        0.52198       57.99          
3264.0675     0.37373       122.40        2.174E-3      -21.97        2.171E-3      -21.97        0.51913       57.82          
3265.5650     0.37478       122.41        2.167E-3      -24.06        2.161E-3      -23.69        0.51644       57.58          
3267.0625     0.37566       122.43        2.181E-3      -25.01        2.179E-3      -25.93        0.51384       57.29          
3268.5600     0.37637       122.46        2.242E-3      -27.35        2.215E-3      -26.30        0.51157       56.95          
3270.0575     0.37695       122.49        2.203E-3      -27.39        2.211E-3      -27.59        0.50953       56.56          
3271.5550     0.37739       122.52        2.241E-3      -29.79        2.231E-3      -29.36        0.50781       56.13          
3273.0525     0.37754       122.57        2.246E-3      -30.40        2.222E-3      -30.13        0.50656       55.66          
3274.5500     0.37759       122.62        2.248E-3      -31.73        2.287E-3      -31.94        0.50572       55.18          
3276.0475     0.37734       122.68        2.248E-3      -33.85        2.276E-3      -33.59        0.50532       54.67          
3277.5450     0.37684       122.73        2.30E-3       -35.58        2.239E-3      -34.96        0.50538       54.16          
3279.0425     0.37613       122.78        2.299E-3      -36.28        2.293E-3      -36.18        0.50595       53.65          
3280.5400     0.3752        122.81        2.302E-3      -38.29        2.321E-3      -36.99        0.50697       53.15          
3282.0375     0.37403       122.84        2.302E-3      -40.11        2.324E-3      -38.92        0.50843       52.69          
3283.5350     0.37268       122.86        2.335E-3      -41.05        2.374E-3      -40.72        0.51019       52.25          
3285.0325     0.3711        122.86        2.334E-3      -42.56        2.293E-3      -41.88        0.51238       51.86          
3286.5300     0.36924       122.87        2.304E-3      -43.94        2.362E-3      -42.92        0.51493       51.52          
3288.0275     0.36727       122.85        2.32E-3       -44.74        2.349E-3      -44.98        0.51762       51.23          
3289.5250     0.36508       122.83        2.35E-3       -45.96        2.351E-3      -46.67        0.52055       51.00          
3291.0225     0.36265       122.80        2.362E-3      -47.76        2.337E-3      -48.07        0.52366       50.84          
3292.5200     0.36011       122.74        2.381E-3      -49.05        2.398E-3      -48.64        0.52683       50.74          
3294.0175     0.35736       122.68        2.398E-3      -51.00        2.375E-3      -50.87        0.53003       50.71          
3295.5150     0.35455       122.59        2.403E-3      -52.01        2.391E-3      -52.13        0.5332        50.74          
3297.0125     0.35155       122.50        2.421E-3      -53.55        2.404E-3      -53.87        0.53624       50.83          
3298.5100     0.3484        122.41        2.41E-3       -55.36        2.386E-3      -55.35        0.53918       50.98          
3300.0075     0.34528       122.30        2.426E-3      -57.03        2.42E-3       -57.40        0.54202       51.18          
3301.5050     0.34215       122.19        2.442E-3      -58.51        2.417E-3      -58.15        0.54457       51.43          
3303.0025     0.33884       122.06        2.455E-3      -59.82        2.414E-3      -59.42        0.54677       51.72          
3304.5000     0.33545       121.95        2.477E-3      -61.09        2.447E-3      -61.24        0.54872       52.06          
3305.9975     0.33199       121.80        2.449E-3      -62.89        2.458E-3      -63.25        0.55028       52.42          
3307.4950     0.3287        121.69        2.48E-3       -64.08        2.428E-3      -65.20        0.55155       52.81          
3308.9925     0.32526       121.56        2.479E-3      -66.25        2.477E-3      -64.79        0.55239       53.21          
3310.4900     0.32183       121.45        2.502E-3      -67.47        2.478E-3      -67.22        0.5528        53.63          
3311.9875     0.31848       121.35        2.492E-3      -68.88        2.476E-3      -68.15        0.55295       54.06          
3313.4850     0.31505       121.29        2.508E-3      -70.21        2.496E-3      -69.48        0.55258       54.48          
3314.9825     0.31162       121.22        2.565E-3      -72.35        2.504E-3      -71.58        0.55185       54.89          
3316.4800     0.30819       121.22        2.561E-3      -72.52        2.494E-3      -72.63        0.55076       55.29          
3317.9775     0.30481       121.23        2.544E-3      -74.74        2.563E-3      -74.70        0.54934       55.67          
3319.4750     0.30135       121.28        2.584E-3      -76.23        2.59E-3       -75.87        0.54757       56.01          
3320.9725     0.29784       121.38        2.581E-3      -77.34        2.611E-3      -77.35        0.54546       56.32          
3322.4700     0.29434       121.52        2.631E-3      -79.09        2.595E-3      -78.89        0.5431        56.59          
3323.9675     0.2908        121.70        2.608E-3      -81.43        2.622E-3      -80.33        0.5405        56.81          
3325.4650     0.28721       121.91        2.617E-3      -82.07        2.632E-3      -82.03        0.5377        56.98          
3326.9625     0.28358       122.21        2.649E-3      -84.26        2.664E-3      -84.05        0.5348        57.09          
3328.4600     0.27988       122.53        2.682E-3      -86.17        2.692E-3      -84.01        0.53169       57.15          
3329.9575     0.27626       122.92        2.668E-3      -87.53        2.696E-3      -86.85        0.52863       57.14          
3331.4550     0.27241       123.36        2.69E-3       -88.81        2.665E-3      -88.51        0.5255        57.08          
3332.9525     0.26864       123.89        2.70E-3       -90.22        2.704E-3      -90.38        0.52249       56.95          
3334.4500     0.2648        124.47        2.702E-3      -92.23        2.704E-3      -92.17        0.51957       56.77          
3335.9475     0.26097       125.09        2.734E-3      -94.05        2.766E-3      -93.35        0.5169        56.52          
3337.4450     0.25718       125.77        2.737E-3      -95.98        2.71E-3       -96.13        0.51447       56.23          
3338.9425     0.25352       126.54        2.74E-3       -97.78        2.799E-3      -96.69        0.51228       55.87          
3340.4400     0.24992       127.36        2.732E-3      -100.07       2.769E-3      -99.20        0.51045       55.48          
3341.9375     0.2465        128.25        2.751E-3      -101.39       2.734E-3      -100.35       0.50899       55.04          
3343.4350     0.24302       129.21        2.784E-3      -102.81       2.751E-3      -101.64       0.50789       54.59          
3344.9325     0.23972       130.19        2.778E-3      -104.71       2.78E-3       -104.01       0.50728       54.11          
3346.4300     0.23655       131.25        2.771E-3      -106.64       2.756E-3      -106.45       0.50699       53.62          
3347.9275     0.23363       132.34        2.775E-3      -107.90       2.76E-3       -109.01       0.50724       53.13          
3349.4250     0.23076       133.48        2.763E-3      -109.34       2.77E-3       -108.74       0.50776       52.65          
3350.9225     0.22821       134.66        2.78E-3       -111.81       2.759E-3      -112.07       0.50878       52.19          
3352.4200     0.22574       135.87        2.742E-3      -113.42       2.851E-3      -112.97       0.51019       51.76          
3353.9175     0.22353       137.09        2.767E-3      -115.32       2.795E-3      -114.93       0.5119        51.36          
3355.4150     0.22156       138.35        2.783E-3      -116.66       2.772E-3      -116.09       0.51388       51.01          
3356.9125     0.21978       139.61        2.761E-3      -118.74       2.746E-3      -118.27       0.51615       50.70          
3358.4100     0.21822       140.86        2.775E-3      -119.65       2.743E-3      -120.41       0.51863       50.44          
3359.9075     0.21685       142.10        2.755E-3      -121.72       2.714E-3      -121.38       0.52125       50.24          
3361.4050     0.21576       143.37        2.732E-3      -123.34       2.739E-3      -123.14       0.52402       50.09          
3362.9025     0.21488       144.60        2.72E-3       -124.77       2.756E-3      -125.11       0.52676       50.00          
3364.4000     0.21421       145.80        2.733E-3      -126.79       2.731E-3      -126.64       0.52953       49.96          
3365.8975     0.21385       146.97        2.748E-3      -128.03       2.755E-3      -128.12       0.53219       49.98          
3367.3950     0.21373       148.10        2.723E-3      -129.29       2.722E-3      -129.26       0.53474       50.05          
3368.8925     0.21372       149.18        2.71E-3       -130.91       2.68E-3       -130.67       0.53711       50.17          
3370.3900     0.21405       150.23        2.714E-3      -132.45       2.749E-3      -132.61       0.53934       50.34          
3371.8875     0.21454       151.22        2.707E-3      -133.98       2.724E-3      -133.96       0.54125       50.53          
3373.3850     0.21527       152.19        2.69E-3       -135.30       2.693E-3      -135.78       0.54299       50.77          
3374.8825     0.21619       153.11        2.669E-3      -136.08       2.687E-3      -136.91       0.54431       51.04          
3376.3800     0.21729       153.96        2.691E-3      -138.64       2.69E-3       -138.57       0.54544       51.33          
3377.8775     0.21849       154.78        2.678E-3      -139.62       2.678E-3      -139.71       0.54618       51.64          
3379.3750     0.21995       155.52        2.684E-3      -141.65       2.676E-3      -141.57       0.54666       51.95          
3380.8725     0.22157       156.21        2.672E-3      -142.33       2.679E-3      -142.42       0.54685       52.28          
3382.3700     0.22325       156.85        2.663E-3      -144.06       2.68E-3       -144.19       0.54672       52.59          
3383.8675     0.2251        157.43        2.664E-3      -144.90       2.681E-3      -145.77       0.5462        52.90          
3385.3650     0.22703       157.94        2.678E-3      -147.18       2.654E-3      -147.55       0.54539       53.21          
3386.8625     0.229         158.40        2.631E-3      -148.47       2.665E-3      -148.96       0.54426       53.48          
3388.3600     0.23109       158.80        2.649E-3      -150.48       2.672E-3      -150.16       0.54291       53.74          
3389.8575     0.23326       159.16        2.676E-3      -151.71       2.642E-3      -151.90       0.5414        53.96          
3391.3550     0.23543       159.46        2.648E-3      -153.42       2.698E-3      -152.42       0.53959       54.15          
3392.8525     0.23763       159.73        2.655E-3      -154.63       2.626E-3      -154.74       0.53765       54.31          
3394.3500     0.23981       159.96        2.623E-3      -156.17       2.658E-3      -155.51       0.53555       54.42          
3395.8475     0.24206       160.15        2.632E-3      -157.29       2.642E-3      -156.78       0.53339       54.49          
3397.3450     0.24421       160.32        2.63E-3       -159.48       2.646E-3      -158.59       0.53117       54.51          
3398.8425     0.24644       160.44        2.633E-3      -160.97       2.638E-3      -159.33       0.52898       54.48          
3400.3400     0.24853       160.54        2.616E-3      -162.11       2.654E-3      -162.19       0.52686       54.40          
3401.8375     0.25063       160.63        2.596E-3      -162.99       2.64E-3       -163.56       0.52475       54.28          
3403.3350     0.2527        160.69        2.618E-3      -165.00       2.67E-3       -164.35       0.52286       54.11          
3404.8325     0.25462       160.75        2.618E-3      -165.98       2.625E-3      -165.37       0.52112       53.89          
3406.3300     0.25654       160.77        2.606E-3      -167.51       2.679E-3      -168.02       0.5196        53.64          
3407.8275     0.25826       160.80        2.605E-3      -168.72       2.634E-3      -169.20       0.51825       53.35          
3409.3250     0.25993       160.80        2.63E-3       -170.94       2.719E-3      -171.08       0.51722       53.04          
3410.8225     0.26145       160.79        2.61E-3       -171.65       2.666E-3      -171.63       0.51651       52.71          
3412.3200     0.26282       160.77        2.628E-3      -172.95       2.642E-3      -173.38       0.51601       52.36          
3413.8175     0.26409       160.75        2.623E-3      -174.42       2.67E-3       -174.59       0.51593       52.00          
3415.3150     0.26525       160.69        2.662E-3      -176.03       2.632E-3      -175.79       0.51613       51.65          
3416.8125     0.26623       160.62        2.627E-3      -177.18       2.669E-3      -177.07       0.51661       51.30          
3418.3100     0.26714       160.54        2.655E-3      -179.02       2.65E-3       -178.51       0.51748       50.96          
3419.8075     0.26776       160.44        2.628E-3      179.69        2.657E-3      179.93        0.51856       50.64          
3421.3050     0.26827       160.33        2.677E-3      178.56        2.682E-3      178.58        0.51996       50.34          
3422.8025     0.26857       160.18        2.637E-3      177.23        2.689E-3      177.00        0.52155       50.08          
3424.3000     0.26874       160.02        2.696E-3      175.47        2.707E-3      175.24        0.52333       49.85          
3425.7975     0.26871       159.82        2.67E-3       174.02        2.673E-3      174.28        0.52528       49.67          
3427.2950     0.26834       159.60        2.644E-3      172.36        2.692E-3      172.08        0.52725       49.52          
3428.7925     0.26787       159.35        2.665E-3      170.29        2.709E-3      170.66        0.5293        49.42          
3430.2900     0.26708       159.06        2.686E-3      169.29        2.716E-3      170.39        0.53147       49.36          
3431.7875     0.26608       158.77        2.682E-3      168.05        2.701E-3      168.54        0.53348       49.34          
3433.2850     0.26486       158.46        2.677E-3      166.23        2.69E-3       166.93        0.53546       49.37          
3434.7825     0.26346       158.12        2.673E-3      164.90        2.683E-3      165.06        0.53742       49.44          
3436.2800     0.26183       157.75        2.653E-3      163.10        2.70E-3       163.88        0.53911       49.55          
3437.7775     0.25993       157.38        2.674E-3      161.59        2.711E-3      162.59        0.54071       49.68          
3439.2750     0.25793       157.02        2.662E-3      160.63        2.672E-3      159.88        0.54215       49.86          
3440.7725     0.25585       156.63        2.654E-3      158.74        2.69E-3       159.26        0.54336       50.07          
3442.2700     0.25366       156.22        2.677E-3      157.05        2.698E-3      158.11        0.54438       50.29          
3443.7675     0.25136       155.79        2.699E-3      156.04        2.691E-3      156.90        0.5451        50.53          
3445.2650     0.24901       155.33        2.649E-3      155.27        2.657E-3      155.34        0.54552       50.79          
3446.7625     0.24663       154.86        2.685E-3      152.98        2.66E-3       153.97        0.54571       51.06          
3448.2600     0.24423       154.36        2.637E-3      151.74        2.729E-3      152.20        0.54559       51.32          
3449.7575     0.24184       153.85        2.625E-3      150.42        2.671E-3      151.45        0.54522       51.59          
3451.2550     0.23934       153.33        2.68E-3       149.46        2.65E-3       150.10        0.54467       51.85          
3452.7525     0.23692       152.78        2.663E-3      147.59        2.673E-3      149.28        0.54383       52.10          
3454.2500     0.23441       152.22        2.659E-3      146.42        2.677E-3      147.71        0.54272       52.32          
3455.7475     0.23188       151.63        2.682E-3      145.44        2.689E-3      146.40        0.5414        52.54          
3457.2450     0.22948       151.06        2.68E-3       144.05        2.682E-3      144.44        0.5399        52.72          
3458.7425     0.22691       150.51        2.702E-3      142.32        2.707E-3      143.34        0.53829       52.87          
3460.2400     0.22438       149.93        2.739E-3      140.57        2.753E-3      142.09        0.5365        52.99          
3461.7375     0.22168       149.37        2.721E-3      140.12        2.737E-3      140.93        0.53472       53.06          
3463.2350     0.21905       148.81        2.739E-3      138.43        2.743E-3      139.01        0.53279       53.10          
3464.7325     0.21629       148.28        2.723E-3      137.76        2.704E-3      137.49        0.53085       53.10          
3466.2300     0.21346       147.73        2.735E-3      135.93        2.779E-3      135.53        0.52897       53.05          
3467.7275     0.21045       147.21        2.754E-3      134.51        2.763E-3      135.01        0.52713       52.96          
3469.2250     0.20742       146.74        2.791E-3      132.39        2.786E-3      133.54        0.52533       52.84          
3470.7225     0.20423       146.25        2.804E-3      130.90        2.799E-3      132.13        0.52372       52.67          
3472.2200     0.20084       145.80        2.803E-3      129.72        2.811E-3      129.81        0.52219       52.48          
3473.7175     0.19727       145.40        2.812E-3      127.79        2.822E-3      127.77        0.52087       52.24          
3475.2150     0.19342       145.06        2.825E-3      126.51        2.804E-3      127.27        0.51973       51.97          
3476.7125     0.18938       144.71        2.834E-3      124.40        2.803E-3      124.44        0.51891       51.69          
3478.2100     0.18517       144.46        2.805E-3      122.66        2.83E-3       123.54        0.51832       51.39          
3479.7075     0.1807        144.22        2.799E-3      121.25        2.82E-3       121.39        0.518         51.06          
3481.2050     0.17607       144.04        2.833E-3      119.30        2.852E-3      120.44        0.51796       50.74          
3482.7025     0.17124       143.88        2.855E-3      117.68        2.80E-3       117.54        0.51819       50.40          
3484.2000     0.16627       143.80        2.83E-3       115.68        2.813E-3      116.52        0.5188        50.08          
3485.6975     0.16102       143.77        2.822E-3      114.35        2.823E-3      114.85        0.51948       49.77          
3487.1950     0.15573       143.80        2.816E-3      112.37        2.815E-3      113.44        0.52051       49.46          
3488.6925     0.15029       143.91        2.822E-3      110.94        2.824E-3      111.25        0.52174       49.19          
3490.1900     0.14471       144.08        2.783E-3      109.13        2.814E-3      109.81        0.52316       48.94          
3491.6875     0.13898       144.31        2.792E-3      107.24        2.798E-3      108.00        0.5248        48.73          
3493.1850     0.13323       144.60        2.797E-3      105.51        2.805E-3      107.02        0.52649       48.54          
3494.6825     0.1274        144.92        2.789E-3      104.51        2.787E-3      104.98        0.52831       48.39          
3496.1800     0.12161       145.36        2.771E-3      102.77        2.79E-3       103.38        0.53023       48.29          
3497.6775     0.11579       145.82        2.785E-3      100.64        2.747E-3      101.74        0.53212       48.22          
3499.1750     0.10994       146.37        2.75E-3       99.36         2.768E-3      100.34        0.53404       48.19          
3500.6725     0.10425       146.96        2.754E-3      98.56         2.702E-3      98.67         0.53596       48.21          
3502.1700     0.09854       147.65        2.74E-3       96.72         2.747E-3      97.59         0.53781       48.27          
3503.6675     0.09299       148.46        2.742E-3      95.35         2.733E-3      95.38         0.53948       48.36          
3505.1650     0.08749       149.34        2.712E-3      93.99         2.713E-3      94.57         0.54107       48.49          
3506.6625     0.08216       150.35        2.719E-3      93.07         2.707E-3      93.68         0.54248       48.65          
3508.1600     0.07702       151.42        2.716E-3      91.81         2.709E-3      91.53         0.5437        48.84          
3509.6575     0.07194       152.75        2.717E-3      90.04         2.709E-3      89.96         0.54464       49.05          
3511.1550     0.0671        154.30        2.678E-3      88.45         2.692E-3      88.14         0.54545       49.29          
3512.6525     0.06246       156.06        2.696E-3      86.58         2.675E-3      87.36         0.54603       49.54          
3514.1500     0.05814       158.22        2.702E-3      85.92         2.711E-3      86.30         0.54636       49.80          
3515.6475     0.05414       160.73        2.689E-3      84.66         2.726E-3      83.78         0.54636       50.08          
3517.1450     0.05044       163.73        2.692E-3      82.27         2.706E-3      82.35         0.54614       50.35          
3518.6425     0.04719       167.22        2.695E-3      81.12         2.715E-3      81.57         0.54575       50.62          
3520.1400     0.04444       171.22        2.705E-3      79.86         2.69E-3       79.60         0.54505       50.87          
3521.6375     0.04215       175.75        2.715E-3      78.08         2.668E-3      78.31         0.54414       51.12          
3523.1350     0.04047       -179.21       2.708E-3      77.17         2.707E-3      76.90         0.54308       51.35          
3524.6325     0.03945       -173.77       2.68E-3       74.77         2.702E-3      75.11         0.54176       51.55          
3526.1300     0.03903       -168.25       2.697E-3      73.73         2.702E-3      73.68         0.54026       51.73          
3527.6275     0.03932       -162.67       2.66E-3       72.55         2.69E-3       72.16         0.53865       51.87          
3529.1250     0.04023       -157.50       2.634E-3      70.47         2.685E-3      70.65         0.53689       51.98          
3530.6225     0.04159       -152.76       2.669E-3      68.41         2.674E-3      69.36         0.53503       52.06          
3532.1200     0.04356       -148.48       2.67E-3       67.25         2.662E-3      67.81         0.53315       52.10          
3533.6175     0.04588       -144.74       2.647E-3      66.35         2.646E-3      66.01         0.5312        52.10          
3535.1150     0.04853       -141.47       2.629E-3      64.46         2.687E-3      65.06         0.52924       52.06          
3536.6125     0.05144       -138.85       2.60E-3       63.29         2.646E-3      63.40         0.52732       51.98          
3538.1100     0.05456       -136.55       2.645E-3      61.99         2.644E-3      61.87         0.52555       51.85          
3539.6075     0.05788       -134.49       2.616E-3      60.53         2.643E-3      60.40         0.52388       51.70          
3541.1050     0.0612        -132.74       2.584E-3      58.78         2.621E-3      59.21         0.52233       51.50          
3542.6025     0.06464       -131.26       2.562E-3      56.82         2.603E-3      57.84         0.5209        51.26          
3544.1000     0.06809       -129.93       2.576E-3      55.98         2.582E-3      55.98         0.5197        50.99          
3545.5975     0.07151       -128.72       2.579E-3      54.66         2.57E-3       55.20         0.51872       50.70          
3547.0950     0.07496       -127.58       2.585E-3      53.07         2.564E-3      53.44         0.51795       50.38          
3548.5925     0.07826       -126.58       2.585E-3      52.53         2.571E-3      52.38         0.51748       50.06          
3550.0900     0.08152       -125.63       2.551E-3      50.28         2.567E-3      51.94         0.51729       49.72          
3551.5875     0.08464       -124.73       2.576E-3      49.57         2.537E-3      49.97         0.51734       49.37          
3553.0850     0.08764       -123.81       2.554E-3      47.88         2.574E-3      48.46         0.51756       49.03          
3554.5825     0.09043       -122.94       2.518E-3      47.40         2.548E-3      46.83         0.51814       48.70          
3556.0800     0.09322       -122.07       2.535E-3      45.62         2.538E-3      46.99         0.51892       48.37          
3557.5775     0.09577       -121.21       2.542E-3      44.15         2.517E-3      45.30         0.52002       48.07          
3559.0750     0.09818       -120.34       2.55E-3       42.98         2.551E-3      43.93         0.52127       47.79          
3560.5725     0.10035       -119.54       2.529E-3      41.12         2.54E-3       42.55         0.52267       47.53          
3562.0700     0.1024        -118.70       2.529E-3      40.35         2.557E-3      41.06         0.52431       47.31          
3563.5675     0.10424       -117.88       2.527E-3      39.33         2.555E-3      40.26         0.526         47.13          
3565.0650     0.1059        -117.08       2.55E-3       38.17         2.52E-3       37.83         0.52785       46.99          
3566.5625     0.10738       -116.33       2.56E-3       36.98         2.52E-3       36.93         0.52972       46.88          
3568.0600     0.10875       -115.66       2.498E-3      35.77         2.511E-3      35.71         0.53165       46.81          
3569.5575     0.10997       -115.03       2.514E-3      34.20         2.51E-3       35.31         0.5335        46.79          
3571.0550     0.11108       -114.47       2.549E-3      33.19         2.517E-3      32.93         0.53535       46.80          
3572.5525     0.11195       -114.09       2.53E-3       32.35         2.523E-3      32.26         0.53708       46.86          
3574.0500     0.11265       -113.75       2.513E-3      29.92         2.552E-3      30.37         0.5388        46.95          
3575.5475     0.11319       -113.48       2.517E-3      28.73         2.516E-3      30.07         0.54038       47.07          
3577.0450     0.11349       -113.40       2.505E-3      28.29         2.552E-3      27.59         0.54173       47.23          
3578.5425     0.11373       -113.40       2.50E-3       27.21         2.535E-3      27.18         0.54297       47.43          
3580.0400     0.11378       -113.47       2.519E-3      25.78         2.521E-3      26.36         0.54399       47.64          
3581.5375     0.11381       -113.65       2.473E-3      24.04         2.526E-3      24.31         0.54482       47.87          
3583.0350     0.11365       -113.98       2.544E-3      23.43         2.546E-3      23.23         0.54545       48.12          
3584.5325     0.11359       -114.35       2.554E-3      21.73         2.529E-3      22.20         0.54585       48.38          
3586.0300     0.11334       -114.86       2.529E-3      21.06         2.544E-3      20.81         0.54598       48.64          
3587.5275     0.11312       -115.45       2.52E-3       19.62         2.518E-3      19.87         0.54592       48.91          
3589.0250     0.11302       -116.09       2.528E-3      18.38         2.515E-3      18.40         0.54565       49.18          
3590.5225     0.11291       -116.81       2.538E-3      17.04         2.509E-3      17.19         0.54513       49.44          
3592.0200     0.11288       -117.59       2.535E-3      15.61         2.538E-3      15.50         0.5444        49.69          
3593.5175     0.11301       -118.41       2.536E-3      15.68         2.559E-3      15.18         0.5435        49.93          
3595.0150     0.11317       -119.21       2.509E-3      13.05         2.542E-3      14.11         0.54232       50.15          
3596.5125     0.11351       -120.04       2.507E-3      12.83         2.542E-3      12.59         0.54098       50.34          
3598.0100     0.11396       -120.87       2.587E-3      10.64         2.55E-3       10.98         0.53958       50.52          
3599.5075     0.1145        -121.66       2.549E-3      9.74          2.571E-3      10.48         0.53799       50.65          
3601.0050     0.11515       -122.41       2.561E-3      8.15          2.577E-3      8.56          0.53636       50.76          
3602.5025     0.1159        -123.10       2.599E-3      7.18          2.595E-3      7.73          0.5346        50.83          
3604.0000     0.11661       -123.69       2.611E-3      5.52          2.566E-3      6.64          0.53281       50.86          
3605.4975     0.11744       -124.24       2.608E-3      4.41          2.595E-3      5.19          0.53102       50.85          
3606.9950     0.1182        -124.66       2.624E-3      3.66          2.60E-3       3.40          0.52919       50.81          
3608.4925     0.11888       -125.07       2.637E-3      2.21          2.652E-3      3.04          0.52737       50.72          
3609.9900     0.11959       -125.40       2.66E-3       0.36          2.617E-3      1.31          0.5256        50.61          
3611.4875     0.12007       -125.61       2.681E-3      -0.63         2.669E-3      -0.36         0.52408       50.44          
3612.9850     0.12044       -125.74       2.682E-3      -1.82         2.634E-3      -0.73         0.52259       50.25          
3614.4825     0.12065       -125.84       2.708E-3      -3.35         2.70E-3       -2.99         0.52125       50.03          
3615.9800     0.12052       -125.79       2.713E-3      -5.05         2.744E-3      -4.91         0.52012       49.78          
3617.4775     0.12024       -125.70       2.756E-3      -6.23         2.714E-3      -5.82         0.51917       49.50          
3618.9750     0.11952       -125.49       2.775E-3      -8.18         2.776E-3      -8.21         0.51848       49.20          
3620.4725     0.11862       -125.26       2.758E-3      -9.70         2.789E-3      -9.66         0.51796       48.88          
3621.9700     0.11738       -124.92       2.792E-3      -11.33        2.789E-3      -11.53        0.51774       48.56          
3623.4675     0.11576       -124.59       2.81E-3       -12.83        2.795E-3      -12.25        0.51774       48.24          
3624.9650     0.11376       -124.19       2.839E-3      -14.75        2.821E-3      -14.68        0.51798       47.91          
3626.4625     0.11152       -123.67       2.833E-3      -16.26        2.824E-3      -15.89        0.51846       47.60          
3627.9600     0.10886       -123.17       2.834E-3      -17.84        2.84E-3       -18.52        0.51919       47.30          
3629.4575     0.10593       -122.62       2.858E-3      -19.34        2.818E-3      -19.30        0.52014       47.03          
3630.9550     0.10271       -122.02       2.866E-3      -21.11        2.878E-3      -21.10        0.5212        46.76          
3632.4525     0.09911       -121.37       2.866E-3      -22.87        2.852E-3      -22.84        0.52249       46.54          
3633.9500     0.09534       -120.73       2.877E-3      -24.23        2.892E-3      -25.02        0.52393       46.33          
3635.4475     0.0913        -119.99       2.885E-3      -26.75        2.904E-3      -26.23        0.52545       46.16          
3636.9450     0.0871        -119.25       2.901E-3      -28.33        2.867E-3      -28.50        0.5271        46.03          
3638.4425     0.0829        -118.43       2.871E-3      -29.40        2.892E-3      -30.18        0.52874       45.94          
3639.9400     0.07841       -117.57       2.898E-3      -31.22        2.904E-3      -31.71        0.53043       45.88          
3641.4375     0.07382       -116.57       2.897E-3      -32.86        2.914E-3      -32.82        0.53216       45.86          
3642.9350     0.06931       -115.58       2.892E-3      -34.70        2.907E-3      -34.46        0.53382       45.88          
3644.4325     0.06478       -114.43       2.894E-3      -35.82        2.922E-3      -36.67        0.53544       45.93          
3645.9300     0.06033       -113.23       2.872E-3      -37.57        2.903E-3      -37.97        0.53697       46.01          
3647.4275     0.05598       -111.80       2.889E-3      -40.22        2.915E-3      -39.57        0.53844       46.12          
3648.9250     0.05182       -110.14       2.892E-3      -41.42        2.912E-3      -41.71        0.53983       46.27          
3650.4225     0.04793       -108.25       2.919E-3      -43.19        2.898E-3      -42.94        0.541         46.45          
3651.9200     0.04422       -105.98       2.918E-3      -44.61        2.912E-3      -44.64        0.54199       46.64          
3653.4175     0.04086       -103.19       2.911E-3      -46.74        2.915E-3      -46.93        0.54284       46.86          
3654.9150     0.03789       -100.03       2.888E-3      -48.25        2.913E-3      -48.66        0.54344       47.09          
3656.4125     0.03538       -96.11        2.887E-3      -49.49        2.918E-3      -50.62        0.54389       47.33          
3657.9100     0.03348       -91.61        2.915E-3      -52.63        2.903E-3      -51.79        0.54413       47.58          
3659.4075     0.03212       -86.53        2.90E-3       -54.26        2.893E-3      -53.62        0.54418       47.83          
3660.9050     0.03141       -81.13        2.874E-3      -55.26        2.873E-3      -54.99        0.54398       48.08          
3662.4025     0.03151       -75.61        2.885E-3      -57.04        2.872E-3      -57.35        0.54361       48.32          
3663.9000     0.03218       -70.15        2.884E-3      -59.37        2.901E-3      -59.05        0.543         48.55          
3665.3975     0.03372       -65.16        2.898E-3      -61.09        2.821E-3      -60.52        0.54221       48.77          
3666.8950     0.03582       -60.75        2.907E-3      -62.71        2.844E-3      -62.39        0.54129       48.97          
3668.3925     0.03847       -56.98        2.875E-3      -64.59        2.90E-3       -64.53        0.54015       49.14          
3669.8900     0.04173       -53.79        2.859E-3      -65.56        2.868E-3      -65.91        0.53893       49.29          
3671.3875     0.04535       -51.27        2.844E-3      -67.66        2.867E-3      -67.42        0.53746       49.42          
3672.8850     0.04943       -49.39        2.823E-3      -69.58        2.825E-3      -69.01        0.53591       49.51          
3674.3825     0.0537        -47.75        2.819E-3      -70.72        2.828E-3      -70.96        0.53444       49.57          
3675.8800     0.05841       -46.39        2.809E-3      -72.61        2.802E-3      -72.60        0.53278       49.59          
3677.3775     0.06341       -45.37        2.76E-3       -74.42        2.798E-3      -74.98        0.53111       49.57          
3678.8750     0.06855       -44.47        2.771E-3      -76.18        2.793E-3      -75.96        0.52953       49.53          
3680.3725     0.07392       -43.69        2.777E-3      -77.89        2.759E-3      -77.93        0.52786       49.44          
3681.8700     0.07943       -43.01        2.713E-3      -79.16        2.727E-3      -79.18        0.52626       49.32          
3683.3675     0.08495       -42.41        2.712E-3      -80.66        2.719E-3      -80.22        0.52478       49.16          
3684.8650     0.09049       -41.87        2.677E-3      -82.18        2.699E-3      -81.51        0.52336       48.97          
3686.3625     0.09596       -41.33        2.679E-3      -83.69        2.705E-3      -82.94        0.52209       48.75          
3687.8600     0.10129       -40.85        2.681E-3      -84.72        2.69E-3       -84.90        0.52104       48.52          
3689.3575     0.10658       -40.32        2.68E-3       -86.79        2.664E-3      -86.24        0.52012       48.25          
3690.8550     0.11168       -39.80        2.615E-3      -87.78        2.65E-3       -87.33        0.51939       47.99          
3692.3525     0.11656       -39.29        2.632E-3      -89.15        2.613E-3      -88.72        0.51881       47.70          
3693.8500     0.12121       -38.81        2.602E-3      -90.07        2.618E-3      -90.60        0.5185        47.40          
3695.3475     0.12577       -38.40        2.545E-3      -91.45        2.607E-3      -91.37        0.51838       47.10          
3696.8450     0.12991       -38.00        2.53E-3       -93.46        2.602E-3      -92.56        0.51851       46.81          
3698.3425     0.13385       -37.65        2.548E-3      -94.19        2.552E-3      -94.12        0.51884       46.53          
3699.8400     0.13746       -37.28        2.535E-3      -96.40        2.554E-3      -95.75        0.51937       46.25          
3701.3375     0.14073       -37.04        2.526E-3      -97.01        2.519E-3      -96.86        0.52011       46.00          
3702.8350     0.14381       -36.85        2.494E-3      -98.24        2.535E-3      -97.36        0.52098       45.77          
3704.3325     0.14646       -36.68        2.50E-3       -99.19        2.488E-3      -99.07        0.52204       45.56          
3705.8300     0.14892       -36.58        2.481E-3      -100.41       2.496E-3      -99.91        0.52327       45.38          
3707.3275     0.15108       -36.58        2.478E-3      -101.60       2.478E-3      -101.35       0.52463       45.24          
3708.8250     0.15288       -36.60        2.451E-3      -101.90       2.476E-3      -101.27       0.52608       45.12          
3710.3225     0.15443       -36.77        2.424E-3      -103.92       2.428E-3      -103.58       0.52752       45.05          
3711.8200     0.15581       -36.99        2.431E-3      -104.97       2.418E-3      -105.62       0.52905       45.01          
3713.3175     0.15696       -37.31        2.422E-3      -106.56       2.40E-3       -105.39       0.53051       45.00          
3714.8150     0.15795       -37.73        2.418E-3      -107.18       2.392E-3      -107.04       0.53197       45.03          
3716.3125     0.15892       -38.24        2.432E-3      -108.74       2.392E-3      -107.82       0.53336       45.09          
3717.8100     0.1598        -38.82        2.407E-3      -109.69       2.377E-3      -110.04       0.53462       45.18          
3719.3075     0.16055       -39.52        2.38E-3       -110.93       2.405E-3      -110.44       0.53587       45.30          
3720.8050     0.16137       -40.28        2.396E-3      -112.10       2.358E-3      -111.36       0.53692       45.44          
3722.3025     0.16218       -41.11        2.37E-3       -113.29       2.362E-3      -112.81       0.53781       45.61          
3723.8000     0.1631        -42.02        2.351E-3      -114.48       2.339E-3      -113.70       0.53853       45.79          
3725.2975     0.16422       -42.93        2.412E-3      -115.68       2.339E-3      -115.63       0.53911       45.99          
3726.7950     0.16547       -43.90        2.38E-3       -116.61       2.32E-3       -116.00       0.53948       46.19          
3728.2925     0.1669        -44.91        2.351E-3      -118.40       2.331E-3      -117.17       0.53969       46.41          
3729.7900     0.16856       -45.92        2.334E-3      -117.27       2.321E-3      -117.91       0.53963       46.61          
3731.2875     0.17042       -46.86        2.36E-3       -119.13       2.312E-3      -117.98       0.53944       46.82          
3732.7850     0.17232       -47.82        2.346E-3      -119.99       2.322E-3      -119.96       0.53901       47.02          
3734.2825     0.17456       -48.75        2.37E-3       -120.84       2.284E-3      -121.07       0.53842       47.21          
3735.7800     0.17693       -49.62        2.33E-3       -122.18       2.279E-3      -121.43       0.53762       47.38          
3737.2775     0.17946       -50.42        2.346E-3      -123.22       2.352E-3      -122.55       0.53661       47.53          
3738.7750     0.1822        -51.17        2.363E-3      -125.08       2.347E-3      -123.89       0.53547       47.65          
3740.2725     0.185         -51.82        2.384E-3      -125.46       2.334E-3      -124.58       0.53423       47.75          
3741.7700     0.18792       -52.39        2.392E-3      -126.41       2.389E-3      -126.73       0.53285       47.82          
3743.2675     0.19075       -52.89        2.443E-3      -128.04       2.393E-3      -126.82       0.53135       47.85          
3744.7650     0.19361       -53.33        2.375E-3      -128.46       2.449E-3      -127.62       0.52979       47.85          
3746.2625     0.19638       -53.68        2.401E-3      -129.34       2.401E-3      -128.40       0.52822       47.81          
3747.7600     0.19918       -53.98        2.402E-3      -131.16       2.43E-3       -130.68       0.52662       47.74          
3749.2575     0.20176       -54.25        2.44E-3       -132.88       2.442E-3      -131.91       0.5251        47.63          
3750.7550     0.20413       -54.44        2.473E-3      -132.95       2.447E-3      -132.95       0.52363       47.49          
3752.2525     0.20626       -54.61        2.488E-3      -134.86       2.47E-3       -133.66       0.52222       47.31          
3753.7500     0.20819       -54.74        2.512E-3      -135.78       2.506E-3      -135.51       0.5209        47.10          
3755.2475     0.20977       -54.89        2.517E-3      -137.28       2.514E-3      -136.67       0.51983       46.86          
3756.7450     0.21103       -55.01        2.542E-3      -138.56       2.482E-3      -137.52       0.5188        46.60          
3758.2425     0.21196       -55.15        2.587E-3      -139.87       2.542E-3      -139.74       0.51801       46.31          
3759.7400     0.21263       -55.28        2.593E-3      -141.38       2.585E-3      -140.36       0.51749       46.01          
3761.2375     0.21293       -55.46        2.601E-3      -141.97       2.591E-3      -142.80       0.51714       45.69          
3762.7350     0.21292       -55.63        2.609E-3      -144.01       2.614E-3      -143.68       0.51714       45.38          
3764.2325     0.2124        -55.87        2.646E-3      -145.20       2.618E-3      -145.67       0.51735       45.05          
3765.7300     0.21171       -56.14        2.664E-3      -146.58       2.664E-3      -147.16       0.51792       44.74          
3767.2275     0.21069       -56.45        2.686E-3      -148.70       2.672E-3      -148.11       0.51862       44.44          
3768.7250     0.20929       -56.84        2.701E-3      -149.65       2.709E-3      -149.95       0.51965       44.16          
3770.2225     0.20773       -57.28        2.72E-3       -151.34       2.715E-3      -151.51       0.52085       43.90          
3771.7200     0.20578       -57.81        2.724E-3      -152.88       2.707E-3      -152.69       0.52224       43.67          
3773.2175     0.20367       -58.38        2.749E-3      -154.36       2.719E-3      -154.41       0.52386       43.48          
3774.7150     0.20141       -59.04        2.765E-3      -155.88       2.74E-3       -156.31       0.52569       43.32          
3776.2125     0.19908       -59.77        2.787E-3      -157.85       2.732E-3      -157.58       0.52758       43.20          
3777.7100     0.19659       -60.58        2.761E-3      -159.02       2.753E-3      -158.96       0.52959       43.13          
3779.2075     0.1941        -61.44        2.791E-3      -160.28       2.739E-3      -160.52       0.5316        43.10          
3780.7050     0.19152       -62.39        2.793E-3      -160.85       2.756E-3      -162.72       0.53365       43.11          
3782.2025     0.18906       -63.42        2.791E-3      -162.81       2.746E-3      -164.41       0.53571       43.16          
3783.7000     0.18665       -64.42        2.857E-3      -165.32       2.788E-3      -165.77       0.53772       43.26          
3785.1975     0.18439       -65.50        2.848E-3      -166.84       2.781E-3      -166.90       0.53962       43.39          
3786.6950     0.18213       -66.62        2.883E-3      -168.52       2.878E-3      -169.35       0.54138       43.57          
3788.1925     0.18006       -67.75        2.87E-3       -170.38       2.828E-3      -170.27       0.54303       43.78          
3789.6900     0.1781        -68.86        2.935E-3      -172.28       2.818E-3      -171.68       0.54454       44.02          
3791.1875     0.17624       -69.97        2.942E-3      -173.29       2.928E-3      -172.93       0.54581       44.28          
3792.6850     0.17437       -70.99        2.954E-3      -175.51       2.902E-3      -176.04       0.54684       44.57          
3794.1825     0.17268       -71.99        2.944E-3      -176.43       2.923E-3      -177.94       0.54766       44.88          
3795.6800     0.17094       -72.87        2.953E-3      -179.48       2.916E-3      -179.30       0.54821       45.20          
3797.1775     0.16916       -73.67        2.953E-3      178.94        2.965E-3      178.82        0.54855       45.53          
3798.6750     0.16731       -74.36        3.016E-3      177.29        3.001E-3      178.13        0.5485        45.86          
3800.1725     0.1654        -74.90        2.998E-3      175.87        2.992E-3      175.79        0.54827       46.20          
3801.6700     0.16335       -75.35        3.032E-3      173.66        3.024E-3      173.55        0.54775       46.52          
3803.1675     0.16109       -75.62        3.031E-3      171.90        3.003E-3      171.75        0.54693       46.83          
3804.6650     0.15879       -75.70        3.057E-3      169.46        3.064E-3      170.05        0.54588       47.12          
3806.1625     0.15619       -75.66        3.081E-3      167.77        3.056E-3      167.47        0.54453       47.39          
3807.6600     0.1535        -75.44        3.06E-3       165.79        3.062E-3      165.45        0.54296       47.63          
3809.1575     0.15053       -75.02        3.046E-3      164.40        3.069E-3      163.49        0.54128       47.85          
3810.6550     0.14736       -74.42        3.049E-3      161.51        3.045E-3      161.56        0.53929       48.03          
3812.1525     0.14398       -73.66        3.058E-3      159.33        3.052E-3      159.15        0.5372        48.17          
3813.6500     0.14065       -72.72        3.021E-3      157.35        3.034E-3      157.01        0.53494       48.27          
3815.1475     0.13715       -71.55        3.05E-3       155.31        3.033E-3      155.11        0.53251       48.32          
3816.6450     0.13346       -70.15        3.028E-3      153.35        3.069E-3      153.54        0.5301        48.32          
3818.1425     0.12981       -68.58        3.033E-3      151.82        3.017E-3      151.12        0.52767       48.28          
3819.6400     0.12608       -66.85        2.981E-3      149.41        3.035E-3      149.29        0.52516       48.20          
3821.1375     0.12229       -64.86        2.983E-3      147.64        3.003E-3      147.10        0.52284       48.06          
3822.6350     0.11875       -62.68        2.961E-3      145.97        2.979E-3      145.54        0.52054       47.87          
3824.1325     0.11532       -60.34        2.956E-3      143.71        2.971E-3      142.77        0.51838       47.65          
3825.6300     0.11222       -57.81        2.948E-3      142.36        2.942E-3      141.33        0.51642       47.39          
3827.1275     0.10933       -55.10        2.904E-3      140.51        2.932E-3      139.93        0.51472       47.08          
3828.6250     0.10675       -52.40        2.933E-3      138.76        2.913E-3      137.85        0.51326       46.75          
3830.1225     0.10454       -49.55        2.90E-3       136.46        2.895E-3      136.24        0.512         46.40          
3831.6200     0.10272       -46.66        2.859E-3      134.74        2.86E-3       134.09        0.5111        46.02          
3833.1175     0.10128       -43.81        2.801E-3      132.54        2.819E-3      132.16        0.51052       45.63          
3834.6150     0.10007       -40.97        2.751E-3      131.50        2.801E-3      130.91        0.51023       45.24          
3836.1125     0.09933       -38.32        2.738E-3      129.57        2.775E-3      128.44        0.5103        44.86          
3837.6100     0.09895       -35.79        2.691E-3      127.77        2.738E-3      127.30        0.51071       44.48          
3839.1075     0.09878       -33.43        2.689E-3      125.84        2.705E-3      125.51        0.51136       44.12          
3840.6050     0.09895       -31.29        2.647E-3      124.77        2.68E-3       123.66        0.51235       43.79          
3842.1025     0.09943       -29.34        2.621E-3      122.75        2.652E-3      122.11        0.51357       43.49          
3843.6000     0.10019       -27.68        2.569E-3      121.86        2.632E-3      120.01        0.51503       43.22          
3845.0975     0.1012        -26.17        2.566E-3      120.36        2.599E-3      118.90        0.51673       42.99          
3846.5950     0.10249       -24.86        2.533E-3      118.50        2.555E-3      117.86        0.51856       42.80          
3848.0925     0.10384       -23.82        2.497E-3      117.13        2.522E-3      116.06        0.52054       42.65          
3849.5900     0.10556       -22.96        2.463E-3      115.44        2.516E-3      115.02        0.52258       42.56          
3851.0875     0.10752       -22.22        2.434E-3      114.27        2.455E-3      112.75        0.52466       42.51          
3852.5850     0.10952       -21.72        2.416E-3      112.50        2.443E-3      112.36        0.52679       42.50          
3854.0825     0.11177       -21.31        2.398E-3      111.33        2.402E-3      111.23        0.52879       42.55          
3855.5800     0.11432       -21.06        2.365E-3      109.96        2.382E-3      108.83        0.53076       42.63          
3857.0775     0.11716       -20.89        2.348E-3      109.29        2.377E-3      108.50        0.53261       42.75          
3858.5750     0.12006       -20.79        2.326E-3      107.00        2.343E-3      106.75        0.53429       42.91          
3860.0725     0.12326       -20.71        2.296E-3      107.06        2.347E-3      105.95        0.53585       43.09          
3861.5700     0.1266        -20.66        2.286E-3      105.19        2.312E-3      104.14        0.5371        43.31          
3863.0675     0.13015       -20.63        2.26E-3       104.17        2.271E-3      103.01        0.53818       43.55          
3864.5650     0.13373       -20.60        2.219E-3      103.05        2.233E-3      102.69        0.53903       43.80          
3866.0625     0.13744       -20.52        2.242E-3      101.63        2.242E-3      100.67        0.53958       44.07          
3867.5600     0.14134       -20.45        2.234E-3      100.70        2.248E-3      99.60         0.53987       44.35          
3869.0575     0.14525       -20.35        2.204E-3      100.26        2.204E-3      98.46         0.53988       44.62          
3870.5550     0.14927       -20.23        2.187E-3      98.50         2.226E-3      96.97         0.53962       44.90          
3872.0525     0.1533        -20.04        2.177E-3      97.34         2.20E-3       97.06         0.53915       45.16          
3873.5500     0.15729       -19.88        2.158E-3      96.47         2.153E-3      95.70         0.53836       45.41          
3875.0475     0.16135       -19.61        2.124E-3      95.75         2.16E-3       95.57         0.53727       45.64          
3876.5450     0.16521       -19.36        2.14E-3       94.53         2.164E-3      93.70         0.53597       45.85          
3878.0425     0.16901       -19.07        2.111E-3      93.30         2.161E-3      92.96         0.53454       46.03          
3879.5400     0.17278       -18.75        2.114E-3      92.60         2.147E-3      91.90         0.53284       46.16          
3881.0375     0.17641       -18.40        2.125E-3      91.34         2.141E-3      90.98         0.53103       46.27          
3882.5350     0.17988       -18.03        2.114E-3      89.89         2.142E-3      88.63         0.52905       46.34          
3884.0325     0.18313       -17.72        2.106E-3      90.17         2.12E-3       88.88         0.527         46.37          
3885.5300     0.18625       -17.39        2.136E-3      88.75         2.116E-3      87.86         0.52495       46.35          
3887.0275     0.18919       -17.03        2.116E-3      88.25         2.122E-3      87.33         0.5229        46.29          
3888.5250     0.19194       -16.75        2.127E-3      87.29         2.119E-3      85.97         0.52082       46.18          
3890.0225     0.19451       -16.42        2.109E-3      87.01         2.125E-3      84.62         0.51883       46.03          
3891.5200     0.19685       -16.12        2.102E-3      84.96         2.12E-3       84.00         0.517         45.84          
3893.0175     0.19908       -15.88        2.122E-3      84.09         2.122E-3      82.72         0.51531       45.61          
3894.5150     0.20111       -15.69        2.124E-3      83.10         2.142E-3      81.84         0.51383       45.35          
3896.0125     0.20287       -15.53        2.098E-3      82.34         2.137E-3      80.46         0.51255       45.06          
3897.5100     0.20456       -15.44        2.103E-3      80.93         2.133E-3      80.14         0.51161       44.74          
3899.0075     0.20606       -15.42        2.117E-3      79.64         2.127E-3      79.54         0.51082       44.41          
3900.5050     0.20746       -15.45        2.103E-3      78.20         2.143E-3      77.83         0.51041       44.07          
3902.0025     0.20886       -15.57        2.125E-3      77.65         2.136E-3      76.35         0.51024       43.72          
3903.5000     0.21012       -15.75        2.115E-3      76.09         2.176E-3      75.75         0.51043       43.37          
3904.9975     0.2112        -16.00        2.142E-3      75.14         2.147E-3      74.99         0.51087       43.03          
3906.4950     0.21239       -16.27        2.157E-3      73.40         2.155E-3      73.15         0.5116        42.71          
3907.9925     0.21345       -16.69        2.135E-3      72.48         2.162E-3      72.03         0.51265       42.41          
3909.4900     0.21453       -17.12        2.144E-3      71.78         2.162E-3      70.59         0.51393       42.13          
3910.9875     0.21557       -17.61        2.156E-3      70.22         2.149E-3      69.46         0.51542       41.90          
3912.4850     0.2167        -18.20        2.152E-3      68.97         2.166E-3      68.42         0.51708       41.70          
3913.9825     0.21781       -18.80        2.164E-3      67.16         2.164E-3      68.07         0.51898       41.54          
3915.4800     0.21895       -19.45        2.148E-3      66.11         2.174E-3      67.40         0.52093       41.41          
3916.9775     0.22015       -20.16        2.167E-3      65.51         2.17E-3       65.00         0.52298       41.34          
3918.4750     0.22156       -20.85        2.185E-3      64.39         2.148E-3      64.85         0.52501       41.31          
3919.9725     0.22303       -21.54        2.166E-3      62.98         2.16E-3       63.55         0.52704       41.33          
3921.4700     0.22458       -22.24        2.169E-3      60.49         2.202E-3      61.66         0.52909       41.38          
3922.9675     0.2262        -22.94        2.195E-3      60.42         2.172E-3      60.06         0.53097       41.49          
3924.4650     0.22801       -23.64        2.207E-3      59.44         2.208E-3      58.91         0.53278       41.62          
3925.9625     0.22989       -24.30        2.215E-3      57.97         2.224E-3      58.54         0.53438       41.79          
3927.4600     0.23189       -24.99        2.214E-3      56.87         2.236E-3      57.13         0.53583       41.99          
3928.9575     0.234         -25.67        2.256E-3      55.42         2.214E-3      55.87         0.53707       42.23          
3930.4550     0.23608       -26.29        2.249E-3      54.69         2.251E-3      54.86         0.53815       42.48          
3931.9525     0.23828       -26.91        2.279E-3      53.48         2.277E-3      53.50         0.53889       42.76          
3933.4500     0.24049       -27.50        2.333E-3      51.74         2.294E-3      52.14         0.53938       43.04          
3934.9475     0.24272       -28.03        2.301E-3      51.10         2.289E-3      51.34         0.53957       43.33          
3936.4450     0.24471       -28.55        2.314E-3      49.41         2.299E-3      49.50         0.53952       43.62          
3937.9425     0.2466        -29.04        2.345E-3      48.13         2.34E-3       48.48         0.53912       43.92          
3939.4400     0.2484        -29.53        2.354E-3      47.23         2.395E-3      46.61         0.53852       44.20          
3940.9375     0.24997       -30.01        2.406E-3      45.85         2.386E-3      45.39         0.53758       44.46          
3942.4350     0.25131       -30.46        2.365E-3      43.93         2.415E-3      42.26         0.53646       44.70          
3943.9325     0.25241       -30.88        2.43E-3       42.40         2.463E-3      42.07         0.53508       44.92          
3945.4300     0.2531        -31.29        2.461E-3      41.08         2.438E-3      40.98         0.53351       45.12          
3946.9275     0.25347       -31.70        2.466E-3      38.67         2.463E-3      39.51         0.53172       45.28          
3948.4250     0.25349       -32.11        2.462E-3      36.76         2.504E-3      37.02         0.52981       45.41          
3949.9225     0.25308       -32.49        2.476E-3      35.50         2.525E-3      35.07         0.52769       45.49          
3951.4200     0.25234       -32.92        2.529E-3      34.04         2.553E-3      33.56         0.52556       45.53          
3952.9175     0.25112       -33.29        2.528E-3      32.55         2.574E-3      31.48         0.52334       45.54          
3954.4150     0.24953       -33.70        2.527E-3      30.15         2.564E-3      29.39         0.52111       45.49          
3955.9125     0.24746       -34.09        2.55E-3       27.87         2.58E-3       28.03         0.5189        45.40          
3957.4100     0.24509       -34.47        2.565E-3      26.28         2.592E-3      25.81         0.51676       45.26          
3958.9075     0.24222       -34.86        2.542E-3      24.22         2.543E-3      24.18         0.51482       45.09          
3960.4050     0.23907       -35.25        2.539E-3      22.06         2.585E-3      22.22         0.51297       44.88          
3961.9025     0.23563       -35.62        2.56E-3       20.46         2.585E-3      20.08         0.51128       44.62          
3963.4000     0.23191       -35.98        2.575E-3      18.85         2.598E-3      18.69         0.50987       44.33          
3964.8975     0.22804       -36.32        2.546E-3      16.56         2.576E-3      17.13         0.50874       44.02          
3966.3950     0.22388       -36.67        2.541E-3      14.71         2.578E-3      15.25         0.50783       43.70          
3967.8925     0.21956       -36.99        2.556E-3      12.81         2.558E-3      12.96         0.50724       43.36          
3969.3900     0.21531       -37.31        2.56E-3       11.05         2.554E-3      10.94         0.50696       43.00          
3970.8875     0.21079       -37.63        2.498E-3      9.14          2.561E-3      9.40          0.50709       42.65          
3972.3850     0.20632       -37.91        2.507E-3      6.98          2.551E-3      7.07          0.50739       42.30          
3973.8825     0.20191       -38.18        2.541E-3      6.03          2.483E-3      5.80          0.50805       41.97          
3975.3800     0.19754       -38.45        2.582E-3      2.53          2.542E-3      4.94          0.50903       41.66          
3976.8775     0.19321       -38.66        2.501E-3      2.32          2.51E-3       2.09          0.51026       41.38          
3978.3750     0.18893       -38.86        2.46E-3       -0.54         2.498E-3      0.69          0.51175       41.13          
3979.8725     0.18489       -39.02        2.476E-3      -2.11         2.491E-3      -1.34         0.51332       40.92          
3981.3700     0.18086       -39.12        2.469E-3      -3.33         2.495E-3      -3.05         0.51518       40.74          
3982.8675     0.17699       -39.21        2.472E-3      -5.36         2.42E-3       -5.22         0.51713       40.61          
3984.3650     0.17332       -39.21        2.472E-3      -6.11         2.446E-3      -6.27         0.51914       40.52          
3985.8625     0.1699        -39.14        2.426E-3      -7.60         2.431E-3      -8.24         0.5212        40.48          
3987.3600     0.16662       -39.01        2.434E-3      -9.58         2.444E-3      -9.77         0.52331       40.48          
3988.8575     0.1635        -38.79        2.415E-3      -11.21        2.429E-3      -11.78        0.52532       40.53          
3990.3550     0.16059       -38.46        2.416E-3      -12.93        2.396E-3      -13.01        0.52732       40.61          
3991.8525     0.15786       -38.02        2.363E-3      -14.55        2.379E-3      -14.83        0.52911       40.74          
3993.3500     0.1554        -37.48        2.392E-3      -17.16        2.373E-3      -16.20        0.53084       40.90          
3994.8475     0.153         -36.80        2.359E-3      -17.49        2.378E-3      -17.71        0.53228       41.10          
3996.3450     0.15084       -36.03        2.37E-3       -19.70        2.353E-3      -18.74        0.53358       41.33          
3997.8425     0.14901       -35.09        2.336E-3      -21.42        2.331E-3      -21.04        0.53464       41.58          
3999.3400     0.14739       -34.04        2.314E-3      -22.88        2.369E-3      -23.10        0.53546       41.85          
4000.8375     0.14593       -32.87        2.312E-3      -24.37        2.327E-3      -23.98        0.53601       42.12          
4002.3350     0.14473       -31.55        2.28E-3       -25.56        2.317E-3      -25.71        0.53625       42.42          
4003.8325     0.14376       -30.13        2.226E-3      -27.44        2.277E-3      -26.74        0.53619       42.72          
4005.3300     0.14299       -28.63        2.228E-3      -28.77        2.251E-3      -28.20        0.53596       43.02          
4006.8275     0.14237       -27.08        2.225E-3      -30.06        2.208E-3      -30.01        0.53542       43.30          
4008.3250     0.14201       -25.38        2.208E-3      -31.62        2.208E-3      -30.84        0.53456       43.58          
4009.8225     0.14186       -23.69        2.184E-3      -33.02        2.194E-3      -32.55        0.53346       43.84          
4011.3200     0.14196       -21.98        2.175E-3      -34.45        2.186E-3      -34.23        0.53211       44.08          
4012.8175     0.14212       -20.21        2.134E-3      -35.98        2.189E-3      -34.97        0.53052       44.29          
4014.3150     0.14252       -18.41        2.125E-3      -37.40        2.14E-3       -36.67        0.52874       44.48          
4015.8125     0.14303       -16.64        2.077E-3      -37.95        2.123E-3      -38.08        0.52681       44.63          
4017.3100     0.14367       -14.87        2.096E-3      -39.41        2.105E-3      -38.88        0.52472       44.74          
4018.8075     0.14439       -13.09        2.069E-3      -40.59        2.05E-3       -40.01        0.52262       44.80          
4020.3050     0.14515       -11.33        2.068E-3      -41.63        2.088E-3      -41.44        0.52038       44.83          
4021.8025     0.14599       -9.62         2.082E-3      -43.23        2.047E-3      -41.68        0.5181        44.82          
4023.3000     0.1469        -7.95         2.053E-3      -44.14        2.028E-3      -44.60        0.51582       44.76          
4024.7975     0.1478        -6.35         2.037E-3      -44.75        2.037E-3      -45.10        0.51362       44.65          
4026.2950     0.1488        -4.79         2.038E-3      -45.97        1.988E-3      -45.38        0.51147       44.51          
4027.7925     0.14984       -3.32         2.018E-3      -46.74        2.02E-3       -47.30        0.50945       44.33          
4029.2900     0.1508        -1.85         2.03E-3       -48.37        2.00E-3       -47.97        0.5076        44.10          
4030.7875     0.15176       -0.48         2.008E-3      -48.91        2.02E-3       -49.19        0.5059        43.84          
4032.2850     0.1528        0.82          2.025E-3      -50.88        1.996E-3      -50.37        0.50441       43.55          
4033.7825     0.15382       2.05          2.003E-3      -51.28        2.003E-3      -50.91        0.50321       43.24          
4035.2800     0.15489       3.23          2.027E-3      -52.73        2.00E-3       -52.97        0.5023        42.90          
4036.7775     0.15592       4.32          2.026E-3      -54.30        1.977E-3      -53.11        0.50163       42.55          
4038.2750     0.15702       5.31          2.023E-3      -54.52        1.924E-3      -53.52        0.50125       42.19          
4039.7725     0.15813       6.23          1.991E-3      -55.45        2.004E-3      -55.58        0.50109       41.83          
4041.2700     0.15934       7.06          2.053E-3      -58.82        2.016E-3      -55.95        0.50127       41.48          
4042.7675     0.16063       7.82          1.985E-3      -58.39        1.936E-3      -58.65        0.50172       41.13          
4044.2650     0.16201       8.49          2.003E-3      -59.68        1.943E-3      -58.99        0.50244       40.80          
4045.7625     0.16352       9.07          2.011E-3      -60.99        1.98E-3       -60.99        0.5034        40.49          
4047.2600     0.16511       9.55          1.962E-3      -61.99        1.999E-3      -61.42        0.50459       40.21          
4048.7575     0.16678       9.95          2.024E-3      -64.10        1.99E-3       -62.97        0.50591       39.96          
4050.2550     0.16863       10.31         2.025E-3      -65.02        1.982E-3      -63.95        0.50748       39.74          
4051.7525     0.17065       10.57         1.987E-3      -65.92        1.967E-3      -64.83        0.50916       39.55          
4053.2500     0.17283       10.73         1.991E-3      -66.98        1.99E-3       -66.03        0.51088       39.41          
4054.7475     0.17513       10.85         1.992E-3      -68.76        1.978E-3      -67.09        0.51271       39.30          
4056.2450     0.17757       10.92         1.965E-3      -69.59        1.946E-3      -68.38        0.5145        39.23          
4057.7425     0.18025       10.92         1.969E-3      -70.04        1.96E-3       -70.22        0.51637       39.20          
4059.2400     0.18309       10.92         1.969E-3      -72.17        1.971E-3      -70.40        0.51817       39.21          
4060.7375     0.18616       10.89         1.962E-3      -72.51        1.926E-3      -72.25        0.51984       39.25          
4062.2350     0.18918       10.85         1.978E-3      -74.11        1.932E-3      -74.01        0.52147       39.32          
4063.7325     0.19255       10.80         1.984E-3      -75.38        1.953E-3      -74.81        0.52294       39.43          
4065.2300     0.19597       10.75         1.961E-3      -76.18        1.94E-3       -75.11        0.52428       39.56          
4066.7275     0.19952       10.68         1.963E-3      -77.01        1.936E-3      -76.59        0.52549       39.71          
4068.2250     0.20308       10.64         1.965E-3      -77.97        1.937E-3      -77.35        0.52648       39.89          
4069.7225     0.20681       10.62         1.949E-3      -79.27        1.956E-3      -78.62        0.52731       40.08          
4071.2200     0.21057       10.61         1.964E-3      -80.01        1.93E-3       -79.79        0.52786       40.28          
4072.7175     0.21443       10.58         1.981E-3      -80.56        1.968E-3      -80.33        0.52824       40.48          
4074.2150     0.21835       10.62         2.002E-3      -82.78        1.951E-3      -82.45        0.52837       40.70          
4075.7125     0.22207       10.66         2.005E-3      -83.68        1.964E-3      -83.60        0.52838       40.91          
4077.2100     0.22587       10.72         1.999E-3      -84.61        1.97E-3       -84.58        0.52816       41.12          
4078.7075     0.22958       10.78         2.023E-3      -86.21        2.011E-3      -85.46        0.5277        41.32          
4080.2050     0.23319       10.89         2.021E-3      -87.25        1.997E-3      -86.83        0.52708       41.50          
4081.7025     0.23662       10.98         2.033E-3      -88.05        1.991E-3      -88.05        0.52632       41.67          
4083.2000     0.23996       11.09         2.039E-3      -89.12        2.025E-3      -89.69        0.52546       41.81          
4084.6975     0.243         11.18         2.081E-3      -89.81        2.014E-3      -89.66        0.52436       41.94          
4086.1950     0.24606       11.29         2.097E-3      -91.50        2.033E-3      -92.25        0.52322       42.05          
4087.6925     0.24875       11.34         2.101E-3      -93.78        2.049E-3      -93.67        0.52198       42.13          
4089.1900     0.25119       11.42         2.113E-3      -93.60        2.047E-3      -95.01        0.52065       42.18          
4090.6875     0.25334       11.48         2.137E-3      -95.57        2.116E-3      -96.20        0.51934       42.20          
4092.1850     0.25527       11.51         2.136E-3      -97.85        2.099E-3      -97.38        0.51798       42.20          
4093.6825     0.25682       11.49         2.14E-3       -99.99        2.145E-3      -98.41        0.51667       42.16          
4095.1800     0.25807       11.43         2.145E-3      -101.96       2.131E-3      -101.03       0.51544       42.10          
4096.6775     0.2589        11.33         2.143E-3      -102.72       2.125E-3      -102.09       0.51426       42.01          
4098.1750     0.25938       11.19         2.157E-3      -104.11       2.133E-3      -104.32       0.51318       41.91          
4099.6725     0.25964       11.00         2.154E-3      -105.87       2.158E-3      -104.90       0.5122        41.78          
4101.1700     0.25956       10.77         2.16E-3       -108.06       2.141E-3      -107.78       0.51143       41.62          
4102.6675     0.25914       10.49         2.182E-3      -109.75       2.15E-3       -108.47       0.51077       41.46          
4104.1650     0.25847       10.14         2.163E-3      -111.58       2.203E-3      -109.92       0.5103        41.29          
4105.6625     0.25747       9.74          2.183E-3      -112.97       2.161E-3      -111.74       0.50997       41.11          
4107.1600     0.2564        9.29          2.19E-3       -114.41       2.152E-3      -113.44       0.5099        40.92          
4108.6575     0.25502       8.79          2.18E-3       -115.83       2.161E-3      -115.43       0.50995       40.74          
4110.1550     0.25357       8.27          2.145E-3      -117.06       2.167E-3      -117.06       0.51024       40.56          
4111.6525     0.25198       7.68          2.163E-3      -119.30       2.202E-3      -118.63       0.51067       40.38          
4113.1500     0.25034       7.05          2.163E-3      -120.54       2.165E-3      -122.09       0.51128       40.23          
4114.6475     0.24862       6.41          2.16E-3       -122.15       2.176E-3      -121.79       0.51196       40.09          
4116.1450     0.24686       5.72          2.152E-3      -123.98       2.189E-3      -124.22       0.51281       39.97          
4117.6425     0.24518       5.02          2.176E-3      -125.54       2.174E-3      -125.02       0.51379       39.87          
4119.1400     0.24356       4.31          2.165E-3      -126.66       2.153E-3      -125.95       0.51486       39.79          
4120.6375     0.242         3.62          2.153E-3      -128.70       2.167E-3      -127.47       0.51599       39.74          
4122.1350     0.24051       2.91          2.125E-3      -129.68       2.184E-3      -129.10       0.5171        39.71          
4123.6325     0.23903       2.23          2.163E-3      -130.59       2.175E-3      -130.63       0.51823       39.72          
4125.1300     0.23766       1.58          2.16E-3       -133.19       2.178E-3      -132.26       0.51941       39.75          
4126.6275     0.23641       0.95          2.159E-3      -134.80       2.165E-3      -134.16       0.52051       39.80          
4128.1250     0.2351        0.37          2.152E-3      -135.73       2.178E-3      -135.64       0.52159       39.89          
4129.6225     0.23394       -0.14         2.163E-3      -137.78       2.157E-3      -136.81       0.52252       39.99          
4131.1200     0.2327        -0.60         2.17E-3       -139.26       2.179E-3      -139.45       0.5234        40.12          
4132.6175     0.23149       -0.95         2.16E-3       -140.96       2.173E-3      -140.85       0.52414       40.27          
4134.1150     0.23014       -1.26         2.149E-3      -142.45       2.159E-3      -142.55       0.5247        40.43          
4135.6125     0.22868       -1.44         2.15E-3       -144.05       2.152E-3      -144.11       0.52513       40.61          
4137.1100     0.22726       -1.55         2.176E-3      -145.68       2.163E-3      -146.27       0.52536       40.79          
4138.6075     0.22566       -1.56         2.158E-3      -147.03       2.137E-3      -147.81       0.52543       40.99          
4140.1050     0.22379       -1.45         2.126E-3      -148.56       2.166E-3      -149.43       0.52529       41.19          
4141.6025     0.2219        -1.26         2.145E-3      -150.81       2.12E-3       -151.37       0.52502       41.38          
4143.1000     0.21978       -0.94         2.128E-3      -152.47       2.107E-3      -152.70       0.52462       41.58          
4144.5975     0.21758       -0.52         2.125E-3      -153.68       2.077E-3      -154.47       0.52396       41.77          
4146.0950     0.21513       0.03          2.112E-3      -155.51       2.092E-3      -155.04       0.52315       41.94          
4147.5925     0.21261       0.62          2.095E-3      -157.18       2.10E-3       -157.14       0.52223       42.11          
4149.0900     0.20981       1.36          2.095E-3      -158.33       2.072E-3      -157.83       0.52107       42.26          
4150.5875     0.20689       2.17          2.082E-3      -159.90       2.033E-3      -160.02       0.51981       42.39          
4152.0850     0.20391       3.06          2.065E-3      -161.87       2.031E-3      -161.89       0.51845       42.49          
4153.5825     0.20084       4.01          2.065E-3      -162.45       2.032E-3      -163.39       0.51703       42.57          
4155.0800     0.19759       5.05          2.04E-3       -164.38       2.021E-3      -163.85       0.51553       42.63          
4156.5775     0.19422       6.11          2.00E-3       -165.92       2.018E-3      -166.05       0.5139        42.67          
4158.0750     0.19089       7.24          1.994E-3      -166.90       2.005E-3      -167.04       0.51235       42.66          
4159.5725     0.18748       8.40          1.982E-3      -168.09       2.007E-3      -167.92       0.51076       42.63          
4161.0700     0.18408       9.57          1.986E-3      -169.28       1.94E-3       -168.78       0.50929       42.57          
4162.5675     0.18061       10.77         1.944E-3      -171.03       1.976E-3      -169.65       0.50774       42.49          
4164.0650     0.17714       11.91         1.969E-3      -171.43       1.948E-3      -172.17       0.50631       42.38          
4165.5625     0.17366       13.11         1.965E-3      -172.56       1.955E-3      -171.84       0.50499       42.24          
4167.0600     0.17026       14.27         1.955E-3      -174.55       1.953E-3      -174.73       0.50385       42.08          
4168.5575     0.16687       15.39         1.945E-3      -175.47       1.938E-3      -175.46       0.50276       41.89          
4170.0550     0.16351       16.50         1.957E-3      -176.88       1.933E-3      -175.96       0.5019        41.69          
4171.5525     0.16025       17.57         1.941E-3      -177.40       1.937E-3      -176.82       0.50114       41.48          
4173.0500     0.15707       18.58         1.949E-3      -178.47       1.936E-3      -178.09       0.50065       41.25          
4174.5475     0.15405       19.56         1.932E-3      179.98        1.964E-3      -179.23       0.50027       41.01          
4176.0450     0.15116       20.52         1.955E-3      179.39        1.925E-3      179.06        0.50006       40.78          
4177.5425     0.14845       21.39         1.935E-3      177.00        1.957E-3      178.22        0.50009       40.55          
4179.0400     0.14591       22.22         1.952E-3      175.57        1.948E-3      176.08        0.50027       40.31          
4180.5375     0.14365       23.08         1.954E-3      175.03        1.936E-3      176.12        0.50065       40.09          
4182.0350     0.14162       23.90         1.92E-3       173.10        1.947E-3      174.23        0.5012        39.89          
4183.5325     0.13991       24.67         1.932E-3      171.84        1.939E-3      171.98        0.50189       39.69          
4185.0300     0.13852       25.47         1.957E-3      170.28        1.943E-3      171.06        0.50271       39.51          
4186.5275     0.13742       26.24         1.94E-3       168.88        1.978E-3      170.09        0.50361       39.36          
4188.0250     0.13677       27.01         1.908E-3      167.26        1.976E-3      167.53        0.50464       39.23          
4189.5225     0.13649       27.80         1.911E-3      166.44        1.918E-3      166.31        0.50574       39.12          
4191.0200     0.1365        28.60         1.909E-3      164.08        1.913E-3      164.75        0.50689       39.05          
4192.5175     0.1369        29.46         1.896E-3      163.50        1.934E-3      162.01        0.50801       38.99          
4194.0150     0.13767       30.34         1.887E-3      162.07        1.912E-3      161.71        0.50916       38.97          
4195.5125     0.13885       31.25         1.928E-3      160.59        1.925E-3      160.32        0.5103        38.97          
4197.0100     0.14027       32.18         1.867E-3      159.21        1.895E-3      158.44        0.51139       39.00          
4198.5075     0.14202       33.13         1.877E-3      157.44        1.876E-3      156.94        0.51237       39.05          
4200.0050     0.14412       34.15         1.875E-3      156.59        1.863E-3      156.86        0.51333       39.13          
4201.5025     0.14642       35.20         1.879E-3      155.46        1.863E-3      155.31        0.51416       39.22          
4203.0000     0.14894       36.27         1.838E-3      153.35        1.829E-3      153.53        0.51491       39.33          
4204.4975     0.15165       37.45         1.868E-3      152.97        1.836E-3      153.10        0.51553       39.46          
4205.9950     0.15455       38.58         1.865E-3      151.62        1.851E-3      151.15        0.51601       39.61          
4207.4925     0.15748       39.79         1.851E-3      150.55        1.839E-3      150.03        0.51634       39.77          
4208.9900     0.16048       41.00         1.806E-3      149.71        1.812E-3      148.73        0.51651       39.94          
4210.4875     0.16349       42.26         1.811E-3      147.86        1.809E-3      149.30        0.51652       40.11          
4211.9850     0.16656       43.55         1.808E-3      146.73        1.803E-3      147.27        0.51636       40.28          
4213.4825     0.16965       44.88         1.805E-3      146.60        1.835E-3      145.80        0.51605       40.45          
4214.9800     0.17253       46.20         1.822E-3      144.71        1.814E-3      145.16        0.51567       40.61          
4216.4775     0.17543       47.56         1.822E-3      142.92        1.816E-3      144.30        0.51506       40.77          
4217.9750     0.17817       48.92         1.828E-3      142.46        1.819E-3      142.82        0.51434       40.93          
4219.4725     0.18081       50.29         1.82E-3       141.11        1.794E-3      142.29        0.51354       41.06          
4220.9700     0.18334       51.64         1.838E-3      139.75        1.803E-3      140.02        0.51265       41.18          
4222.4675     0.18572       52.97         1.818E-3      138.82        1.804E-3      137.04        0.51167       41.28          
4223.9650     0.18794       54.30         1.828E-3      137.21        1.806E-3      137.12        0.51058       41.36          
4225.4625     0.19003       55.56         1.839E-3      136.46        1.836E-3      136.07        0.50945       41.43          
4226.9600     0.19193       56.79         1.852E-3      135.04        1.83E-3       134.66        0.50827       41.46          
4228.4575     0.19364       57.95         1.827E-3      134.51        1.84E-3       133.93        0.50711       41.47          
4229.9550     0.1952        59.05         1.842E-3      131.85        1.823E-3      132.82        0.50589       41.46          
4231.4525     0.19668       60.08         1.869E-3      131.03        1.859E-3      130.71        0.50465       41.42          
4232.9500     0.19785       61.01         1.878E-3      129.78        1.843E-3      129.77        0.50352       41.37          
4234.4475     0.19895       61.85         1.873E-3      128.14        1.869E-3      129.29        0.50244       41.29          
4235.9450     0.1999        62.57         1.858E-3      127.07        1.884E-3      126.81        0.50144       41.18          
4237.4425     0.20063       63.18         1.869E-3      125.37        1.893E-3      124.97        0.50046       41.06          
4238.9400     0.20126       63.68         1.893E-3      123.40        1.864E-3      124.53        0.49961       40.92          
4240.4375     0.20185       64.05         1.887E-3      122.03        1.887E-3      122.27        0.49885       40.76          
4241.9350     0.20221       64.30         1.874E-3      120.81        1.896E-3      121.00        0.49823       40.59          
4243.4325     0.20267       64.44         1.912E-3      119.16        1.903E-3      119.93        0.4977        40.40          
4244.9300     0.203         64.42         1.875E-3      117.44        1.903E-3      117.79        0.49734       40.21          
4246.4275     0.20348       64.33         1.897E-3      117.11        1.908E-3      117.18        0.49713       40.02          
4247.9250     0.2039        64.11         1.878E-3      114.94        1.92E-3       115.90        0.49708       39.82          
4249.4225     0.20441       63.79         1.882E-3      114.58        1.897E-3      113.81        0.49715       39.62          
4250.9200     0.20508       63.38         1.888E-3      111.27        1.907E-3      112.11        0.49735       39.42          
4252.4175     0.20597       62.89         1.863E-3      111.81        1.90E-3       110.92        0.49768       39.24          
4253.9150     0.20695       62.35         1.864E-3      109.76        1.909E-3      109.66        0.49824       39.06          
4255.4125     0.20811       61.78         1.893E-3      108.58        1.867E-3      108.75        0.49878       38.90          
4256.9100     0.20955       61.18         1.891E-3      107.19        1.901E-3      107.16        0.49949       38.76          
4258.4075     0.21125       60.57         1.896E-3      105.41        1.918E-3      105.67        0.50026       38.64          
4259.9050     0.2131        59.97         1.876E-3      104.24        1.897E-3      104.88        0.5012        38.52          
4261.4025     0.21513       59.42         1.898E-3      103.40        1.876E-3      102.95        0.50211       38.44          
4262.9000     0.21735       58.90         1.909E-3      100.99        1.917E-3      102.51        0.50309       38.38          
4264.3975     0.21979       58.43         1.907E-3      100.10        1.884E-3      101.05        0.50412       38.34          
4265.8950     0.22228       58.03         1.878E-3      99.01         1.867E-3      99.20         0.50507       38.33          
4267.3925     0.22487       57.67         1.928E-3      97.90         1.934E-3      96.86         0.50612       38.33          
4268.8900     0.22744       57.41         1.932E-3      96.48         1.934E-3      96.98         0.50706       38.37          
4270.3875     0.22994       57.22         1.943E-3      94.49         1.92E-3       95.07         0.50802       38.43          
4271.8850     0.23229       57.12         1.952E-3      93.39         1.926E-3      93.41         0.50888       38.51          
4273.3825     0.23455       57.08         1.944E-3      92.59         1.947E-3      91.93         0.50969       38.61          
4274.8800     0.23651       57.13         1.941E-3      89.79         1.94E-3       90.72         0.51033       38.72          
4276.3775     0.23817       57.24         1.942E-3      88.42         1.956E-3      88.33         0.51096       38.85          
4277.8750     0.23944       57.42         1.959E-3      87.28         1.966E-3      86.27         0.5114        38.99          
4279.3725     0.24026       57.67         1.938E-3      85.59         1.939E-3      84.67         0.5118        39.15          
4280.8700     0.24067       57.97         1.938E-3      84.55         1.947E-3      84.33         0.512         39.31          
4282.3675     0.2406        58.32         1.959E-3      81.87         1.935E-3      82.64         0.51213       39.48          
4283.8650     0.23992       58.72         2.013E-3      80.59         1.982E-3      79.75         0.51217       39.65          
4285.3625     0.23877       59.16         1.984E-3      79.17         1.97E-3       78.43         0.51198       39.82          
4286.8600     0.23705       59.67         1.962E-3      77.46         1.964E-3      77.85         0.51173       39.98          
4288.3575     0.23483       60.21         1.948E-3      75.72         1.959E-3      76.28         0.5113        40.14          
4289.8550     0.23211       60.77         1.959E-3      73.39         1.977E-3      74.36         0.51076       40.29          
4291.3525     0.22886       61.36         1.963E-3      72.09         1.994E-3      72.63         0.51017       40.43          
4292.8500     0.22524       61.96         1.95E-3       70.86         1.944E-3      71.55         0.50934       40.56          
4294.3475     0.22112       62.61         1.965E-3      69.44         1.936E-3      70.76         0.50853       40.67          
4295.8450     0.21679       63.24         1.928E-3      66.98         1.909E-3      68.67         0.50758       40.76          
4297.3425     0.21207       63.89         1.959E-3      66.21         1.928E-3      67.79         0.50652       40.83          
4298.8400     0.20722       64.53         1.937E-3      64.79         1.964E-3      65.51         0.50544       40.88          
4300.3375     0.20221       65.15         1.909E-3      63.74         1.931E-3      64.91         0.50438       40.91          
4301.8350     0.19708       65.74         1.951E-3      61.59         1.924E-3      62.74         0.50316       40.91          
4303.3325     0.19204       66.33         1.894E-3      60.50         1.911E-3      61.99         0.50207       40.89          
4304.8300     0.18689       66.85         1.908E-3      59.50         1.929E-3      60.26         0.50093       40.85          
4306.3275     0.18196       67.34         1.914E-3      58.73         1.874E-3      58.36         0.49981       40.77          
4307.8250     0.17718       67.78         1.898E-3      56.66         1.901E-3      59.22         0.49877       40.68          
4309.3225     0.17252       68.16         1.915E-3      54.99         1.859E-3      55.58         0.49787       40.56          
4310.8200     0.16821       68.49         1.926E-3      53.99         1.862E-3      55.59         0.49694       40.42          
4312.3175     0.16414       68.75         1.898E-3      52.77         1.857E-3      53.16         0.49615       40.27          
4313.8150     0.16042       68.97         1.91E-3       51.21         1.91E-3       52.83         0.49555       40.09          
4315.3125     0.15705       69.14         1.911E-3      50.09         1.925E-3      50.88         0.49507       39.91          
4316.8100     0.15404       69.28         1.901E-3      49.33         1.893E-3      49.20         0.49469       39.72          
4318.3075     0.1514        69.45         1.899E-3      47.57         1.877E-3      47.66         0.49443       39.52          
4319.8050     0.14919       69.60         1.91E-3       45.42         1.86E-3       45.55         0.49439       39.33          
4321.3025     0.14734       69.82         1.911E-3      44.41         1.909E-3      44.62         0.49447       39.12          
4322.8000     0.14595       70.06         1.909E-3      43.05         1.855E-3      43.20         0.49471       38.93          
4324.2975     0.14488       70.44         1.92E-3       41.64         1.892E-3      40.67         0.49511       38.75          
4325.7950     0.14418       70.90         1.918E-3      40.89         1.903E-3      39.01         0.49571       38.57          
4327.2925     0.14387       71.48         1.898E-3      38.06         1.843E-3      38.30         0.49641       38.42          
4328.7900     0.1439        72.22         1.914E-3      36.61         1.832E-3      36.03         0.49718       38.28          
4330.2875     0.14417       73.13         1.883E-3      35.51         1.849E-3      34.61         0.49815       38.17          
4331.7850     0.14478       74.18         1.887E-3      33.59         1.829E-3      34.64         0.49921       38.07          
4333.2825     0.14567       75.40         1.903E-3      31.45         1.857E-3      33.49         0.50031       38.01          
4334.7800     0.14674       76.75         1.873E-3      30.78         1.859E-3      30.88         0.50149       37.98          
4336.2775     0.14806       78.28         1.887E-3      29.07         1.85E-3       28.01         0.50265       37.97          
4337.7750     0.14954       79.93         1.855E-3      27.68         1.845E-3      28.19         0.50389       37.99          
4339.2725     0.15126       81.70         1.866E-3      26.25         1.796E-3      26.23         0.50511       38.04          
4340.7700     0.153         83.61         1.855E-3      25.17         1.808E-3      25.84         0.5063        38.11          
4342.2675     0.15495       85.58         1.838E-3      23.82         1.754E-3      24.40         0.50747       38.21          
4343.7650     0.15691       87.66         1.795E-3      22.42         1.794E-3      23.29         0.50857       38.34          
4345.2625     0.15894       89.78         1.813E-3      20.80         1.778E-3      22.28         0.50957       38.49          
4346.7600     0.16092       91.93         1.824E-3      19.11         1.787E-3      20.36         0.51048       38.65          
4348.2575     0.16295       94.10         1.814E-3      17.37         1.762E-3      19.92         0.51122       38.83          
4349.7550     0.16488       96.31         1.809E-3      17.21         1.778E-3      16.63         0.51186       39.03          
4351.2525     0.16672       98.51         1.801E-3      14.86         1.771E-3      17.05         0.51227       39.24          
4352.7500     0.16852       100.69        1.785E-3      14.35         1.741E-3      16.25         0.51259       39.45          
4354.2475     0.17015       102.86        1.81E-3       12.83         1.751E-3      14.81         0.51264       39.68          
4355.7450     0.17171       105.01        1.776E-3      12.47         1.791E-3      11.32         0.51256       39.91          
4357.2425     0.17311       107.12        1.783E-3      11.74         1.742E-3      11.56         0.51233       40.13          
4358.7400     0.17436       109.20        1.799E-3      10.58         1.718E-3      9.60          0.51187       40.33          
4360.2375     0.17542       111.20        1.797E-3      7.30          1.745E-3      9.20          0.51124       40.54          
4361.7350     0.17638       113.16        1.782E-3      6.49          1.79E-3       7.03          0.5104        40.73          
4363.2325     0.17723       115.04        1.809E-3      6.08          1.739E-3      5.81          0.5095        40.91          
4364.7300     0.17795       116.86        1.799E-3      5.13          1.758E-3      5.45          0.5084        41.06          
4366.2275     0.17854       118.56        1.794E-3      3.61          1.791E-3      3.87          0.50714       41.19          
4367.7250     0.17908       120.19        1.794E-3      2.04          1.788E-3      2.27          0.50576       41.30          
4369.2225     0.17965       121.69        1.793E-3      0.03          1.747E-3      0.63          0.50433       41.37          
4370.7200     0.18015       123.09        1.804E-3      -1.42         1.771E-3      -0.79         0.50281       41.42          
4372.2175     0.18063       124.34        1.808E-3      -2.91         1.775E-3      -2.20         0.50129       41.43          
4373.7150     0.18117       125.47        1.794E-3      -4.17         1.788E-3      -3.40         0.49966       41.41          
4375.2125     0.18173       126.43        1.817E-3      -6.43         1.792E-3      -5.78         0.4981        41.36          
4376.7100     0.18242       127.24        1.823E-3      -7.33         1.777E-3      -7.40         0.49655       41.27          
4378.2075     0.18322       127.91        1.803E-3      -8.09         1.781E-3      -8.64         0.49513       41.15          
4379.7050     0.18414       128.43        1.803E-3      -9.93         1.823E-3      -10.46        0.49373       41.01          
4381.2025     0.1853        128.81        1.791E-3      -12.07        1.83E-3       -11.56        0.49242       40.84          
4382.7000     0.18672       129.02        1.812E-3      -13.47        1.777E-3      -13.62        0.49129       40.64          
4384.1975     0.18838       129.13        1.816E-3      -14.75        1.779E-3      -13.92        0.49027       40.43          
4385.6950     0.19033       129.13        1.828E-3      -15.06        1.805E-3      -16.71        0.48948       40.19          
4387.1925     0.19259       129.04        1.825E-3      -17.38        1.801E-3      -17.42        0.48894       39.94          
4388.6900     0.1951        128.84        1.793E-3      -18.26        1.753E-3      -18.86        0.48856       39.69          
4390.1875     0.19794       128.63        1.778E-3      -20.43        1.78E-3       -20.45        0.48842       39.43          
4391.6850     0.20121       128.35        1.797E-3      -21.86        1.756E-3      -20.68        0.48848       39.17          
4393.1825     0.2048        128.09        1.804E-3      -22.77        1.733E-3      -22.77        0.4888        38.92          
4394.6800     0.20863       127.83        1.772E-3      -23.53        1.75E-3       -24.22        0.48939       38.68          
4396.1775     0.21283       127.60        1.817E-3      -25.54        1.728E-3      -25.05        0.49013       38.46          
4397.6750     0.21728       127.41        1.78E-3       -26.17        1.78E-3       -26.33        0.49105       38.26          
4399.1725     0.22195       127.27        1.811E-3      -27.84        1.746E-3      -27.61        0.49215       38.09          
4400.6700     0.22691       127.19        1.774E-3      -28.03        1.721E-3      -30.61        0.49345       37.94          
4402.1675     0.23187       127.21        1.782E-3      -28.76        1.774E-3      -30.80        0.49489       37.83          
4403.6650     0.23705       127.28        1.796E-3      -31.30        1.693E-3      -31.63        0.4964        37.75          
4405.1625     0.24225       127.42        1.779E-3      -32.93        1.705E-3      -32.54        0.498         37.70          
4406.6600     0.24754       127.66        1.767E-3      -33.38        1.71E-3       -33.72        0.49967       37.70          
4408.1575     0.25268       127.95        1.76E-3       -34.48        1.731E-3      -34.33        0.50135       37.72          
4409.6550     0.25772       128.30        1.767E-3      -36.31        1.724E-3      -35.71        0.50297       37.78          
4411.1525     0.26261       128.72        1.776E-3      -37.55        1.746E-3      -37.51        0.50448       37.88          
4412.6500     0.26726       129.17        1.783E-3      -39.13        1.776E-3      -38.48        0.50596       38.01          
4414.1475     0.27169       129.64        1.829E-3      -39.56        1.737E-3      -40.73        0.50739       38.17          
4415.6450     0.27591       130.14        1.802E-3      -41.46        1.725E-3      -41.83        0.50855       38.36          
4417.1425     0.27966       130.66        1.786E-3      -42.83        1.797E-3      -42.79        0.50961       38.59          
4418.6400     0.28314       131.19        1.796E-3      -44.04        1.765E-3      -44.97        0.51049       38.81          
4420.1375     0.28612       131.71        1.784E-3      -45.94        1.805E-3      -48.14        0.51112       39.06          
4421.6350     0.28871       132.22        1.798E-3      -47.50        1.765E-3      -47.57        0.51159       39.33          
4423.1325     0.2908        132.72        1.797E-3      -49.67        1.78E-3       -48.89        0.51179       39.60          
4424.6300     0.29252       133.20        1.824E-3      -51.19        1.83E-3       -52.02        0.51179       39.88          
4426.1275     0.29368       133.65        1.816E-3      -53.48        1.842E-3      -52.58        0.51154       40.15          
4427.6250     0.29428       134.08        1.808E-3      -54.73        1.816E-3      -54.15        0.51102       40.42          
4429.1225     0.29436       134.48        1.802E-3      -55.40        1.818E-3      -56.34        0.5103        40.68          
4430.6200     0.29399       134.83        1.812E-3      -57.45        1.827E-3      -57.15        0.50928       40.91          
4432.1175     0.29315       135.16        1.734E-3      -58.75        1.813E-3      -59.39        0.50806       41.14          
4433.6150     0.29183       135.42        1.79E-3       -60.81        1.814E-3      -60.78        0.50667       41.32          
4435.1125     0.29022       135.64        1.793E-3      -62.80        1.795E-3      -62.52        0.50509       41.49          
4436.6100     0.28826       135.83        1.803E-3      -63.68        1.789E-3      -64.89        0.50334       41.62          
4438.1075     0.28597       135.96        1.821E-3      -65.36        1.843E-3      -65.64        0.50142       41.71          
4439.6050     0.2836        136.07        1.784E-3      -67.56        1.791E-3      -67.23        0.49939       41.77          
4441.1025     0.28095       136.13        1.786E-3      -68.51        1.78E-3       -68.25        0.49731       41.78          
4442.6000     0.27833       136.15        1.746E-3      -69.94        1.816E-3      -71.68        0.49514       41.76          
4444.0975     0.27573       136.13        1.795E-3      -71.55        1.791E-3      -72.98        0.49298       41.69          
4445.5950     0.27322       136.07        1.756E-3      -73.67        1.791E-3      -73.09        0.49085       41.58          
4447.0925     0.27102       136.01        1.75E-3       -73.82        1.81E-3       -74.40        0.48877       41.42          
4448.5900     0.2689        135.89        1.757E-3      -75.97        1.77E-3       -77.60        0.48683       41.21          
4450.0875     0.26708       135.78        1.73E-3       -78.13        1.773E-3      -78.71        0.48506       40.98          
4451.5850     0.26555       135.64        1.762E-3      -79.83        1.808E-3      -77.77        0.48348       40.70          
4453.0825     0.26435       135.52        1.77E-3       -80.79        1.741E-3      -81.05        0.48216       40.39          
4454.5800     0.26363       135.40        1.745E-3      -82.78        1.747E-3      -83.48        0.48109       40.06          
4456.0775     0.26322       135.32        1.738E-3      -84.06        1.718E-3      -84.51        0.48027       39.70          
4457.5750     0.26314       135.25        1.757E-3      -86.03        1.738E-3      -85.42        0.47985       39.33          
4459.0725     0.26341       135.21        1.739E-3      -86.25        1.726E-3      -86.22        0.47969       38.95          
4460.5700     0.26398       135.23        1.745E-3      -87.56        1.672E-3      -88.08        0.47991       38.57          
4462.0675     0.26485       135.33        1.726E-3      -90.65        1.718E-3      -90.31        0.48043       38.21          
4463.5650     0.26592       135.48        1.724E-3      -91.63        1.717E-3      -91.48        0.48128       37.85          
4465.0625     0.26726       135.71        1.716E-3      -93.04        1.728E-3      -93.61        0.4825        37.52          
4466.5600     0.26871       136.01        1.748E-3      -94.20        1.705E-3      -94.27        0.48396       37.21          
4468.0575     0.27026       136.39        1.706E-3      -96.30        1.67E-3       -96.38        0.48573       36.93          
4469.5550     0.27191       136.84        1.685E-3      -98.32        1.657E-3      -98.07        0.4877        36.71          
4471.0525     0.27358       137.39        1.687E-3      -100.47       1.627E-3      -101.19       0.48985       36.51          
4472.5500     0.27527       137.99        1.666E-3      -100.41       1.684E-3      -100.88       0.49222       36.37          
4474.0475     0.27698       138.69        1.70E-3       -103.11       1.642E-3      -101.86       0.49462       36.27          
4475.5450     0.27869       139.43        1.651E-3      -104.90       1.673E-3      -104.81       0.49717       36.23          
4477.0425     0.28027       140.23        1.658E-3      -105.82       1.62E-3       -107.54       0.49974       36.24          
4478.5400     0.28181       141.09        1.634E-3      -106.54       1.603E-3      -105.81       0.50227       36.29          
4480.0375     0.28323       141.99        1.671E-3      -108.43       1.606E-3      -108.44       0.50477       36.40          
4481.5350     0.28453       142.93        1.63E-3       -109.29       1.555E-3      -108.99       0.50717       36.54          
4483.0325     0.28565       143.93        1.602E-3      -110.84       1.55E-3       -112.20       0.50943       36.74          
4484.5300     0.2866        144.92        1.604E-3      -112.02       1.575E-3      -111.25       0.51156       36.96          
4486.0275     0.2874        145.93        1.568E-3      -113.15       1.577E-3      -113.85       0.51346       37.23          
4487.5250     0.28802       146.93        1.577E-3      -114.79       1.574E-3      -114.06       0.51521       37.53          
4489.0225     0.28839       147.94        1.581E-3      -117.17       1.516E-3      -115.55       0.5166        37.85          
4490.5200     0.28851       148.93        1.568E-3      -116.08       1.553E-3      -118.12       0.51782       38.19          
4492.0175     0.28847       149.89        1.563E-3      -117.40       1.601E-3      -116.38       0.51871       38.55          
4493.5150     0.28822       150.81        1.56E-3       -118.17       1.539E-3      -118.91       0.51929       38.92          
4495.0125     0.28763       151.72        1.554E-3      -120.47       1.53E-3       -120.23       0.51955       39.30          
4496.5100     0.28698       152.57        1.54E-3       -121.89       1.524E-3      -123.42       0.51954       39.67          
4498.0075     0.28607       153.38        1.547E-3      -122.13       1.523E-3      -124.16       0.51918       40.04          
4499.5050     0.28498       154.16        1.524E-3      -123.21       1.512E-3      -123.89       0.51857       40.40          
4501.0025     0.28374       154.88        1.556E-3      -124.25       1.498E-3      -123.81       0.51754       40.74          
4502.5000     0.28237       155.54        1.557E-3      -126.22       1.544E-3      -126.85       0.51631       41.05          
4503.9975     0.28097       156.16        1.554E-3      -127.46       1.56E-3       -128.35       0.5147        41.35          
4505.4950     0.27959       156.69        1.569E-3      -128.08       1.56E-3       -129.83       0.51289       41.61          
4506.9925     0.27818       157.18        1.549E-3      -129.55       1.557E-3      -130.30       0.51089       41.83          
4508.4900     0.27675       157.62        1.533E-3      -131.53       1.531E-3      -131.40       0.50863       42.00          
4509.9875     0.27552       158.02        1.537E-3      -132.11       1.566E-3      -132.77       0.5063        42.14          
4511.4850     0.27446       158.36        1.556E-3      -134.78       1.58E-3       -135.55       0.50386       42.22          
4512.9825     0.27364       158.65        1.566E-3      -137.15       1.547E-3      -134.80       0.5013        42.26          
4514.4800     0.27294       158.91        1.549E-3      -136.94       1.547E-3      -138.16       0.49886       42.24          
4515.9775     0.27259       159.12        1.544E-3      -138.47       1.571E-3      -140.15       0.49635       42.18          
4517.4750     0.27246       159.31        1.556E-3      -138.63       1.623E-3      -141.32       0.49392       42.06          
4518.9725     0.2727        159.48        1.555E-3      -141.79       1.552E-3      -142.21       0.49169       41.90          
4520.4700     0.27332       159.63        1.553E-3      -143.77       1.556E-3      -144.30       0.48955       41.68          
4521.9675     0.27426       159.79        1.506E-3      -144.65       1.543E-3      -145.92       0.48763       41.43          
4523.4650     0.27559       159.94        1.50E-3       -145.27       1.554E-3      -146.31       0.48606       41.14          
4524.9625     0.27706       160.11        1.531E-3      -147.49       1.504E-3      -147.85       0.48468       40.81          
4526.4600     0.27891       160.31        1.492E-3      -148.69       1.535E-3      -149.19       0.48366       40.47          
4527.9575     0.28099       160.52        1.486E-3      -150.44       1.528E-3      -150.18       0.48296       40.09          
4529.4550     0.28339       160.77        1.516E-3      -151.15       1.515E-3      -152.11       0.48264       39.72          
4530.9525     0.28594       161.07        1.536E-3      -153.55       1.588E-3      -154.22       0.48274       39.33          
4532.4500     0.28877       161.39        1.498E-3      -153.60       1.475E-3      -154.08       0.48308       38.95          
4533.9475     0.29166       161.77        1.494E-3      -156.01       1.468E-3      -155.95       0.48384       38.57          
4535.4450     0.29476       162.17        1.458E-3      -157.52       1.458E-3      -156.35       0.48487       38.23          
4536.9425     0.29787       162.63        1.453E-3      -158.37       1.489E-3      -157.91       0.48626       37.91          
4538.4400     0.3011        163.11        1.45E-3       -158.57       1.445E-3      -159.59       0.48795       37.62          
4539.9375     0.30422       163.65        1.463E-3      -160.80       1.465E-3      -160.63       0.48989       37.36          
4541.4350     0.30734       164.23        1.508E-3      -161.68       1.439E-3      -161.92       0.49204       37.15          
4542.9325     0.31039       164.85        1.469E-3      -161.75       1.437E-3      -161.16       0.49441       36.98          
4544.4300     0.31329       165.50        1.458E-3      -163.64       1.387E-3      -162.51       0.49695       36.87          
4545.9275     0.31607       166.17        1.425E-3      -162.46       1.437E-3      -165.64       0.49953       36.80          
4547.4250     0.31861       166.85        1.467E-3      -166.64       1.456E-3      -165.83       0.50218       36.78          
4548.9225     0.32111       167.54        1.475E-3      -167.00       1.438E-3      -166.30       0.50485       36.82          
4550.4200     0.32333       168.27        1.462E-3      -167.76       1.43E-3       -167.86       0.5075        36.90          
4551.9175     0.32532       168.99        1.483E-3      -168.46       1.437E-3      -169.96       0.51005       37.03          
4553.4150     0.32722       169.72        1.476E-3      -170.53       1.433E-3      -170.90       0.51251       37.21          
4554.9125     0.32864       170.43        1.429E-3      -172.95       1.436E-3      -173.21       0.5148        37.43          
4556.4100     0.33          171.13        1.488E-3      -173.53       1.463E-3      -171.89       0.51688       37.69          
4557.9075     0.33108       171.82        1.505E-3      -172.49       1.46E-3       -174.19       0.5187        37.98          
4559.4050     0.33196       172.48        1.501E-3      -175.89       1.46E-3       -176.65       0.52027       38.30          
4560.9025     0.33258       173.08        1.478E-3      -177.16       1.492E-3      -178.25       0.5216        38.65          
4562.4000     0.33306       173.67        1.486E-3      -178.07       1.458E-3      -178.08       0.52259       39.01          
4563.8975     0.33327       174.20        1.45E-3       179.55        1.478E-3      179.32        0.52325       39.39          
4565.3950     0.33332       174.69        1.478E-3      179.10        1.466E-3      179.49        0.52361       39.78          
4566.8925     0.33322       175.12        1.471E-3      176.78        1.439E-3      177.68        0.52363       40.17          
4568.3900     0.33294       175.49        1.472E-3      175.72        1.451E-3      175.25        0.52335       40.55          
4569.8875     0.33251       175.80        1.443E-3      174.70        1.514E-3      174.00        0.52278       40.92          
4571.3850     0.33199       176.07        1.468E-3      173.04        1.442E-3      172.59        0.52192       41.28          
4572.8825     0.33139       176.26        1.449E-3      171.45        1.446E-3      171.48        0.5208        41.62          
4574.3800     0.3308        176.42        1.451E-3      169.98        1.439E-3      169.04        0.51943       41.94          
4575.8775     0.33012       176.51        1.46E-3       168.58        1.474E-3      169.28        0.51785       42.23          
4577.3750     0.32948       176.55        1.442E-3      168.13        1.444E-3      166.51        0.51597       42.49          
4578.8725     0.32885       176.56        1.421E-3      165.58        1.418E-3      164.58        0.51397       42.71          
4580.3700     0.32838       176.53        1.43E-3       165.28        1.426E-3      164.56        0.51187       42.89          
4581.8675     0.3279        176.46        1.435E-3      164.16        1.439E-3      163.04        0.50964       43.04          
4583.3650     0.32757       176.38        1.414E-3      161.41        1.394E-3      161.88        0.50734       43.14          
4584.8625     0.3275        176.27        1.45E-3       160.43        1.428E-3      159.88        0.50492       43.19          
4586.3600     0.3275        176.19        1.44E-3       160.16        1.396E-3      159.30        0.50266       43.21          
4587.8575     0.32776       176.08        1.396E-3      158.77        1.422E-3      157.62        0.5003        43.17          
4589.3550     0.32813       175.99        1.402E-3      157.29        1.405E-3      157.62        0.4981        43.10          
4590.8525     0.32869       175.92        1.404E-3      155.35        1.374E-3      155.37        0.49598       42.97          
4592.3500     0.32945       175.86        1.414E-3      154.25        1.406E-3      154.31        0.49398       42.81          
4593.8475     0.33049       175.82        1.43E-3       153.18        1.412E-3      153.53        0.49221       42.62          
4595.3450     0.33169       175.82        1.403E-3      152.35        1.409E-3      152.43        0.49061       42.39          
4596.8425     0.33307       175.84        1.398E-3      150.34        1.387E-3      151.41        0.48927       42.13          
4598.3400     0.33449       175.92        1.406E-3      148.76        1.368E-3      149.81        0.48822       41.85          
4599.8375     0.33597       176.02        1.409E-3      148.16        1.393E-3      148.11        0.48746       41.55          
4601.3350     0.33742       176.17        1.434E-3      148.33        1.392E-3      146.53        0.48695       41.24          
4602.8325     0.339         176.32        1.411E-3      145.26        1.37E-3       143.65        0.48671       40.93          
4604.3300     0.34048       176.52        1.407E-3      144.14        1.37E-3       143.19        0.48683       40.62          
4605.8275     0.34194       176.75        1.405E-3      140.60        1.41E-3       142.33        0.48724       40.31          
4607.3250     0.34318       177.03        1.443E-3      141.68        1.427E-3      141.92        0.48796       40.02          
4608.8225     0.34434       177.35        1.441E-3      141.24        1.307E-3      137.30        0.48891       39.75          
4610.3200     0.34528       177.70        1.413E-3      139.43        1.421E-3      137.75        0.49012       39.51          
4611.8175     0.34611       178.08        1.45E-3       136.08        1.412E-3      136.61        0.49149       39.29          
4613.3150     0.3466        178.50        1.423E-3      135.46        1.43E-3       136.18        0.49311       39.09          
4614.8125     0.3469        178.96        1.454E-3      135.19        1.371E-3      131.40        0.49477       38.95          
4616.3100     0.34694       179.43        1.402E-3      132.89        1.399E-3      132.64        0.49661       38.83          
4617.8075     0.34669       179.93        1.408E-3      132.21        1.433E-3      130.80        0.49844       38.76          
4619.3050     0.3461        -179.57       1.384E-3      130.73        1.419E-3      129.15        0.50029       38.72          
4620.8025     0.3454        -179.03       1.442E-3      128.08        1.44E-3       126.29        0.50211       38.72          
4622.3000     0.34438       -178.48       1.397E-3      127.50        1.42E-3       125.27        0.50391       38.75          
4623.7975     0.34328       -177.93       1.404E-3      128.18        1.397E-3      123.89        0.50564       38.82          
4625.2950     0.34186       -177.38       1.381E-3      125.70        1.348E-3      122.54        0.50721       38.92          
4626.7925     0.3401        -176.83       1.369E-3      125.02        1.383E-3      122.53        0.50868       39.05          
4628.2900     0.33831       -176.31       1.384E-3      120.61        1.412E-3      120.30        0.50995       39.20          
4629.7875     0.33633       -175.79       1.365E-3      121.35        1.389E-3      117.28        0.51107       39.37          
4631.2850     0.33414       -175.29       1.322E-3      120.35        1.387E-3      119.19        0.51206       39.56          
4632.7825     0.33182       -174.82       1.365E-3      119.00        1.34E-3       117.48        0.51283       39.77          
4634.2800     0.32957       -174.37       1.369E-3      116.82        1.406E-3      116.79        0.51338       39.98          
4635.7775     0.327         -173.96       1.333E-3      117.23        1.349E-3      115.92        0.51377       40.21          
4637.2750     0.32453       -173.59       1.337E-3      116.34        1.336E-3      114.36        0.51389       40.43          
4638.7725     0.32191       -173.26       1.337E-3      114.38        1.328E-3      114.39        0.51385       40.67          
4640.2700     0.31938       -172.96       1.344E-3      113.92        1.317E-3      111.63        0.51359       40.88          
4641.7675     0.3168        -172.72       1.319E-3      111.95        1.348E-3      111.60        0.51322       41.09          
4643.2650     0.31436       -172.51       1.329E-3      111.96        1.334E-3      108.71        0.51255       41.29          
4644.7625     0.31194       -172.35       1.336E-3      109.97        1.347E-3      108.86        0.51192       41.48          
4646.2600     0.30969       -172.20       1.333E-3      109.34        1.345E-3      109.21        0.51101       41.64          
4647.7575     0.30748       -172.10       1.318E-3      108.41        1.333E-3      107.20        0.51          41.79          
4649.2550     0.30544       -172.03       1.32E-3       107.05        1.32E-3       105.37        0.50884       41.91          
4650.7525     0.30358       -171.98       1.331E-3      105.54        1.329E-3      104.38        0.50762       42.00          
4652.2500     0.30193       -171.95       1.341E-3      103.62        1.296E-3      105.18        0.50629       42.07          
4653.7475     0.30047       -171.93       1.321E-3      103.19        1.345E-3      102.35        0.5049        42.11          
4655.2450     0.29917       -171.92       1.331E-3      101.19        1.343E-3      101.50        0.50358       42.12          
4656.7425     0.29808       -171.91       1.335E-3      99.36         1.358E-3      100.85        0.50216       42.10          
4658.2400     0.29728       -171.90       1.31E-3       97.67         1.325E-3      99.67         0.50082       42.05          
4659.7375     0.29665       -171.87       1.333E-3      97.10         1.302E-3      99.61         0.49953       41.98          
4661.2350     0.29619       -171.81       1.33E-3       96.32         1.314E-3      96.52         0.4984        41.87          
4662.7325     0.29587       -171.74       1.318E-3      94.82         1.299E-3      97.58         0.49729       41.75          
4664.2300     0.29573       -171.61       1.304E-3      93.09         1.321E-3      92.60         0.49633       41.60          
4665.7275     0.29586       -171.45       1.334E-3      91.46         1.31E-3       93.66         0.49554       41.43          
4667.2250     0.29606       -171.24       1.292E-3      90.11         1.328E-3      90.31         0.49494       41.24          
4668.7225     0.29632       -170.99       1.297E-3      89.30         1.326E-3      88.17         0.49447       41.04          
4670.2200     0.29664       -170.68       1.316E-3      87.00         1.326E-3      88.64         0.49426       40.84          
4671.7175     0.29697       -170.31       1.305E-3      84.46         1.363E-3      87.21         0.49426       40.63          
4673.2150     0.29737       -169.90       1.349E-3      86.54         1.322E-3      86.53         0.49436       40.41          
4674.7125     0.29774       -169.44       1.344E-3      85.27         1.376E-3      81.72         0.49471       40.21          
4676.2100     0.29799       -168.94       1.311E-3      82.45         1.332E-3      82.54         0.49514       40.01          
4677.7075     0.29812       -168.38       1.29E-3       80.31         1.311E-3      80.26         0.4958        39.82          
4679.2050     0.2982        -167.79       1.326E-3      80.39         1.324E-3      79.53         0.49655       39.64          
4680.7025     0.29807       -167.13       1.305E-3      78.36         1.367E-3      78.14         0.49747       39.48          
4682.2000     0.29767       -166.44       1.328E-3      77.02         1.378E-3      76.89         0.49839       39.34          
4683.6975     0.29704       -165.73       1.367E-3      76.47         1.374E-3      78.18         0.49949       39.22          
4685.1950     0.29625       -165.00       1.342E-3      74.28         1.325E-3      74.62         0.50055       39.12          
4686.6925     0.2952        -164.22       1.333E-3      74.09         1.347E-3      73.11         0.50169       39.05          
4688.1900     0.29387       -163.43       1.321E-3      73.51         1.39E-3       72.17         0.50288       38.99          
4689.6875     0.29231       -162.62       1.329E-3      70.63         1.348E-3      73.08         0.50401       38.96          
4691.1850     0.29056       -161.83       1.339E-3      70.34         1.359E-3      70.01         0.50518       38.94          
4692.6825     0.28853       -161.00       1.328E-3      68.23         1.352E-3      68.96         0.50635       38.96          
4694.1800     0.28633       -160.18       1.312E-3      67.28         1.35E-3       67.97         0.50743       38.99          
4695.6775     0.28381       -159.38       1.358E-3      66.14         1.342E-3      66.75         0.50841       39.04          
4697.1750     0.28106       -158.59       1.327E-3      65.11         1.356E-3      64.53         0.5094        39.11          
4698.6725     0.2782        -157.82       1.358E-3      62.94         1.353E-3      62.98         0.51023       39.18          
4700.1700     0.27526       -157.10       1.361E-3      63.10         1.342E-3      62.98         0.511         39.28          
4701.6675     0.27209       -156.40       1.346E-3      62.09         1.364E-3      61.95         0.51164       39.38          
4703.1650     0.26889       -155.75       1.342E-3      60.25         1.339E-3      60.98         0.51233       39.50          
4704.6625     0.26568       -155.18       1.353E-3      57.62         1.338E-3      59.83         0.51276       39.62          
4706.1600     0.26237       -154.64       1.358E-3      58.38         1.34E-3       58.26         0.51314       39.75          
4707.6575     0.25907       -154.14       1.337E-3      56.53         1.32E-3       57.04         0.5134        39.88          
4709.1550     0.25572       -153.69       1.319E-3      55.23         1.337E-3      54.99         0.51343       40.00          
4710.6525     0.25244       -153.28       1.371E-3      53.75         1.332E-3      55.47         0.51343       40.13          
4712.1500     0.24948       -152.92       1.342E-3      52.61         1.313E-3      53.46         0.51326       40.25          
4713.6475     0.24667       -152.62       1.318E-3      51.81         1.316E-3      51.86         0.51303       40.37          
4715.1450     0.24403       -152.38       1.345E-3      51.35         1.301E-3      50.30         0.51269       40.47          
4716.6425     0.24175       -152.21       1.357E-3      49.10         1.328E-3      48.98         0.51227       40.56          
4718.1400     0.23965       -152.09       1.331E-3      48.20         1.337E-3      48.60         0.51177       40.63          
4719.6375     0.23789       -152.01       1.351E-3      47.00         1.338E-3      46.06         0.51117       40.70          
4721.1350     0.23635       -151.99       1.348E-3      45.12         1.301E-3      46.74         0.51054       40.75          
4722.6325     0.23518       -151.97       1.355E-3      44.55         1.326E-3      45.51         0.50986       40.77          
4724.1300     0.23435       -151.97       1.346E-3      42.93         1.331E-3      44.00         0.50925       40.79          
4725.6275     0.23379       -151.97       1.318E-3      41.55         1.316E-3      42.74         0.5086        40.77          
4727.1250     0.2336        -151.97       1.338E-3      42.29         1.342E-3      41.90         0.50802       40.74          
4728.6225     0.23367       -151.95       1.352E-3      40.19         1.308E-3      39.11         0.50746       40.69          
4730.1200     0.23393       -151.88       1.364E-3      38.73         1.292E-3      37.77         0.50705       40.63          
4731.6175     0.23446       -151.78       1.346E-3      36.66         1.345E-3      37.45         0.50663       40.55          
4733.1150     0.23518       -151.60       1.346E-3      36.06         1.342E-3      36.89         0.5064        40.47          
4734.6125     0.23603       -151.38       1.329E-3      35.43         1.402E-3      36.10         0.50625       40.37          
4736.1100     0.23703       -151.11       1.37E-3       33.91         1.395E-3      35.05         0.50624       40.26          
4737.6075     0.23803       -150.74       1.372E-3      33.23         1.381E-3      32.15         0.50627       40.14          
4739.1050     0.23908       -150.31       1.396E-3      30.86         1.382E-3      31.57         0.50644       40.03          
4740.6025     0.24009       -149.79       1.388E-3      30.03         1.391E-3      30.15         0.5067        39.91          
4742.1000     0.24107       -149.22       1.405E-3      28.87         1.42E-3       29.35         0.507         39.79          
4743.5975     0.24185       -148.59       1.371E-3      27.49         1.397E-3      27.56         0.50748       39.68          
4745.0950     0.24261       -147.89       1.412E-3      25.75         1.414E-3      24.08         0.50789       39.56          
4746.5925     0.24306       -147.13       1.386E-3      24.37         1.434E-3      23.18         0.50846       39.46          
4748.0900     0.24338       -146.31       1.413E-3      23.12         1.419E-3      23.88         0.50914       39.36          
4749.5875     0.24356       -145.42       1.476E-3      21.77         1.418E-3      21.82         0.50982       39.27          
4751.0850     0.24341       -144.48       1.425E-3      20.24         1.376E-3      19.99         0.5106        39.19          
4752.5825     0.24298       -143.53       1.415E-3      19.19         1.423E-3      19.05         0.51138       39.12          
4754.0800     0.24239       -142.54       1.44E-3       17.58         1.403E-3      18.53         0.51212       39.06          
4755.5775     0.24143       -141.53       1.426E-3      16.05         1.40E-3       16.83         0.51307       39.02          
4757.0750     0.2401        -140.51       1.445E-3      14.20         1.41E-3       16.09         0.51395       38.98          
4758.5725     0.23835       -139.50       1.429E-3      14.24         1.439E-3      14.90         0.51486       38.96          
4760.0700     0.23631       -138.46       1.465E-3      13.08         1.441E-3      13.27         0.51582       38.95          
4761.5675     0.23402       -137.42       1.456E-3      11.09         1.447E-3      11.62         0.51666       38.96          
4763.0650     0.23136       -136.39       1.455E-3      10.28         1.45E-3       10.43         0.5176        38.98          
4764.5625     0.22859       -135.37       1.458E-3      9.32          1.45E-3       9.39          0.51847       39.03          
4766.0600     0.22545       -134.37       1.462E-3      7.82          1.421E-3      8.01          0.51933       39.08          
4767.5575     0.22218       -133.41       1.489E-3      6.51          1.471E-3      6.80          0.52011       39.15          
4769.0550     0.21873       -132.46       1.465E-3      5.04          1.48E-3       5.48          0.5208        39.23          
4770.5525     0.21521       -131.57       1.496E-3      3.83          1.486E-3      3.94          0.52137       39.31          
4772.0500     0.21151       -130.72       1.474E-3      2.69          1.478E-3      3.45          0.52196       39.41          
4773.5475     0.20787       -129.94       1.483E-3      1.85          1.494E-3      1.95          0.52232       39.51          
4775.0450     0.20424       -129.26       1.505E-3      -0.18         1.489E-3      1.07          0.5227        39.63          
4776.5425     0.20061       -128.66       1.521E-3      -0.88         1.502E-3      -0.20         0.5229        39.75          
4778.0400     0.19718       -128.13       1.506E-3      -1.89         1.505E-3      -2.02         0.52302       39.87          
4779.5375     0.19383       -127.72       1.521E-3      -2.35         1.487E-3      -2.23         0.523         39.98          
4781.0350     0.19061       -127.41       1.522E-3      -3.74         1.523E-3      -3.59         0.5229        40.09          
4782.5325     0.18771       -127.19       1.546E-3      -4.77         1.513E-3      -5.21         0.52275       40.19          
4784.0300     0.18511       -127.08       1.529E-3      -8.09         1.516E-3      -6.67         0.52253       40.29          
4785.5275     0.18275       -127.06       1.518E-3      -10.61        1.543E-3      -8.91         0.52227       40.38          
4787.0250     0.18083       -127.16       1.564E-3      -10.54        1.53E-3       -10.73        0.52189       40.46          
4788.5225     0.17918       -127.32       1.559E-3      -11.64        1.578E-3      -10.38        0.52155       40.52          
4790.0200     0.17798       -127.52       1.595E-3      -12.86        1.571E-3      -13.15        0.52119       40.57          
4791.5175     0.17711       -127.78       1.596E-3      -13.51        1.604E-3      -13.99        0.52078       40.61          
4793.0150     0.17656       -128.05       1.569E-3      -15.28        1.538E-3      -15.75        0.52042       40.63          
4794.5125     0.17639       -128.31       1.617E-3      -17.19        1.589E-3      -17.43        0.52004       40.65          
4796.0100     0.17659       -128.54       1.575E-3      -19.55        1.591E-3      -18.50        0.5197        40.65          
4797.5075     0.1771        -128.75       1.597E-3      -19.60        1.608E-3      -19.10        0.51939       40.63          
4799.0050     0.17787       -128.87       1.617E-3      -21.64        1.626E-3      -21.45        0.51906       40.61          
4800.5025     0.17882       -128.94       1.629E-3      -23.34        1.618E-3      -22.54        0.51874       40.57          
4802.0000     0.17999       -128.91       1.62E-3       -25.63        1.612E-3      -24.85        0.5185        40.53          
4803.4975     0.18126       -128.76       1.625E-3      -26.61        1.601E-3      -26.92        0.51831       40.48          
4804.9950     0.18257       -128.54       1.634E-3      -26.90        1.616E-3      -28.37        0.51808       40.41          
4806.4925     0.18398       -128.21       1.652E-3      -30.38        1.615E-3      -29.68        0.51788       40.34          
4807.9900     0.18539       -127.77       1.629E-3      -32.06        1.654E-3      -30.86        0.51781       40.26          
4809.4875     0.18668       -127.23       1.626E-3      -32.42        1.619E-3      -32.33        0.51771       40.17          
4810.9850     0.18784       -126.59       1.643E-3      -34.09        1.626E-3      -34.77        0.51772       40.08          
4812.4825     0.18886       -125.86       1.643E-3      -36.16        1.622E-3      -35.20        0.51776       39.98          
4813.9800     0.18961       -125.03       1.642E-3      -37.92        1.612E-3      -38.15        0.5179        39.87          
4815.4775     0.19013       -124.13       1.665E-3      -39.47        1.63E-3       -40.21        0.51809       39.77          
4816.9750     0.19032       -123.17       1.679E-3      -40.10        1.632E-3      -41.26        0.51841       39.67          
4818.4725     0.19025       -122.15       1.663E-3      -43.16        1.652E-3      -42.76        0.51885       39.57          
4819.9700     0.18986       -121.07       1.667E-3      -43.29        1.659E-3      -44.44        0.51936       39.47          
4821.4675     0.18895       -119.92       1.666E-3      -46.20        1.643E-3      -46.00        0.51991       39.39          
4822.9650     0.18762       -118.77       1.642E-3      -46.86        1.636E-3      -47.35        0.52051       39.30          
4824.4625     0.18604       -117.57       1.664E-3      -49.42        1.645E-3      -48.43        0.52122       39.24          
4825.9600     0.18387       -116.35       1.674E-3      -50.82        1.638E-3      -50.70        0.52197       39.19          
4827.4575     0.18133       -115.13       1.684E-3      -52.10        1.647E-3      -51.94        0.52275       39.15          
4828.9550     0.17842       -113.92       1.659E-3      -53.33        1.67E-3       -53.53        0.52351       39.13          
4830.4525     0.17504       -112.72       1.684E-3      -54.92        1.632E-3      -55.39        0.52432       39.13          
4831.9500     0.17134       -111.51       1.657E-3      -56.06        1.655E-3      -55.87        0.52509       39.14          
4833.4475     0.16727       -110.36       1.687E-3      -58.50        1.651E-3      -57.25        0.5259        39.17          
4834.9450     0.16288       -109.23       1.685E-3      -58.95        1.679E-3      -58.95        0.52657       39.22          
4836.4425     0.15819       -108.16       1.657E-3      -61.37        1.65E-3       -60.23        0.52722       39.27          
4837.9400     0.15324       -107.15       1.669E-3      -62.57        1.674E-3      -61.58        0.52788       39.34          
4839.4375     0.14805       -106.25       1.67E-3       -64.81        1.683E-3      -63.51        0.52842       39.42          
4840.9350     0.14272       -105.44       1.653E-3      -65.53        1.653E-3      -66.87        0.52886       39.51          
4842.4325     0.13729       -104.74       1.666E-3      -66.85        1.651E-3      -66.63        0.52922       39.61          
4843.9300     0.13185       -104.12       1.67E-3       -68.46        1.678E-3      -67.83        0.52953       39.72          
4845.4275     0.12649       -103.69       1.671E-3      -69.55        1.658E-3      -69.53        0.52978       39.82          
4846.9250     0.12119       -103.37       1.629E-3      -70.85        1.645E-3      -70.48        0.52991       39.93          
4848.4225     0.11611       -103.23       1.666E-3      -73.22        1.692E-3      -73.04        0.53002       40.04          
4849.9200     0.1112        -103.26       1.668E-3      -74.97        1.674E-3      -73.31        0.53006       40.15          
4851.4175     0.10664       -103.46       1.648E-3      -75.53        1.648E-3      -75.58        0.53002       40.25          
4852.9150     0.10247       -103.79       1.673E-3      -77.56        1.651E-3      -77.48        0.52991       40.35          
4854.4125     0.09853       -104.29       1.689E-3      -79.13        1.654E-3      -80.20        0.52973       40.45          
4855.9100     0.09516       -104.99       1.673E-3      -80.22        1.633E-3      -80.64        0.5295        40.54          
4857.4075     0.09217       -105.72       1.671E-3      -82.17        1.659E-3      -81.98        0.52928       40.63          
4858.9050     0.08985       -106.55       1.656E-3      -82.96        1.666E-3      -84.89        0.52887       40.71          
4860.4025     0.0879        -107.42       1.68E-3       -85.21        1.648E-3      -85.36        0.52843       40.77          
4861.9000     0.08649       -108.26       1.657E-3      -86.44        1.667E-3      -85.86        0.52791       40.83          
4863.3975     0.08539       -108.97       1.647E-3      -88.54        1.631E-3      -88.13        0.52735       40.87          
4864.8950     0.08479       -109.53       1.67E-3       -91.08        1.647E-3      -88.44        0.52669       40.89          
4866.3925     0.08452       -109.95       1.669E-3      -91.25        1.647E-3      -91.29        0.52602       40.90          
4867.8900     0.08449       -110.08       1.674E-3      -92.29        1.632E-3      -91.84        0.52524       40.88          
4869.3875     0.08481       -109.99       1.65E-3       -93.86        1.648E-3      -92.26        0.52447       40.85          
4870.8850     0.08516       -109.55       1.667E-3      -96.05        1.665E-3      -95.01        0.5237        40.79          
4872.3825     0.08562       -108.89       1.648E-3      -96.98        1.673E-3      -97.37        0.52283       40.72          
4873.8800     0.08606       -107.89       1.652E-3      -98.34        1.652E-3      -97.91        0.5221        40.62          
4875.3775     0.08643       -106.57       1.655E-3      -99.27        1.624E-3      -99.20        0.52143       40.49          
4876.8750     0.08681       -104.98       1.621E-3      -101.99       1.632E-3      -101.11       0.52077       40.35          
4878.3725     0.0871        -103.09       1.666E-3      -102.97       1.617E-3      -102.36       0.52022       40.19          
4879.8700     0.08721       -100.95       1.646E-3      -104.47       1.63E-3       -104.03       0.5198        40.02          
4881.3675     0.08722       -98.53        1.66E-3       -105.73       1.628E-3      -104.93       0.51952       39.83          
4882.8650     0.08707       -95.83        1.642E-3      -107.42       1.643E-3      -106.12       0.51939       39.63          
4884.3625     0.08687       -92.91        1.631E-3      -108.79       1.633E-3      -108.61       0.51933       39.43          
4885.8600     0.0865        -89.78        1.646E-3      -109.57       1.633E-3      -109.24       0.5194        39.21          
4887.3575     0.08589       -86.39        1.632E-3      -111.04       1.616E-3      -110.86       0.51967       39.01          
4888.8550     0.08526       -82.78        1.645E-3      -113.27       1.629E-3      -111.69       0.52006       38.80          
4890.3525     0.08446       -78.97        1.649E-3      -115.30       1.621E-3      -114.02       0.52058       38.61          
4891.8500     0.08353       -74.91        1.636E-3      -116.79       1.592E-3      -115.74       0.52117       38.42          
4893.3475     0.08258       -70.73        1.613E-3      -117.76       1.647E-3      -117.02       0.52185       38.23          
4894.8450     0.08148       -66.35        1.623E-3      -118.85       1.599E-3      -118.70       0.52271       38.06          
4896.3425     0.08035       -61.77        1.61E-3       -120.04       1.654E-3      -121.21       0.5236        37.90          
4897.8400     0.07918       -57.12        1.625E-3      -122.23       1.60E-3       -121.32       0.52457       37.77          
4899.3375     0.07807       -52.24        1.599E-3      -123.13       1.609E-3      -122.73       0.52562       37.64          
4900.8350     0.07702       -47.23        1.62E-3       -125.13       1.595E-3      -125.36       0.52678       37.54          
4902.3325     0.07609       -42.09        1.596E-3      -126.47       1.646E-3      -126.13       0.52798       37.45          
4903.8300     0.07514       -36.85        1.619E-3      -127.93       1.615E-3      -127.43       0.52922       37.38          
4905.3275     0.07443       -31.61        1.59E-3       -129.38       1.591E-3      -129.06       0.53049       37.33          
4906.8250     0.07377       -26.35        1.61E-3       -129.47       1.573E-3      -130.18       0.53179       37.30          
4908.3225     0.07335       -21.12        1.583E-3      -130.86       1.571E-3      -131.10       0.53312       37.29          
4909.8200     0.07305       -16.05        1.595E-3      -132.66       1.568E-3      -132.19       0.53445       37.31          
4911.3175     0.07295       -11.02        1.574E-3      -134.06       1.521E-3      -134.29       0.53575       37.34          
4912.8150     0.07302       -6.26         1.578E-3      -135.28       1.567E-3      -133.39       0.53704       37.39          
4914.3125     0.07312       -1.72         1.587E-3      -137.02       1.612E-3      -134.05       0.53834       37.45          
4915.8100     0.07344       2.50          1.59E-3       -137.22       1.522E-3      -138.45       0.53955       37.55          
4917.3075     0.07375       6.30          1.579E-3      -139.08       1.538E-3      -138.31       0.54067       37.65          
4918.8050     0.07402       9.83          1.61E-3       -140.93       1.597E-3      -139.63       0.54173       37.78          
4920.3025     0.07433       12.92         1.589E-3      -141.05       1.573E-3      -141.14       0.54265       37.91          
4921.8000     0.07455       15.60         1.583E-3      -142.09       1.507E-3      -141.99       0.54346       38.05          
4923.2975     0.0748        17.88         1.578E-3      -143.97       1.602E-3      -144.54       0.54415       38.20          
4924.7950     0.07495       19.67         1.567E-3      -145.40       1.544E-3      -144.95       0.54467       38.36          
4926.2925     0.0751        21.02         1.591E-3      -146.69       1.538E-3      -145.61       0.54503       38.51          
4927.7900     0.07524       21.96         1.569E-3      -147.71       1.582E-3      -147.92       0.54524       38.67          
4929.2875     0.07543       22.43         1.608E-3      -148.79       1.53E-3       -148.58       0.54528       38.81          
4930.7850     0.07576       22.51         1.61E-3       -150.76       1.57E-3       -151.01       0.54527       38.95          
4932.2825     0.07617       22.13         1.627E-3      -151.33       1.544E-3      -152.73       0.54501       39.07          
4933.7800     0.07688       21.37         1.621E-3      -152.97       1.566E-3      -151.09       0.54472       39.19          
4935.2775     0.07794       20.42         1.577E-3      -154.57       1.58E-3       -154.88       0.54436       39.28          
4936.7750     0.07932       19.12         1.619E-3      -156.01       1.575E-3      -156.04       0.54385       39.36          
4938.2725     0.08125       17.69         1.598E-3      -156.83       1.605E-3      -156.92       0.54329       39.41          
4939.7700     0.08366       16.17         1.611E-3      -157.53       1.602E-3      -158.26       0.54276       39.46          
4941.2675     0.08656       14.66         1.618E-3      -160.11       1.578E-3      -160.68       0.54216       39.48          
4942.7650     0.09          13.21         1.626E-3      -161.59       1.609E-3      -161.18       0.54161       39.47          
4944.2625     0.09398       11.92         1.654E-3      -162.69       1.637E-3      -161.36       0.54104       39.46          
4945.7600     0.09843       10.83         1.641E-3      -163.68       1.61E-3       -162.53       0.54054       39.42          
4947.2575     0.10326       9.96          1.661E-3      -165.48       1.607E-3      -165.27       0.53997       39.38          
4948.7550     0.10849       9.26          1.642E-3      -166.94       1.645E-3      -167.37       0.53954       39.31          
4950.2525     0.11398       8.86          1.641E-3      -168.86       1.638E-3      -168.64       0.53908       39.24          
4951.7500     0.11973       8.64          1.638E-3      -170.01       1.616E-3      -169.90       0.53876       39.15          
4953.2475     0.12559       8.67          1.638E-3      -171.13       1.668E-3      -171.45       0.53851       39.05          
4954.7450     0.13142       8.86          1.656E-3      -173.84       1.637E-3      -172.19       0.53827       38.95          
4956.2425     0.13723       9.24          1.648E-3      -174.27       1.663E-3      -175.21       0.53819       38.84          
4957.7400     0.14295       9.78          1.659E-3      -175.53       1.673E-3      -176.17       0.53812       38.73          
4959.2375     0.14838       10.47         1.65E-3       -177.52       1.676E-3      -177.46       0.53821       38.61          
4960.7350     0.15362       11.27         1.658E-3      -179.04       1.658E-3      -178.26       0.53843       38.49          
4962.2325     0.15835       12.16         1.676E-3      178.32        1.717E-3      -179.86       0.53868       38.38          
4963.7300     0.16277       13.18         1.701E-3      176.54        1.654E-3      177.80        0.53912       38.27          
4965.2275     0.16674       14.26         1.687E-3      176.42        1.695E-3      177.93        0.53967       38.18          
4966.7250     0.17014       15.38         1.678E-3      174.36        1.735E-3      176.07        0.5403        38.09          
4968.2225     0.17307       16.56         1.686E-3      172.05        1.65E-3       174.54        0.54101       38.01          
4969.7200     0.17538       17.81         1.693E-3      170.64        1.672E-3      172.38        0.54184       37.96          
4971.2175     0.17723       19.08         1.719E-3      170.31        1.664E-3      169.89        0.54276       37.92          
4972.7150     0.17845       20.34         1.692E-3      168.44        1.631E-3      169.25        0.54367       37.89          
4974.2125     0.1791        21.62         1.693E-3      166.17        1.686E-3      166.40        0.54468       37.89          
4975.7100     0.17928       22.91         1.749E-3      163.56        1.687E-3      163.19        0.54573       37.91          
4977.2075     0.1789        24.21         1.691E-3      162.89        1.686E-3      164.46        0.54677       37.94          
4978.7050     0.17804       25.47         1.701E-3      160.62        1.662E-3      160.62        0.54777       38.00          
4980.2025     0.17659       26.71         1.723E-3      159.53        1.711E-3      158.58        0.54873       38.09          
4981.7000     0.17478       27.91         1.733E-3      157.07        1.663E-3      158.10        0.54961       38.19          
4983.1975     0.17255       29.07         1.726E-3      156.33        1.639E-3      155.24        0.55033       38.30          
4984.6950     0.17          30.13         1.774E-3      154.41        1.646E-3      152.06        0.55092       38.42          
4986.1925     0.16715       31.12         1.749E-3      151.48        1.654E-3      151.62        0.55147       38.56          
4987.6900     0.16412       32.02         1.73E-3       150.27        1.689E-3      149.81        0.55181       38.70          
4989.1875     0.1609        32.79         1.737E-3      149.28        1.633E-3      149.03        0.55208       38.85          
4990.6850     0.15759       33.45         1.726E-3      146.96        1.686E-3      147.33        0.55204       38.99          
4992.1825     0.15426       33.99         1.689E-3      144.28        1.738E-3      145.83        0.55195       39.14          
4993.6800     0.15104       34.40         1.731E-3      143.22        1.645E-3      143.21        0.55172       39.27          
4995.1775     0.1479        34.62         1.736E-3      141.83        1.687E-3      143.12        0.55135       39.38          
4996.6750     0.14509       34.69         1.719E-3      140.54        1.658E-3      139.53        0.55084       39.49          
4998.1725     0.14248       34.66         1.704E-3      138.85        1.709E-3      137.97        0.55022       39.59          
4999.6700     0.14022       34.48         1.666E-3      136.55        1.712E-3      137.87        0.54947       39.67          
5001.1675     0.1383        34.21         1.699E-3      135.32        1.677E-3      135.84        0.54869       39.72          
5002.6650     0.13688       33.83         1.666E-3      133.51        1.643E-3      134.03        0.54773       39.77          
5004.1625     0.13597       33.35         1.669E-3      132.29        1.635E-3      133.35        0.54682       39.77          
5005.6600     0.13559       32.92         1.659E-3      130.13        1.654E-3      129.04        0.54579       39.77          
5007.1575     0.13568       32.44         1.668E-3      129.98        1.613E-3      128.95        0.54474       39.73          
5008.6550     0.13638       32.07         1.66E-3       127.85        1.62E-3       127.52        0.54373       39.67          
5010.1525     0.13762       31.77         1.632E-3      125.75        1.632E-3      125.45        0.54273       39.59          
5011.6500     0.13932       31.55         1.62E-3       123.62        1.59E-3       123.63        0.54172       39.48          
5013.1475     0.14148       31.52         1.64E-3       122.48        1.602E-3      122.64        0.54071       39.35          
5014.6450     0.14395       31.63         1.607E-3      120.85        1.581E-3      120.57        0.53988       39.20          
5016.1425     0.14678       31.96         1.603E-3      118.44        1.585E-3      119.60        0.53897       39.03          
5017.6400     0.14996       32.44         1.605E-3      117.56        1.573E-3      117.47        0.53833       38.83          
5019.1375     0.15334       33.11         1.563E-3      116.25        1.551E-3      115.00        0.53765       38.62          
5020.6350     0.15697       33.93         1.564E-3      114.52        1.571E-3      114.91        0.53726       38.39          
5022.1325     0.16068       34.90         1.568E-3      112.64        1.553E-3      113.18        0.53698       38.15          
5023.6300     0.16439       36.08         1.551E-3      111.52        1.514E-3      111.75        0.5369        37.90          
5025.1275     0.16822       37.33         1.496E-3      109.04        1.536E-3      111.77        0.53704       37.66          
5026.6250     0.17197       38.72         1.492E-3      107.80        1.522E-3      107.93        0.53732       37.41          
5028.1225     0.1757        40.23         1.49E-3       106.49        1.497E-3      105.51        0.53779       37.17          
5029.6200     0.17932       41.81         1.49E-3       105.49        1.451E-3      104.63        0.53849       36.94          
5031.1175     0.18275       43.48         1.482E-3      103.17        1.45E-3       103.22        0.53937       36.72          
5032.6150     0.18607       45.20         1.477E-3      102.24        1.429E-3      100.44        0.54043       36.52          
5034.1125     0.18913       46.96         1.477E-3      100.00        1.386E-3      100.18        0.54151       36.35          
5035.6100     0.19187       48.75         1.447E-3      99.46         1.414E-3      99.43         0.54284       36.19          
5037.1075     0.19442       50.58         1.441E-3      97.47         1.468E-3      95.69         0.5443        36.07          
5038.6050     0.19664       52.43         1.396E-3      95.04         1.422E-3      95.58         0.5458        35.97          
5040.1025     0.19862       54.27         1.412E-3      96.06         1.366E-3      95.21         0.54735       35.90          
5041.6000     0.20014       56.07         1.384E-3      93.23         1.388E-3      92.03         0.54894       35.86          
5043.0975     0.20134       57.89         1.40E-3       91.83         1.366E-3      88.90         0.55045       35.85          
5044.5950     0.20222       59.67         1.384E-3      90.01         1.354E-3      88.45         0.55198       35.87          
5046.0925     0.2028        61.40         1.349E-3      88.34         1.355E-3      90.73         0.55338       35.92          
5047.5900     0.20309       63.08         1.348E-3      88.27         1.353E-3      88.93         0.55472       35.98          
5049.0875     0.20305       64.72         1.335E-3      87.16         1.326E-3      89.14         0.5559        36.08          
5050.5850     0.20279       66.26         1.317E-3      84.61         1.327E-3      85.58         0.55709       36.19          
5052.0825     0.20224       67.70         1.305E-3      84.21         1.313E-3      84.80         0.55797       36.30          
5053.5800     0.2016        69.07         1.29E-3       82.95         1.268E-3      80.98         0.5588        36.44          
5055.0775     0.20074       70.34         1.326E-3      82.24         1.294E-3      82.81         0.55944       36.59          
5056.5750     0.19979       71.48         1.278E-3      79.98         1.194E-3      79.96         0.5599        36.74          
5058.0725     0.19884       72.51         1.262E-3      78.94         1.286E-3      78.04         0.56019       36.89          
5059.5700     0.19787       73.41         1.263E-3      78.82         1.281E-3      77.57         0.5603        37.04          
5061.0675     0.19698       74.15         1.236E-3      76.35         1.29E-3       77.37         0.56025       37.19          
5062.5650     0.19622       74.76         1.228E-3      76.44         1.293E-3      77.70         0.55997       37.33          
5064.0625     0.19557       75.23         1.216E-3      76.30         1.219E-3      78.09         0.55959       37.45          
5065.5600     0.19524       75.57         1.202E-3      76.59         1.208E-3      75.62         0.55911       37.56          
5067.0575     0.19514       75.78         1.212E-3      73.20         1.162E-3      75.65         0.55848       37.66          
5068.5550     0.19533       75.82         1.22E-3       72.67         1.195E-3      72.25         0.55765       37.73          
5070.0525     0.19595       75.81         1.228E-3      70.90         1.155E-3      72.23         0.55679       37.78          
5071.5500     0.19707       75.68         1.215E-3      71.87         1.20E-3       72.39         0.55578       37.81          
5073.0475     0.19851       75.49         1.178E-3      71.93         1.161E-3      72.61         0.55474       37.80          
5074.5450     0.20052       75.25         1.193E-3      69.79         1.19E-3       72.17         0.55364       37.77          
5076.0425     0.20299       75.00         1.18E-3       68.13         1.183E-3      68.99         0.55261       37.72          
5077.5400     0.20597       74.75         1.155E-3      68.45         1.155E-3      67.76         0.55151       37.63          
5079.0375     0.20939       74.52         1.182E-3      66.67         1.175E-3      68.82         0.55044       37.51          
5080.5350     0.21338       74.33         1.179E-3      66.83         1.133E-3      64.55         0.54942       37.37          
5082.0325     0.21775       74.20         1.155E-3      65.74         1.176E-3      63.86         0.54859       37.20          
5083.5300     0.22251       74.13         1.161E-3      64.37         1.169E-3      65.76         0.54789       37.00          
5085.0275     0.22772       74.14         1.17E-3       61.92         1.115E-3      63.37         0.54734       36.79          
5086.5250     0.23307       74.25         1.152E-3      61.66         1.168E-3      62.31         0.54694       36.56          
5088.0225     0.23874       74.42         1.168E-3      59.68         1.165E-3      59.79         0.54683       36.31          
5089.5200     0.24458       74.69         1.151E-3      59.79         1.158E-3      57.57         0.54688       36.06          
5091.0175     0.25049       75.04         1.168E-3      60.58         1.103E-3      60.85         0.54708       35.80          
5092.5150     0.25648       75.48         1.15E-3       59.38         1.203E-3      56.30         0.54764       35.55          
5094.0125     0.2624        75.99         1.164E-3      57.02         1.177E-3      58.27         0.54836       35.30          
5095.5100     0.26811       76.55         1.15E-3       57.57         1.151E-3      56.55         0.5493        35.06          
5097.0075     0.27376       77.18         1.132E-3      55.70         1.207E-3      54.19         0.55048       34.84          
5098.5050     0.27913       77.84         1.155E-3      53.88         1.165E-3      53.70         0.55182       34.64          
5100.0025     0.2842        78.55         1.169E-3      54.09         1.149E-3      51.89         0.55337       34.46          
5101.5000     0.28889       79.27         1.179E-3      51.38         1.132E-3      49.70         0.55511       34.32          
5102.9975     0.29326       80.03         1.174E-3      50.25         1.211E-3      49.74         0.55699       34.20          
5104.4950     0.29706       80.80         1.187E-3      48.53         1.209E-3      47.92         0.55886       34.12          
5105.9925     0.30045       81.57         1.231E-3      48.64         1.223E-3      48.04         0.56086       34.07          
5107.4900     0.30338       82.30         1.227E-3      48.23         1.212E-3      48.94         0.56285       34.06          
5108.9875     0.30578       83.03         1.228E-3      46.51         1.165E-3      45.03         0.56485       34.08          
5110.4850     0.30774       83.73         1.238E-3      44.78         1.216E-3      45.74         0.56683       34.14          
5111.9825     0.30912       84.38         1.224E-3      41.94         1.212E-3      43.25         0.56873       34.23          
5113.4800     0.31004       84.99         1.222E-3      42.62         1.268E-3      43.80         0.57049       34.35          
5114.9775     0.31049       85.56         1.287E-3      41.54         1.256E-3      41.06         0.57211       34.49          
5116.4750     0.3105        86.07         1.259E-3      39.98         1.295E-3      40.18         0.57367       34.67          
5117.9725     0.31006       86.51         1.257E-3      38.69         1.267E-3      37.99         0.57497       34.87          
5119.4700     0.30929       86.87         1.262E-3      37.85         1.297E-3      38.00         0.57615       35.09          
5120.9675     0.30823       87.16         1.279E-3      36.36         1.306E-3      36.47         0.57709       35.31          
5122.4650     0.30691       87.37         1.324E-3      34.69         1.276E-3      34.48         0.57777       35.55          
5123.9625     0.30521       87.48         1.352E-3      31.98         1.30E-3       36.16         0.57827       35.81          
5125.4600     0.30347       87.51         1.307E-3      32.92         1.30E-3       33.68         0.57848       36.05          
5126.9575     0.30161       87.46         1.317E-3      30.73         1.318E-3      30.22         0.57847       36.31          
5128.4550     0.29969       87.32         1.32E-3       28.55         1.40E-3       28.56         0.57829       36.56          
5129.9525     0.29773       87.07         1.343E-3      28.39         1.30E-3       28.38         0.57786       36.80          
5131.4500     0.29599       86.77         1.36E-3       26.42         1.349E-3      26.83         0.57715       37.03          
5132.9475     0.2943        86.38         1.383E-3      23.87         1.383E-3      21.55         0.57635       37.24          
5134.4450     0.29285       85.94         1.364E-3      22.99         1.376E-3      22.26         0.57528       37.42          
5135.9425     0.29159       85.44         1.35E-3       21.38         1.352E-3      21.21         0.5739        37.60          
5137.4400     0.29067       84.92         1.397E-3      19.18         1.379E-3      18.05         0.57254       37.74          
5138.9375     0.29002       84.37         1.365E-3      18.78         1.393E-3      18.27         0.57097       37.85          
5140.4350     0.28962       83.82         1.423E-3      17.46         1.403E-3      16.81         0.56927       37.92          
5141.9325     0.28963       83.29         1.377E-3      15.30         1.368E-3      14.41         0.56741       37.96          
5143.4300     0.28989       82.76         1.383E-3      12.80         1.362E-3      13.88         0.56554       37.96          
5144.9275     0.29054       82.29         1.389E-3      11.21         1.383E-3      10.98         0.56369       37.92          
5146.4250     0.29131       81.89         1.393E-3      8.43          1.422E-3      9.36          0.56183       37.84          
5147.9225     0.29244       81.55         1.354E-3      7.48          1.416E-3      8.25          0.56008       37.72          
5149.4200     0.29356       81.29         1.367E-3      6.34          1.405E-3      6.11          0.55838       37.56          
5150.9175     0.29477       81.12         1.343E-3      4.19          1.399E-3      4.21          0.55675       37.38          
5152.4150     0.29613       81.04         1.345E-3      1.77          1.392E-3      0.31          0.55536       37.15          
5153.9125     0.29745       81.06         1.344E-3      -0.05         1.354E-3      0.18          0.55414       36.89          
5155.4100     0.29868       81.19         1.337E-3      -2.08         1.369E-3      -3.48         0.55314       36.61          
5156.9075     0.29975       81.44         1.339E-3      -4.35         1.357E-3      -2.90         0.55246       36.31          
5158.4050     0.30077       81.76         1.362E-3      -5.93         1.397E-3      -5.26         0.55194       36.00          
5159.9025     0.30138       82.18         1.313E-3      -7.18         1.365E-3      -7.85         0.55174       35.67          
5161.4000     0.30176       82.69         1.352E-3      -11.12        1.38E-3       -9.30         0.55193       35.34          
5162.8975     0.30185       83.29         1.317E-3      -12.15        1.322E-3      -10.67        0.55232       35.02          
5164.3950     0.30161       83.95         1.291E-3      -11.67        1.303E-3      -13.88        0.55304       34.70          
5165.8925     0.30099       84.68         1.292E-3      -14.84        1.389E-3      -12.61        0.55399       34.41          
5167.3900     0.30          85.49         1.289E-3      -16.86        1.30E-3       -18.42        0.55511       34.12          
5168.8875     0.29882       86.34         1.292E-3      -19.30        1.342E-3      -18.26        0.55648       33.86          
5170.3850     0.2971        87.25         1.274E-3      -19.39        1.248E-3      -21.10        0.55806       33.63          
5171.8825     0.29507       88.21         1.257E-3      -20.53        1.261E-3      -21.17        0.55987       33.44          
5173.3800     0.29259       89.21         1.252E-3      -23.11        1.257E-3      -20.71        0.56169       33.26          
5174.8775     0.28986       90.23         1.24E-3       -23.49        1.268E-3      -23.99        0.56357       33.13          
5176.3750     0.28673       91.26         1.254E-3      -24.46        1.245E-3      -26.16        0.56561       33.03          
5177.8725     0.28339       92.31         1.213E-3      -26.67        1.206E-3      -25.95        0.56766       32.97          
5179.3700     0.27979       93.37         1.229E-3      -28.53        1.244E-3      -29.11        0.56964       32.94          
5180.8675     0.27586       94.43         1.24E-3       -31.46        1.21E-3       -29.25        0.57163       32.95          
5182.3650     0.27194       95.46         1.20E-3       -31.02        1.231E-3      -30.56        0.57353       32.99          
5183.8625     0.2678        96.49         1.183E-3      -32.48        1.192E-3      -32.00        0.5754        33.06          
5185.3600     0.26349       97.50         1.191E-3      -33.50        1.189E-3      -32.31        0.57711       33.15          
5186.8575     0.25906       98.46         1.152E-3      -36.67        1.158E-3      -34.10        0.57863       33.28          
5188.3550     0.25478       99.40         1.17E-3       -37.12        1.17E-3       -36.30        0.58009       33.43          
5189.8525     0.25053       100.28        1.17E-3       -36.28        1.19E-3       -36.11        0.5814        33.61          
5191.3500     0.24634       101.12        1.139E-3      -37.99        1.154E-3      -39.61        0.58254       33.79          
5192.8475     0.24233       101.92        1.158E-3      -40.91        1.143E-3      -38.17        0.5834        34.00          
5194.3450     0.23842       102.69        1.149E-3      -40.83        1.139E-3      -39.61        0.584         34.21          
5195.8425     0.23486       103.40        1.12E-3       -42.39        1.139E-3      -39.50        0.58446       34.44          
5197.3400     0.2315        104.06        1.13E-3       -43.53        1.115E-3      -41.37        0.58474       34.66          
5198.8375     0.22852       104.68        1.109E-3      -43.38        1.115E-3      -40.23        0.58473       34.89          
5200.3350     0.22594       105.25        1.081E-3      -43.48        1.082E-3      -43.40        0.5845        35.10          
5201.8325     0.22369       105.80        1.09E-3       -46.14        1.063E-3      -47.36        0.58407       35.31          
5203.3300     0.22183       106.32        1.068E-3      -45.12        1.064E-3      -44.49        0.58338       35.51          
5204.8275     0.22044       106.82        1.045E-3      -48.31        1.069E-3      -44.61        0.58259       35.68          
5206.3250     0.21948       107.32        1.045E-3      -47.75        1.062E-3      -46.25        0.58155       35.83          
5207.8225     0.21902       107.83        1.055E-3      -49.62        1.068E-3      -47.69        0.58044       35.96          
5209.3200     0.21894       108.35        1.051E-3      -51.30        1.081E-3      -46.66        0.57922       36.07          
5210.8175     0.21936       108.91        1.038E-3      -49.80        1.08E-3       -48.98        0.57786       36.13          
5212.3150     0.22026       109.54        1.086E-3      -50.90        1.064E-3      -49.30        0.57642       36.18          
5213.8125     0.22145       110.21        1.044E-3      -55.09        1.085E-3      -51.18        0.57514       36.19          
5215.3100     0.22305       110.93        9.972E-4      -52.84        1.039E-3      -49.43        0.5738        36.17          
5216.8075     0.22499       111.71        1.026E-3      -55.52        1.061E-3      -53.18        0.57254       36.12          
5218.3050     0.22724       112.57        1.007E-3      -56.46        1.039E-3      -53.00        0.57135       36.04          
5219.8025     0.22978       113.53        1.022E-3      -56.44        1.048E-3      -56.14        0.57028       35.93          
5221.3000     0.23253       114.55        1.051E-3      -58.66        1.039E-3      -54.66        0.56934       35.80          
5222.7975     0.23549       115.62        1.035E-3      -59.06        1.082E-3      -57.11        0.56859       35.65          
5224.2950     0.2386        116.76        1.021E-3      -60.21        1.061E-3      -59.79        0.56801       35.48          
5225.7925     0.24184       117.97        1.053E-3      -59.70        1.09E-3       -56.54        0.56759       35.31          
5227.2900     0.24526       119.22        1.079E-3      -62.27        1.082E-3      -59.54        0.56733       35.12          
5228.7875     0.24875       120.53        1.013E-3      -63.69        1.02E-3       -62.35        0.56728       34.92          
5230.2850     0.25222       121.89        1.053E-3      -63.26        1.033E-3      -65.59        0.56742       34.73          
5231.7825     0.25574       123.27        1.069E-3      -64.98        1.073E-3      -65.04        0.56766       34.54          
5233.2800     0.25925       124.69        1.054E-3      -65.28        1.041E-3      -64.56        0.56809       34.35          
5234.7775     0.2627        126.13        1.057E-3      -66.68        1.083E-3      -65.99        0.56875       34.16          
5236.2750     0.26607       127.58        1.058E-3      -66.97        1.075E-3      -67.80        0.56954       33.99          
5237.7725     0.26923       129.03        1.052E-3      -67.52        1.037E-3      -66.72        0.57047       33.83          
5239.2700     0.27236       130.46        1.088E-3      -71.64        1.077E-3      -70.29        0.57142       33.70          
5240.7675     0.27538       131.87        1.08E-3       -69.56        1.068E-3      -69.44        0.57255       33.59          
5242.2650     0.27815       133.25        1.085E-3      -71.05        1.094E-3      -71.43        0.57377       33.48          
5243.7625     0.28078       134.59        1.079E-3      -70.61        1.114E-3      -72.99        0.57504       33.41          
5245.2600     0.28315       135.88        1.077E-3      -73.15        1.099E-3      -72.89        0.57633       33.36          
5246.7575     0.28531       137.13        1.14E-3       -72.83        1.099E-3      -74.84        0.57762       33.33          
5248.2550     0.28726       138.32        1.115E-3      -75.17        1.13E-3       -73.98        0.57895       33.33          
5249.7525     0.28902       139.44        1.127E-3      -75.77        1.153E-3      -73.90        0.58021       33.36          
5251.2500     0.29061       140.49        1.17E-3       -77.90        1.15E-3       -74.81        0.58142       33.41          
5252.7475     0.29191       141.47        1.153E-3      -76.96        1.16E-3       -78.78        0.58253       33.49          
5254.2450     0.29295       142.35        1.146E-3      -78.55        1.169E-3      -79.06        0.58353       33.59          
5255.7425     0.29396       143.15        1.185E-3      -79.77        1.183E-3      -78.66        0.58433       33.71          
5257.2400     0.2947        143.85        1.165E-3      -81.70        1.174E-3      -79.96        0.58504       33.85          
5258.7375     0.2954        144.46        1.203E-3      -84.15        1.184E-3      -80.60        0.58563       34.01          
5260.2350     0.29601       144.96        1.205E-3      -84.64        1.192E-3      -82.55        0.58594       34.17          
5261.7325     0.29671       145.35        1.189E-3      -85.45        1.20E-3       -82.40        0.586         34.33          
5263.2300     0.2973        145.66        1.195E-3      -87.62        1.213E-3      -84.54        0.58596       34.51          
5264.7275     0.29792       145.87        1.225E-3      -87.73        1.291E-3      -83.74        0.58558       34.68          
5266.2250     0.29873       145.99        1.207E-3      -89.18        1.239E-3      -86.27        0.58516       34.85          
5267.7225     0.29958       146.01        1.278E-3      -89.77        1.256E-3      -86.80        0.58443       35.01          
5269.2200     0.3007        145.96        1.29E-3       -90.85        1.299E-3      -86.52        0.58359       35.15          
5270.7175     0.30199       145.80        1.265E-3      -92.42        1.268E-3      -88.72        0.58259       35.28          
5272.2150     0.30356       145.59        1.239E-3      -93.10        1.256E-3      -91.09        0.58141       35.40          
5273.7125     0.30538       145.31        1.259E-3      -95.87        1.277E-3      -92.86        0.58015       35.48          
5275.2100     0.30752       144.99        1.324E-3      -97.22        1.288E-3      -94.63        0.57878       35.54          
5276.7075     0.31001       144.65        1.311E-3      -97.57        1.286E-3      -96.08        0.57735       35.58          
5278.2050     0.31275       144.27        1.338E-3      -98.86        1.291E-3      -103.06       0.57585       35.58          
5279.7025     0.31579       143.87        1.329E-3      -102.23       1.275E-3      -101.26       0.57436       35.56          
5281.2000     0.31919       143.49        1.324E-3      -104.34       1.309E-3      -100.69       0.57292       35.51          
5282.6975     0.3227        143.13        1.38E-3       -104.55       1.327E-3      -104.04       0.57145       35.43          
5284.1950     0.32654       142.78        1.349E-3      -104.98       1.377E-3      -106.32       0.57005       35.32          
5285.6925     0.33033       142.48        1.395E-3      -107.53       1.404E-3      -108.68       0.56871       35.19          
5287.1900     0.33432       142.21        1.406E-3      -111.12       1.357E-3      -108.60       0.56751       35.03          
5288.6875     0.33836       141.98        1.422E-3      -112.58       1.343E-3      -110.33       0.56637       34.84          
5290.1850     0.34226       141.82        1.40E-3       -111.45       1.398E-3      -112.52       0.56541       34.63          
5291.6825     0.3461        141.71        1.389E-3      -115.94       1.421E-3      -116.26       0.56451       34.39          
5293.1800     0.34971       141.66        1.453E-3      -117.46       1.399E-3      -118.00       0.56378       34.14          
5294.6775     0.3531        141.68        1.44E-3       -118.58       1.402E-3      -118.44       0.56329       33.86          
5296.1750     0.35619       141.74        1.431E-3      -120.55       1.401E-3      -121.28       0.56293       33.58          
5297.6725     0.35883       141.85        1.44E-3       -120.51       1.47E-3       -122.70       0.56281       33.28          
5299.1700     0.36116       142.01        1.442E-3      -124.50       1.41E-3       -126.14       0.56297       32.97          
5300.6675     0.36289       142.24        1.437E-3      -125.76       1.435E-3      -126.28       0.56324       32.66          
5302.1650     0.36416       142.51        1.417E-3      -128.20       1.398E-3      -130.38       0.56374       32.36          
5303.6625     0.36473       142.83        1.432E-3      -130.35       1.426E-3      -130.68       0.56445       32.06          
5305.1600     0.36467       143.18        1.446E-3      -132.95       1.44E-3       -131.34       0.56539       31.78          
5306.6575     0.36406       143.57        1.412E-3      -133.49       1.403E-3      -135.15       0.56649       31.50          
5308.1550     0.36281       144.00        1.455E-3      -134.15       1.463E-3      -135.58       0.56778       31.25          
5309.6525     0.36093       144.42        1.432E-3      -137.19       1.441E-3      -138.43       0.56924       31.02          
5311.1500     0.35849       144.88        1.44E-3       -138.66       1.42E-3       -141.03       0.57079       30.82          
5312.6475     0.35535       145.36        1.432E-3      -140.94       1.426E-3      -139.88       0.57248       30.65          
5314.1450     0.35168       145.85        1.426E-3      -144.87       1.421E-3      -143.96       0.57427       30.51          
5315.6425     0.3475        146.35        1.418E-3      -145.04       1.424E-3      -144.89       0.57605       30.40          
5317.1400     0.34284       146.84        1.445E-3      -146.79       1.424E-3      -145.23       0.57784       30.32          
5318.6375     0.3376        147.33        1.432E-3      -147.77       1.412E-3      -148.34       0.57958       30.27          
5320.1350     0.33209       147.82        1.407E-3      -149.72       1.396E-3      -149.66       0.58133       30.26          
5321.6325     0.32612       148.31        1.384E-3      -151.05       1.374E-3      -148.85       0.58302       30.27          
5323.1300     0.31996       148.76        1.405E-3      -152.27       1.357E-3      -152.18       0.58458       30.32          
5324.6275     0.31355       149.22        1.35E-3       -153.82       1.399E-3      -154.16       0.58604       30.39          
5326.1250     0.30685       149.64        1.389E-3      -156.30       1.383E-3      -156.82       0.58741       30.48          
5327.6225     0.3003        150.02        1.376E-3      -157.85       1.333E-3      -155.48       0.58858       30.60          
5329.1200     0.2936        150.38        1.344E-3      -160.35       1.365E-3      -158.50       0.58961       30.74          
5330.6175     0.28702       150.71        1.373E-3      -162.72       1.36E-3       -160.11       0.59051       30.89          
5332.1150     0.28062       151.00        1.345E-3      -163.09       1.371E-3      -163.54       0.59128       31.05          
5333.6125     0.27438       151.30        1.34E-3       -164.44       1.363E-3      -165.64       0.59181       31.23          
5335.1100     0.26845       151.54        1.313E-3      -168.42       1.35E-3       -164.47       0.59226       31.41          
5336.6075     0.26281       151.78        1.326E-3      -166.86       1.311E-3      -167.71       0.59255       31.60          
5338.1050     0.25762       151.99        1.347E-3      -168.36       1.32E-3       -168.90       0.59265       31.78          
5339.6025     0.25276       152.20        1.321E-3      -170.88       1.33E-3       -171.41       0.59265       31.97          
5341.1000     0.24834       152.43        1.303E-3      -172.38       1.329E-3      -172.36       0.59257       32.15          
5342.5975     0.24439       152.65        1.29E-3       -174.67       1.295E-3      -173.64       0.59222       32.33          
5344.0950     0.24115       152.94        1.286E-3      -175.96       1.297E-3      -174.40       0.5918        32.50          
5345.5925     0.23825       153.24        1.371E-3      -175.96       1.297E-3      -177.49       0.59121       32.65          
5347.0900     0.23588       153.61        1.307E-3      -177.46       1.271E-3      -179.55       0.59056       32.79          
5348.5875     0.23405       154.05        1.287E-3      -179.14       1.301E-3      -179.37       0.58975       32.92          
5350.0850     0.23264       154.59        1.274E-3      -179.75       1.277E-3      178.93        0.58889       33.03          
5351.5825     0.23168       155.20        1.274E-3      177.87        1.253E-3      177.91        0.58785       33.11          
5353.0800     0.23127       155.91        1.274E-3      176.67        1.205E-3      174.84        0.58678       33.17          
5354.5775     0.23119       156.71        1.253E-3      174.89        1.246E-3      175.28        0.58569       33.20          
5356.0750     0.23147       157.65        1.236E-3      173.22        1.264E-3      174.17        0.58456       33.21          
5357.5725     0.23224       158.70        1.24E-3       173.76        1.259E-3      172.24        0.58344       33.18          
5359.0700     0.23315       159.84        1.238E-3      170.92        1.237E-3      170.66        0.58228       33.13          
5360.5675     0.23445       161.12        1.201E-3      171.20        1.252E-3      168.52        0.58121       33.05          
5362.0650     0.23586       162.49        1.236E-3      169.38        1.184E-3      167.98        0.58017       32.94          
5363.5625     0.23763       163.96        1.213E-3      167.80        1.217E-3      166.92        0.57926       32.82          
5365.0600     0.23951       165.52        1.199E-3      165.98        1.207E-3      165.25        0.57839       32.67          
5366.5575     0.2415        167.19        1.202E-3      165.11        1.208E-3      166.74        0.57763       32.50          
5368.0550     0.24364       168.93        1.194E-3      162.77        1.204E-3      163.97        0.57701       32.31          
5369.5525     0.24585       170.73        1.189E-3      161.92        1.223E-3      161.61        0.57647       32.11          
5371.0500     0.24806       172.59        1.183E-3      161.75        1.205E-3      161.68        0.57611       31.89          
5372.5475     0.25039       174.49        1.176E-3      161.14        1.189E-3      160.01        0.57585       31.66          
5374.0450     0.2527        176.43        1.174E-3      159.09        1.19E-3       161.60        0.57573       31.43          
5375.5425     0.25495       178.40        1.201E-3      158.44        1.172E-3      158.33        0.57579       31.20          
5377.0400     0.2572        -179.62       1.192E-3      154.68        1.169E-3      155.78        0.57588       30.97          
5378.5375     0.25953       -177.66       1.179E-3      154.84        1.20E-3       155.40        0.57617       30.74          
5380.0350     0.26167       -175.72       1.19E-3       152.86        1.191E-3      155.09        0.57654       30.52          
5381.5325     0.26354       -173.79       1.181E-3      151.31        1.201E-3      151.83        0.57705       30.30          
5383.0300     0.26547       -171.91       1.167E-3      151.72        1.181E-3      151.75        0.57764       30.10          
5384.5275     0.26728       -170.10       1.188E-3      149.33        1.189E-3      151.04        0.57838       29.91          
5386.0250     0.26885       -168.31       1.195E-3      148.98        1.163E-3      149.95        0.57918       29.74          
5387.5225     0.27026       -166.59       1.188E-3      147.29        1.183E-3      146.54        0.58001       29.59          
5389.0200     0.2715        -164.96       1.171E-3      146.16        1.125E-3      144.36        0.58091       29.45          
5390.5175     0.27268       -163.41       1.173E-3      143.53        1.152E-3      144.76        0.58188       29.32          
5392.0150     0.2737        -161.94       1.177E-3      142.24        1.159E-3      143.08        0.58288       29.22          
5393.5125     0.2746        -160.57       1.167E-3      142.21        1.158E-3      141.83        0.58394       29.15          
5395.0100     0.27533       -159.27       1.144E-3      141.47        1.154E-3      141.35        0.58503       29.09          
5396.5075     0.2759        -158.10       1.15E-3       138.49        1.195E-3      139.05        0.58603       29.06          
5398.0050     0.27647       -157.05       1.15E-3       137.44        1.141E-3      137.99        0.5871        29.04          
5399.5025     0.27688       -156.10       1.171E-3      137.21        1.156E-3      137.21        0.58821       29.05          
5401.0000     0.27739       -155.27       1.159E-3      135.95        1.134E-3      134.95        0.58913       29.07          
5402.4975     0.27783       -154.57       1.149E-3      135.35        1.141E-3      135.45        0.59016       29.11          
5403.9950     0.27844       -153.99       1.179E-3      132.31        1.159E-3      132.80        0.59102       29.18          
5405.4925     0.27917       -153.52       1.175E-3      131.30        1.142E-3      131.33        0.59189       29.25          
5406.9900     0.27999       -153.18       1.168E-3      129.92        1.094E-3      128.64        0.59255       29.34          
5408.4875     0.28117       -152.95       1.163E-3      129.05        1.129E-3      128.55        0.59321       29.44          
5409.9850     0.28265       -152.81       1.164E-3      129.45        1.161E-3      128.46        0.59378       29.54          
5411.4825     0.28443       -152.79       1.167E-3      126.24        1.165E-3      128.06        0.59421       29.65          
5412.9800     0.28656       -152.84       1.15E-3       126.53        1.146E-3      127.69        0.59449       29.76          
5414.4775     0.28914       -152.96       1.149E-3      125.84        1.15E-3       124.02        0.5947        29.87          
5415.9750     0.29211       -153.13       1.193E-3      123.10        1.162E-3      123.90        0.59479       29.97          
5417.4725     0.2957        -153.34       1.172E-3      122.61        1.128E-3      123.46        0.59482       30.06          
5418.9700     0.29959       -153.57       1.171E-3      121.71        1.178E-3      122.14        0.59478       30.14          
5420.4675     0.30405       -153.83       1.175E-3      120.25        1.173E-3      120.40        0.59464       30.21          
5421.9650     0.309         -154.06       1.177E-3      119.94        1.164E-3      119.34        0.59443       30.27          
5423.4625     0.31426       -154.29       1.144E-3      118.54        1.207E-3      117.35        0.59415       30.32          
5424.9600     0.31992       -154.44       1.164E-3      116.82        1.20E-3       116.47        0.59379       30.35          
5426.4575     0.32589       -154.55       1.196E-3      116.28        1.179E-3      116.01        0.59347       30.37          
5427.9550     0.33204       -154.62       1.204E-3      114.01        1.182E-3      113.70        0.59304       30.36          
5429.4525     0.33841       -154.65       1.194E-3      114.62        1.198E-3      113.72        0.59257       30.34          
5430.9500     0.34483       -154.59       1.207E-3      112.70        1.226E-3      111.73        0.59212       30.30          
5432.4475     0.35129       -154.50       1.20E-3       112.20        1.228E-3      107.85        0.59162       30.24          
5433.9450     0.35759       -154.33       1.229E-3      108.66        1.243E-3      109.15        0.59128       30.17          
5435.4425     0.36364       -154.11       1.223E-3      108.12        1.239E-3      108.07        0.5908        30.07          
5436.9400     0.36957       -153.84       1.233E-3      106.95        1.232E-3      108.34        0.5905        29.98          
5438.4375     0.37511       -153.53       1.28E-3       104.21        1.258E-3      104.27        0.59016       29.86          
5439.9350     0.38035       -153.19       1.249E-3      104.25        1.24E-3       102.68        0.58984       29.72          
5441.4325     0.38498       -152.79       1.26E-3       102.09        1.254E-3      100.51        0.58973       29.58          
5442.9300     0.38907       -152.41       1.263E-3      98.74         1.283E-3      100.29        0.58965       29.43          
5444.4275     0.39248       -151.97       1.275E-3      97.86         1.274E-3      98.12         0.58967       29.27          
5445.9250     0.39534       -151.54       1.28E-3       96.52         1.277E-3      96.58         0.58973       29.12          
5447.4225     0.39761       -151.07       1.311E-3      95.69         1.246E-3      94.07         0.58989       28.97          
5448.9200     0.39905       -150.61       1.314E-3      93.58         1.302E-3      93.43         0.59019       28.81          
5450.4175     0.39962       -150.15       1.286E-3      91.93         1.306E-3      93.21         0.59055       28.67          
5451.9150     0.39963       -149.69       1.305E-3      91.37         1.271E-3      90.31         0.5911        28.54          
5453.4125     0.39881       -149.26       1.291E-3      88.66         1.281E-3      88.06         0.59164       28.41          
5454.9100     0.39723       -148.85       1.316E-3      86.02         1.30E-3       86.40         0.59239       28.31          
5456.4075     0.39497       -148.45       1.32E-3       84.48         1.284E-3      86.63         0.5931        28.21          
5457.9050     0.39205       -148.09       1.302E-3      83.17         1.272E-3      84.51         0.594         28.15          
5459.4025     0.38836       -147.76       1.266E-3      80.80         1.269E-3      82.20         0.59484       28.10          
5460.9000     0.38415       -147.46       1.285E-3      77.50         1.309E-3      81.54         0.59585       28.07          
5462.3975     0.3793        -147.24       1.277E-3      76.76         1.324E-3      79.63         0.59677       28.06          
5463.8950     0.37418       -147.07       1.293E-3      77.29         1.238E-3      76.91         0.59772       28.08          
5465.3925     0.36855       -146.97       1.307E-3      75.10         1.295E-3      76.36         0.59869       28.11          
5466.8900     0.36271       -146.90       1.282E-3      72.86         1.303E-3      73.78         0.59956       28.17          
5468.3875     0.35669       -146.92       1.301E-3      70.51         1.295E-3      72.93         0.60039       28.26          
5469.8850     0.35064       -147.00       1.309E-3      70.47         1.316E-3      70.84         0.60124       28.36          
5471.3825     0.3446        -147.15       1.287E-3      68.99         1.303E-3      69.71         0.60197       28.48          
5472.8800     0.33863       -147.37       1.30E-3       66.62         1.277E-3      69.45         0.60269       28.60          
5474.3775     0.33291       -147.65       1.307E-3      66.38         1.307E-3      66.39         0.60323       28.75          
5475.8750     0.32748       -147.97       1.305E-3      63.31         1.301E-3      65.36         0.60367       28.89          
5477.3725     0.32244       -148.34       1.319E-3      63.45         1.32E-3       63.36         0.60402       29.06          
5478.8700     0.3178        -148.71       1.301E-3      61.03         1.304E-3      60.96         0.60425       29.22          
5480.3675     0.3136        -149.07       1.296E-3      58.49         1.317E-3      58.56         0.60426       29.39          
5481.8650     0.30994       -149.41       1.30E-3       57.77         1.323E-3      56.96         0.60419       29.55          
5483.3625     0.30669       -149.72       1.30E-3       55.82         1.305E-3      57.03         0.60401       29.71          
5484.8600     0.30402       -149.97       1.304E-3      54.24         1.32E-3       53.94         0.60365       29.86          
5486.3575     0.30174       -150.14       1.297E-3      52.21         1.344E-3      51.95         0.60313       29.99          
5487.8550     0.30005       -150.25       1.303E-3      51.58         1.326E-3      52.25         0.60254       30.11          
5489.3525     0.29874       -150.21       1.295E-3      49.24         1.283E-3      47.30         0.60168       30.22          
5490.8500     0.29776       -150.07       1.321E-3      47.33         1.279E-3      46.72         0.60079       30.31          
5492.3475     0.29713       -149.79       1.321E-3      45.86         1.305E-3      46.71         0.59974       30.37          
5493.8450     0.29683       -149.36       1.289E-3      43.85         1.275E-3      44.22         0.59858       30.40          
5495.3425     0.29673       -148.80       1.284E-3      42.54         1.268E-3      42.60         0.59738       30.40          
5496.8400     0.29677       -148.09       1.283E-3      40.22         1.25E-3       41.55         0.5961        30.37          
5498.3375     0.29701       -147.23       1.293E-3      37.77         1.279E-3      40.81         0.59475       30.31          
5499.8350     0.29745       -146.21       1.293E-3      36.06         1.292E-3      38.11         0.59341       30.22          
5501.3325     0.29781       -145.05       1.295E-3      36.75         1.235E-3      36.42         0.59212       30.10          
5502.8300     0.29828       -143.77       1.217E-3      34.32         1.255E-3      35.43         0.59079       29.94          
5504.3275     0.2987        -142.38       1.224E-3      32.76         1.25E-3       34.16         0.58948       29.76          
5505.8250     0.2991        -140.86       1.242E-3      31.50         1.253E-3      33.30         0.58832       29.55          
5507.3225     0.29942       -139.23       1.203E-3      29.42         1.238E-3      29.96         0.58731       29.32          
5508.8200     0.29966       -137.49       1.206E-3      27.68         1.222E-3      28.06         0.58635       29.05          
5510.3175     0.29982       -135.70       1.188E-3      25.62         1.203E-3      26.36         0.58561       28.77          
5511.8150     0.29982       -133.82       1.205E-3      24.19         1.203E-3      27.32         0.58491       28.48          
5513.3125     0.29975       -131.89       1.196E-3      23.96         1.179E-3      24.89         0.58458       28.17          
5514.8100     0.29957       -129.90       1.204E-3      23.07         1.201E-3      23.51         0.58441       27.86          
5516.3075     0.29926       -127.91       1.194E-3      19.34         1.182E-3      21.77         0.58444       27.54          
5517.8050     0.29871       -125.90       1.165E-3      17.54         1.175E-3      20.37         0.58471       27.23          
5519.3025     0.29817       -123.89       1.159E-3      15.11         1.17E-3       18.49         0.58518       26.93          
5520.8000     0.29733       -121.89       1.174E-3      15.62         1.151E-3      17.67         0.58595       26.64          
5522.2975     0.29632       -119.94       1.153E-3      13.74         1.161E-3      16.95         0.58683       26.36          
5523.7950     0.29518       -118.02       1.14E-3       12.64         1.148E-3      13.51         0.588         26.11          
5525.2925     0.29387       -116.15       1.137E-3      11.84         1.126E-3      13.51         0.58937       25.88          
5526.7900     0.29258       -114.37       1.121E-3      9.55          1.136E-3      11.50         0.59075       25.69          
5528.2875     0.29112       -112.65       1.141E-3      7.27          1.126E-3      10.67         0.59243       25.53          
5529.7850     0.28947       -111.02       1.132E-3      6.20          1.096E-3      10.08         0.59408       25.40          
5531.2825     0.28782       -109.49       1.098E-3      3.75          1.127E-3      7.59          0.59596       25.31          
5532.7800     0.28627       -108.08       1.097E-3      3.65          1.118E-3      6.32          0.59783       25.24          
5534.2775     0.28477       -106.77       1.082E-3      2.32          1.133E-3      2.84          0.59981       25.23          
5535.7750     0.28324       -105.59       1.079E-3      0.94          1.099E-3      1.31          0.60177       25.25          
5537.2725     0.28186       -104.56       1.108E-3      -0.21         1.149E-3      0.62          0.60372       25.30          
5538.7700     0.28076       -103.65       1.066E-3      -1.50         1.106E-3      2.03          0.60555       25.39          
5540.2675     0.28          -102.88       1.106E-3      -2.72         1.098E-3      -2.41         0.60731       25.52          
5541.7650     0.27939       -102.23       1.059E-3      -2.24         1.11E-3       -1.66         0.60903       25.67          
5543.2625     0.27923       -101.72       1.08E-3       -5.56         1.113E-3      -4.33         0.61062       25.85          
5544.7600     0.27947       -101.35       1.062E-3      -5.75         1.098E-3      -4.90         0.61205       26.05          
5546.2575     0.28032       -101.09       1.072E-3      -5.87         1.075E-3      -5.10         0.61322       26.27          
5547.7550     0.28167       -100.94       1.065E-3      -8.63         1.07E-3       -6.24         0.61429       26.51          
5549.2525     0.2836        -100.85       1.067E-3      -8.95         1.055E-3      -7.47         0.61508       26.76          
5550.7500     0.28625       -100.86       1.053E-3      -10.26        1.116E-3      -7.59         0.61576       27.02          
5552.2475     0.28946       -100.89       1.043E-3      -12.40        1.077E-3      -10.75        0.61614       27.29          
5553.7450     0.29333       -100.97       1.034E-3      -10.73        1.044E-3      -10.90        0.6163        27.55          
5555.2425     0.29804       -101.06       1.055E-3      -12.16        1.065E-3      -11.27        0.61616       27.80          
5556.7400     0.30321       -101.12       1.027E-3      -13.64        1.061E-3      -11.28        0.61588       28.04          
5558.2375     0.30905       -101.15       1.052E-3      -14.47        1.032E-3      -15.23        0.61525       28.26          
5559.7350     0.3154        -101.13       1.029E-3      -14.55        1.068E-3      -15.12        0.61454       28.47          
5561.2325     0.32244       -101.08       1.028E-3      -15.83        1.071E-3      -15.65        0.61355       28.65          
5562.7300     0.32966       -100.93       1.042E-3      -15.96        1.071E-3      -17.69        0.61235       28.81          
5564.2275     0.33734       -100.73       1.025E-3      -18.56        1.058E-3      -17.13        0.61094       28.93          
5565.7250     0.34525       -100.47       1.04E-3       -18.78        1.045E-3      -17.56        0.60947       29.03          
5567.2225     0.35324       -100.12       1.046E-3      -20.07        1.055E-3      -18.72        0.60788       29.09          
5568.7200     0.3613        -99.70        1.056E-3      -20.91        1.059E-3      -19.93        0.60613       29.12          
5570.2175     0.36931       -99.24        1.041E-3      -21.90        1.066E-3      -21.75        0.60432       29.11          
5571.7150     0.37723       -98.70        1.031E-3      -23.84        1.051E-3      -22.08        0.60251       29.05          
5573.2125     0.38484       -98.13        1.038E-3      -25.67        1.03E-3       -24.11        0.60068       28.96          
5574.7100     0.39214       -97.49        1.078E-3      -26.45        1.072E-3      -25.65        0.59889       28.83          
5576.2075     0.39913       -96.83        1.062E-3      -28.47        1.035E-3      -25.28        0.59717       28.67          
5577.7050     0.40562       -96.15        1.044E-3      -28.46        1.067E-3      -27.11        0.59561       28.48          
5579.2025     0.41154       -95.43        1.068E-3      -30.86        1.099E-3      -28.22        0.59414       28.25          
5580.7000     0.41688       -94.72        1.055E-3      -32.08        1.074E-3      -29.94        0.5928        28.01          
5582.1975     0.42163       -94.00        1.07E-3       -32.59        1.077E-3      -31.18        0.59171       27.73          
5583.6950     0.42576       -93.28        1.062E-3      -34.45        1.097E-3      -30.94        0.59083       27.43          
5585.1925     0.42909       -92.58        1.07E-3       -35.73        1.083E-3      -34.16        0.59013       27.13          
5586.6900     0.43168       -91.92        1.113E-3      -38.23        1.072E-3      -35.64        0.58974       26.82          
5588.1875     0.43361       -91.29        1.09E-3       -39.78        1.10E-3       -37.53        0.58958       26.51          
5589.6850     0.43481       -90.70        1.078E-3      -39.73        1.107E-3      -37.87        0.58964       26.21          
5591.1825     0.43526       -90.16        1.118E-3      -42.69        1.106E-3      -40.45        0.59002       25.91          
5592.6800     0.43489       -89.66        1.092E-3      -43.49        1.123E-3      -42.52        0.59068       25.63          
5594.1775     0.43404       -89.23        1.094E-3      -45.73        1.108E-3      -43.33        0.59151       25.37          
5595.6750     0.43248       -88.90        1.114E-3      -46.42        1.134E-3      -45.88        0.59257       25.13          
5597.1725     0.43048       -88.63        1.101E-3      -47.24        1.128E-3      -46.52        0.59393       24.93          
5598.6700     0.428         -88.45        1.13E-3       -49.39        1.136E-3      -47.20        0.59536       24.76          
5600.1675     0.42516       -88.34        1.138E-3      -50.16        1.175E-3      -48.50        0.59696       24.61          
5601.6650     0.42207       -88.34        1.106E-3      -52.97        1.159E-3      -51.12        0.59861       24.51          
5603.1625     0.41865       -88.42        1.152E-3      -52.87        1.187E-3      -51.35        0.6004        24.44          
5604.6600     0.41517       -88.60        1.157E-3      -53.98        1.16E-3       -52.58        0.60214       24.41          
5606.1575     0.41174       -88.88        1.188E-3      -56.46        1.172E-3      -55.44        0.60403       24.41          
5607.6550     0.40854       -89.25        1.162E-3      -55.73        1.182E-3      -56.27        0.60582       24.44          
5609.1525     0.4054        -89.68        1.167E-3      -58.82        1.189E-3      -56.11        0.60753       24.52          
5610.6500     0.40271       -90.19        1.169E-3      -59.91        1.17E-3       -58.04        0.60921       24.61          
5612.1475     0.40027       -90.76        1.188E-3      -61.23        1.15E-3       -61.00        0.61078       24.74          
5613.6450     0.39823       -91.37        1.208E-3      -63.22        1.229E-3      -61.51        0.61207       24.89          
5615.1425     0.39668       -92.02        1.205E-3      -64.27        1.213E-3      -64.00        0.6133        25.05          
5616.6400     0.39583       -92.68        1.22E-3       -65.85        1.246E-3      -66.12        0.61433       25.24          
5618.1375     0.39541       -93.33        1.219E-3      -65.81        1.224E-3      -67.28        0.61515       25.43          
5619.6350     0.39538       -93.94        1.219E-3      -69.73        1.241E-3      -67.86        0.6158        25.62          
5621.1325     0.39587       -94.52        1.222E-3      -71.80        1.23E-3       -70.90        0.61623       25.82          
5622.6300     0.39674       -95.03        1.281E-3      -71.81        1.246E-3      -72.54        0.61647       26.03          
5624.1275     0.39779       -95.48        1.232E-3      -74.31        1.244E-3      -74.22        0.61648       26.22          
5625.6250     0.39907       -95.83        1.239E-3      -75.31        1.259E-3      -76.16        0.61621       26.41          
5627.1225     0.40062       -96.09        1.24E-3       -78.52        1.302E-3      -78.43        0.61574       26.57          
5628.6200     0.4021        -96.25        1.246E-3      -80.41        1.249E-3      -79.01        0.6151        26.72          
5630.1175     0.40334       -96.30        1.241E-3      -82.19        1.278E-3      -81.12        0.61424       26.85          
5631.6150     0.40453       -96.22        1.243E-3      -83.91        1.261E-3      -82.81        0.61329       26.95          
5633.1125     0.40542       -96.04        1.252E-3      -84.29        1.285E-3      -84.90        0.61212       27.03          
5634.6100     0.40605       -95.73        1.255E-3      -87.53        1.245E-3      -85.62        0.61076       27.06          
5636.1075     0.40613       -95.32        1.254E-3      -89.30        1.25E-3       -89.44        0.6094        27.07          
5637.6050     0.40581       -94.79        1.253E-3      -92.09        1.254E-3      -91.23        0.60796       27.06          
5639.1025     0.40492       -94.15        1.233E-3      -92.72        1.255E-3      -93.66        0.60644       27.00          
5640.6000     0.40363       -93.42        1.257E-3      -94.95        1.287E-3      -94.71        0.60498       26.90          
5642.0975     0.40171       -92.57        1.257E-3      -97.78        1.197E-3      -96.29        0.60354       26.78          
5643.5950     0.3993        -91.64        1.211E-3      -99.36        1.244E-3      -98.83        0.60224       26.62          
5645.0925     0.39625       -90.63        1.223E-3      -100.58       1.267E-3      -99.44        0.601         26.44          
5646.5900     0.3928        -89.54        1.221E-3      -103.83       1.216E-3      -103.26       0.59986       26.22          
5648.0875     0.38876       -88.38        1.205E-3      -105.12       1.228E-3      -103.78       0.59889       25.99          
5649.5850     0.38433       -87.17        1.203E-3      -108.16       1.228E-3      -106.26       0.5981        25.74          
5651.0825     0.37965       -85.89        1.202E-3      -109.14       1.21E-3       -108.42       0.59758       25.47          
5652.5800     0.3744        -84.59        1.208E-3      -111.61       1.215E-3      -110.03       0.59729       25.20          
5654.0775     0.36898       -83.26        1.205E-3      -113.85       1.187E-3      -110.09       0.5972        24.93          
5655.5750     0.36331       -81.92        1.178E-3      -116.24       1.194E-3      -113.87       0.59735       24.66          
5657.0725     0.35741       -80.56        1.18E-3       -117.36       1.205E-3      -116.41       0.59782       24.40          
5658.5700     0.35138       -79.22        1.167E-3      -118.07       1.191E-3      -117.06       0.5984        24.16          
5660.0675     0.34521       -77.91        1.142E-3      -120.39       1.199E-3      -120.44       0.59937       23.93          
5661.5650     0.33915       -76.62        1.141E-3      -122.68       1.156E-3      -120.61       0.60043       23.73          
5663.0625     0.33297       -75.38        1.127E-3      -123.40       1.177E-3      -121.84       0.60165       23.57          
5664.5600     0.32697       -74.21        1.128E-3      -126.42       1.164E-3      -124.03       0.60302       23.42          
5666.0575     0.32117       -73.09        1.15E-3       -126.15       1.151E-3      -126.94       0.60457       23.30          
5667.5550     0.31559       -72.05        1.113E-3      -129.04       1.163E-3      -128.30       0.60623       23.23          
5669.0525     0.31023       -71.09        1.114E-3      -130.10       1.146E-3      -130.71       0.60795       23.19          
5670.5500     0.30532       -70.21        1.074E-3      -133.05       1.119E-3      -131.33       0.60973       23.19          
5672.0475     0.30089       -69.43        1.11E-3       -134.06       1.118E-3      -130.94       0.61148       23.23          
5673.5450     0.29687       -68.73        1.068E-3      -134.81       1.102E-3      -136.14       0.61312       23.29          
5675.0425     0.29355       -68.14        1.065E-3      -135.51       1.078E-3      -136.33       0.61474       23.39          
5676.5400     0.29077       -67.60        1.043E-3      -137.77       1.082E-3      -136.29       0.61634       23.53          
5678.0375     0.28868       -67.16        1.032E-3      -138.31       1.038E-3      -140.02       0.61766       23.68          
5679.5350     0.28732       -66.77        9.98E-4       -140.40       1.049E-3      -140.12       0.61901       23.87          
5681.0325     0.28656       -66.45        1.02E-3       -141.62       1.031E-3      -142.51       0.62008       24.07          
5682.5300     0.28662       -66.15        1.019E-3      -144.24       1.049E-3      -143.59       0.621         24.29          
5684.0275     0.28746       -65.86        9.753E-4      -145.43       1.016E-3      -145.74       0.6217        24.53          
5685.5250     0.28907       -65.59        9.582E-4      -147.11       9.666E-4      -146.46       0.62213       24.77          
5687.0225     0.29141       -65.31        9.538E-4      -146.91       9.938E-4      -145.93       0.62233       25.02          
5688.5200     0.29438       -64.98        9.535E-4      -148.42       9.992E-4      -149.15       0.62235       25.27          
5690.0175     0.29796       -64.62        9.247E-4      -149.96       9.748E-4      -149.61       0.62212       25.50          
5691.5150     0.30212       -64.22        9.357E-4      -151.72       9.78E-4       -149.75       0.62158       25.74          
5693.0125     0.3068        -63.74        9.482E-4      -151.17       9.321E-4      -151.76       0.6207        25.95          
5694.5100     0.31185       -63.21        9.249E-4      -152.79       9.101E-4      -152.71       0.61981       26.15          
5696.0075     0.31733       -62.60        9.251E-4      -153.39       9.568E-4      -152.27       0.61848       26.32          
5697.5050     0.32299       -61.94        8.864E-4      -154.94       9.242E-4      -154.96       0.61708       26.46          
5699.0025     0.32894       -61.20        8.856E-4      -156.67       9.036E-4      -154.67       0.61548       26.57          
5700.5000     0.33494       -60.40        8.845E-4      -158.05       8.916E-4      -155.91       0.61366       26.64          
5701.9975     0.34103       -59.54        8.634E-4      -156.91       8.719E-4      -155.91       0.61175       26.68          
5703.4950     0.34704       -58.60        8.399E-4      -158.51       8.97E-4       -156.38       0.60981       26.67          
5704.9925     0.35291       -57.63        8.755E-4      -160.19       8.802E-4      -159.06       0.6077        26.63          
5706.4900     0.35856       -56.62        8.807E-4      -160.87       8.619E-4      -160.57       0.60572       26.54          
5707.9875     0.36393       -55.56        8.499E-4      -161.62       8.785E-4      -158.78       0.60364       26.41          
5709.4850     0.36895       -54.48        8.484E-4      -162.31       8.804E-4      -161.54       0.60173       26.24          
5710.9825     0.3737        -53.37        8.735E-4      -164.06       8.562E-4      -161.31       0.59987       26.04          
5712.4800     0.37795       -52.24        8.429E-4      -164.91       8.839E-4      -163.88       0.59828       25.80          
5713.9775     0.38179       -51.10        8.389E-4      -163.11       8.702E-4      -164.40       0.59677       25.51          
5715.4750     0.38522       -49.96        8.301E-4      -165.10       8.606E-4      -164.19       0.59548       25.21          
5716.9725     0.38805       -48.83        8.292E-4      -164.77       8.788E-4      -166.33       0.59445       24.89          
5718.4700     0.39035       -47.72        8.343E-4      -169.74       8.685E-4      -165.29       0.59374       24.55          
5719.9675     0.39217       -46.61        8.112E-4      -169.89       8.702E-4      -166.06       0.59321       24.20          
5721.4650     0.39341       -45.55        8.328E-4      -168.69       8.842E-4      -169.69       0.59308       23.85          
5722.9625     0.39414       -44.53        7.99E-4       -171.08       8.498E-4      -168.66       0.59309       23.49          
5724.4600     0.39439       -43.55        8.159E-4      -172.10       8.606E-4      -170.28       0.59342       23.15          
5725.9575     0.39419       -42.63        8.50E-4       -171.91       8.567E-4      -173.43       0.59404       22.82          
5727.4550     0.39351       -41.77        8.081E-4      -175.21       8.497E-4      -174.52       0.59495       22.50          
5728.9525     0.39252       -40.97        8.149E-4      -174.86       8.671E-4      -173.42       0.59612       22.21          
5730.4500     0.39119       -40.25        7.933E-4      -175.21       8.137E-4      -175.16       0.59749       21.94          
5731.9475     0.38959       -39.61        8.361E-4      -175.69       8.19E-4       -175.50       0.5991        21.72          
5733.4450     0.38775       -39.05        8.132E-4      -178.04       7.963E-4      -177.95       0.60092       21.52          
5734.9425     0.38589       -38.59        8.009E-4      -179.26       8.088E-4      -178.00       0.60284       21.36          
5736.4400     0.38392       -38.22        7.968E-4      -179.79       8.559E-4      -177.93       0.60473       21.25          
5737.9375     0.38198       -37.94        8.318E-4      -178.63       8.406E-4      -179.78       0.60678       21.18          
5739.4350     0.38016       -37.73        8.119E-4      178.58        7.648E-4      -179.35       0.60881       21.14          
5740.9325     0.37848       -37.63        7.972E-4      -179.28       7.987E-4      -179.74       0.61083       21.14          
5742.4300     0.37718       -37.61        8.144E-4      178.57        7.904E-4      177.77        0.61285       21.18          
5743.9275     0.37611       -37.65        8.25E-4       178.28        8.322E-4      176.42        0.61476       21.26          
5745.4250     0.37555       -37.77        8.154E-4      175.95        8.167E-4      178.86        0.61648       21.37          
5746.9225     0.3754        -37.94        8.173E-4      176.20        8.156E-4      178.58        0.61819       21.51          
5748.4200     0.3758        -38.17        8.215E-4      174.69        8.331E-4      173.90        0.61961       21.68          
5749.9175     0.37669       -38.40        8.481E-4      176.41        8.264E-4      173.41        0.6208        21.88          
5751.4150     0.3782        -38.66        8.089E-4      172.19        8.772E-4      170.44        0.62184       22.08          
5752.9125     0.38025       -38.93        8.62E-4       171.22        8.40E-4       173.15        0.62257       22.30          
5754.4100     0.38281       -39.18        8.456E-4      172.41        8.28E-4       170.95        0.62306       22.53          
5755.9075     0.38588       -39.41        8.554E-4      168.57        8.936E-4      170.44        0.62329       22.76          
5757.4050     0.38964       -39.59        8.514E-4      168.71        8.517E-4      171.77        0.62338       22.98          
5758.9025     0.39366       -39.75        8.483E-4      168.18        8.856E-4      170.02        0.62308       23.20          
5760.4000     0.39811       -39.84        8.883E-4      165.48        8.893E-4      167.49        0.62253       23.40          
5761.8975     0.40272       -39.90        9.137E-4      166.64        9.207E-4      167.76        0.62177       23.59          
5763.3950     0.40763       -39.88        9.262E-4      164.32        9.051E-4      165.78        0.62075       23.76          
5764.8925     0.41266       -39.81        9.043E-4      164.60        9.053E-4      166.29        0.61957       23.90          
5766.3900     0.41752       -39.68        9.372E-4      162.41        9.287E-4      161.25        0.61822       24.00          
5767.8875     0.42239       -39.48        9.283E-4      160.59        9.747E-4      163.14        0.61677       24.08          
5769.3850     0.42711       -39.24        9.571E-4      161.38        9.82E-4       160.05        0.61516       24.12          
5770.8825     0.43158       -38.94        9.496E-4      157.63        9.491E-4      160.21        0.61345       24.13          
5772.3800     0.43558       -38.58        9.841E-4      157.18        9.851E-4      158.68        0.61167       24.09          
5773.8775     0.43915       -38.19        9.668E-4      152.89        1.025E-3      159.06        0.61006       24.01          
5775.3750     0.44219       -37.75        9.898E-4      154.04        1.011E-3      153.98        0.60836       23.91          
5776.8725     0.44456       -37.28        1.01E-3       153.36        1.026E-3      154.29        0.60678       23.76          
5778.3700     0.44643       -36.80        9.955E-4      150.45        1.049E-3      154.55        0.6053        23.57          
5779.8675     0.44749       -36.28        9.951E-4      151.00        1.056E-3      152.60        0.60392       23.35          
5781.3650     0.4477        -35.74        1.021E-3      146.31        1.071E-3      148.51        0.60279       23.11          
5782.8625     0.44725       -35.18        1.029E-3      147.24        1.108E-3      145.62        0.60176       22.84          
5784.3600     0.44581       -34.63        1.016E-3      144.02        1.063E-3      145.62        0.60106       22.55          
5785.8575     0.44377       -34.06        1.064E-3      140.95        1.071E-3      146.26        0.60053       22.24          
5787.3550     0.44095       -33.50        1.054E-3      140.89        1.068E-3      139.52        0.60032       21.92          
5788.8525     0.43742       -32.94        1.052E-3      138.63        1.132E-3      140.94        0.60045       21.59          
5790.3500     0.43304       -32.40        1.052E-3      135.60        1.087E-3      139.33        0.60081       21.27          
5791.8475     0.42834       -31.87        1.056E-3      132.86        1.118E-3      138.83        0.60139       20.96          
5793.3450     0.42299       -31.36        1.048E-3      133.79        1.098E-3      134.63        0.60222       20.65          
5794.8425     0.41703       -30.88        1.078E-3      130.76        1.17E-3       129.43        0.60342       20.37          
5796.3400     0.41083       -30.42        1.102E-3      128.18        1.099E-3      131.06        0.60479       20.11          
5797.8375     0.40421       -30.01        1.056E-3      127.63        1.079E-3      128.03        0.60636       19.86          
5799.3350     0.39748       -29.64        1.073E-3      124.30        1.067E-3      124.21        0.60817       19.66          
5800.8325     0.39068       -29.32        1.087E-3      123.92        1.147E-3      124.75        0.61008       19.50          
5802.3300     0.38372       -29.04        1.082E-3      121.72        1.102E-3      121.71        0.61214       19.37          
5803.8275     0.37699       -28.81        1.116E-3      119.52        1.094E-3      118.33        0.61421       19.29          
5805.3250     0.3704        -28.64        1.101E-3      117.60        1.121E-3      119.72        0.61643       19.23          
5806.8225     0.36405       -28.50        1.106E-3      114.71        1.088E-3      115.32        0.61865       19.23          
5808.3200     0.35796       -28.41        1.081E-3      113.89        1.093E-3      113.74        0.62083       19.27          
5809.8175     0.35225       -28.36        1.109E-3      112.40        1.10E-3       112.54        0.6229        19.35          
5811.3150     0.34708       -28.33        1.111E-3      109.85        1.098E-3      107.24        0.6249        19.46          
5812.8125     0.34238       -28.32        1.091E-3      107.60        1.08E-3       105.39        0.62677       19.61          
5814.3100     0.33831       -28.32        1.092E-3      105.64        1.093E-3      106.97        0.62847       19.79          
5815.8075     0.33487       -28.30        1.089E-3      103.38        1.121E-3      101.67        0.62993       20.00          
5817.3050     0.33185       -28.26        1.083E-3      101.16        1.105E-3      101.81        0.6312        20.23          
5818.8025     0.32953       -28.19        1.077E-3      98.68         1.111E-3      99.88         0.63236       20.48          
5820.3000     0.32781       -28.07        1.053E-3      96.99         1.108E-3      99.40         0.63323       20.75          
5821.7975     0.32663       -27.89        1.066E-3      94.87         1.083E-3      96.76         0.6338        21.04          
5823.2950     0.32595       -27.64        1.053E-3      92.25         1.034E-3      94.21         0.63409       21.33          
5824.7925     0.32571       -27.30        1.054E-3      90.58         1.037E-3      92.35         0.63424       21.62          
5826.2900     0.32606       -26.87        1.029E-3      90.79         1.058E-3      89.69         0.63404       21.91          
5827.7875     0.3268        -26.35        1.033E-3      89.95         1.012E-3      88.06         0.63374       22.19          
5829.2850     0.32783       -25.72        1.021E-3      85.33         1.055E-3      86.15         0.63308       22.46          
5830.7825     0.32926       -25.00        1.014E-3      83.78         1.013E-3      85.00         0.63219       22.71          
5832.2800     0.33085       -24.19        1.019E-3      81.06         9.891E-4      84.71         0.63117       22.95          
5833.7775     0.3327        -23.28        9.785E-4      80.89         1.002E-3      81.72         0.6299        23.17          
5835.2750     0.33456       -22.29        9.849E-4      80.88         9.786E-4      81.89         0.62846       23.35          
5836.7725     0.33658       -21.22        9.659E-4      76.28         9.841E-4      78.51         0.62685       23.50          
5838.2700     0.3386        -20.06        9.455E-4      75.43         9.478E-4      81.32         0.62523       23.63          
5839.7675     0.34064       -18.84        9.295E-4      76.53         9.517E-4      80.21         0.6234        23.72          
5841.2650     0.34241       -17.56        8.794E-4      76.69         9.413E-4      77.05         0.62165       23.76          
5842.7625     0.34414       -16.24        9.38E-4       73.32         9.562E-4      78.46         0.61973       23.78          
5844.2600     0.34566       -14.86        9.042E-4      74.10         9.005E-4      74.37         0.61786       23.76          
5845.7575     0.34694       -13.46        8.969E-4      70.48         8.449E-4      74.83         0.61599       23.71          
5847.2550     0.34791       -12.02        8.854E-4      69.23         9.274E-4      72.74         0.61416       23.60          
5848.7525     0.34869       -10.57        9.047E-4      67.86         9.449E-4      72.49         0.61241       23.47          
5850.2500     0.34909       -9.10         8.853E-4      67.90         8.858E-4      70.13         0.61069       23.30          
5851.7475     0.34914       -7.63         8.834E-4      68.22         8.755E-4      67.05         0.60922       23.10          
5853.2450     0.34887       -6.19         9.002E-4      66.28         9.09E-4       67.54         0.6079        22.88          
5854.7425     0.34824       -4.73         8.841E-4      67.18         8.774E-4      63.58         0.60679       22.62          
5856.2400     0.34724       -3.32         8.709E-4      64.48         8.765E-4      59.61         0.60585       22.36          
5857.7375     0.34592       -1.91         8.385E-4      62.84         8.511E-4      60.16         0.60513       22.06          
5859.2350     0.34422       -0.57         8.479E-4      61.56         8.54E-4       61.72         0.60454       21.77          
5860.7325     0.34234       0.75          8.344E-4      64.34         8.363E-4      60.79         0.60426       21.46          
5862.2300     0.3401        1.99          8.335E-4      60.57         8.677E-4      56.41         0.6042        21.16          
5863.7275     0.33775       3.18          8.172E-4      57.34         8.463E-4      55.40         0.6043        20.85          
5865.2250     0.33524       4.30          8.276E-4      56.62         8.002E-4      56.30         0.60464       20.56          
5866.7225     0.33265       5.35          8.245E-4      56.32         7.988E-4      53.00         0.60523       20.28          
5868.2200     0.32995       6.32          7.701E-4      58.05         7.927E-4      54.26         0.60594       20.01          
5869.7175     0.3273        7.20          8.204E-4      52.11         8.311E-4      52.26         0.6068        19.77          
5871.2150     0.32472       7.98          7.965E-4      52.15         8.161E-4      52.68         0.60786       19.55          
5872.7125     0.32226       8.70          7.957E-4      48.29         7.77E-4       51.89         0.60905       19.36          
5874.2100     0.32          9.30          7.935E-4      52.72         7.847E-4      49.71         0.61026       19.19          
5875.7075     0.31801       9.81          7.833E-4      49.54         8.123E-4      52.20         0.61158       19.06          
5877.2050     0.31641       10.24         7.85E-4       49.26         8.041E-4      45.59         0.61295       18.95          
5878.7025     0.31512       10.58         7.879E-4      46.82         7.919E-4      48.99         0.6143        18.87          
5880.2000     0.31424       10.83         7.651E-4      47.09         7.751E-4      46.61         0.61563       18.82          
5881.6975     0.31388       11.03         7.522E-4      44.27         8.256E-4      46.50         0.61698       18.80          
5883.1950     0.31404       11.16         7.70E-4       48.41         8.666E-4      52.96         0.61824       18.81          
5884.6925     0.31473       11.26         7.741E-4      49.44         7.442E-4      46.56         0.61945       18.84          
5886.1900     0.31598       11.30         7.447E-4      44.50         7.567E-4      42.91         0.62057       18.91          
5887.6875     0.31783       11.34         7.566E-4      44.74         7.864E-4      44.84         0.62152       18.98          
5889.1850     0.32034       11.38         7.918E-4      44.16         7.666E-4      49.13         0.62238       19.07          
5890.6825     0.32329       11.42         7.633E-4      42.90         7.858E-4      49.63         0.62322       19.18          
5892.1800     0.32678       11.50         7.627E-4      45.49         7.912E-4      47.67         0.62381       19.30          
5893.6775     0.33084       11.62         7.851E-4      41.17         8.112E-4      47.91         0.62432       19.43          
5895.1750     0.33534       11.77         7.928E-4      39.29         7.979E-4      43.96         0.62466       19.56          
5896.6725     0.34012       12.01         7.932E-4      42.30         8.087E-4      45.51         0.6249        19.69          
5898.1700     0.34529       12.27         8.036E-4      40.91         8.316E-4      44.49         0.62503       19.83          
5899.6675     0.35077       12.61         7.266E-4      38.10         7.597E-4      38.54         0.62501       19.95          
5901.1650     0.35639       13.02         7.683E-4      37.04         8.433E-4      41.59         0.62489       20.07          
5902.6625     0.36216       13.49         7.971E-4      38.00         8.351E-4      37.66         0.62468       20.18          
5904.1600     0.36786       14.02         7.622E-4      38.24         7.896E-4      41.12         0.62429       20.27          
5905.6575     0.37349       14.62         7.832E-4      35.58         7.903E-4      37.42         0.6239        20.36          
5907.1550     0.37903       15.27         7.796E-4      35.68         7.887E-4      34.03         0.62339       20.42          
5908.6525     0.38436       15.97         8.281E-4      33.94         8.026E-4      34.31         0.62286       20.47          
5910.1500     0.38941       16.71         8.449E-4      34.24         8.916E-4      31.88         0.62222       20.49          
5911.6475     0.39403       17.49         8.519E-4      29.73         8.367E-4      33.20         0.62157       20.49          
5913.1450     0.39848       18.31         8.761E-4      28.64         8.422E-4      28.04         0.62086       20.48          
5914.6425     0.40231       19.15         8.247E-4      28.28         8.479E-4      29.76         0.62021       20.44          
5916.1400     0.40571       20.01         8.415E-4      26.59         8.778E-4      28.02         0.61954       20.37          
5917.6375     0.40848       20.87         9.026E-4      27.69         9.397E-4      28.03         0.61893       20.29          
5919.1350     0.41071       21.73         8.98E-4       26.11         8.49E-4       24.38         0.61833       20.19          
5920.6325     0.41228       22.59         8.668E-4      24.89         8.421E-4      25.03         0.61781       20.07          
5922.1300     0.41319       23.42         8.747E-4      21.17         8.97E-4       24.66         0.61734       19.92          
5923.6275     0.41345       24.24         8.87E-4       23.66         9.461E-4      21.85         0.61694       19.78          
5925.1250     0.41313       25.03         8.994E-4      21.17         8.954E-4      19.90         0.61662       19.61          
5926.6225     0.41231       25.79         9.336E-4      19.74         9.448E-4      18.42         0.61649       19.44          
5928.1200     0.41078       26.51         9.086E-4      17.95         9.274E-4      16.13         0.61645       19.26          
5929.6175     0.40869       27.18         9.209E-4      16.46         9.484E-4      16.24         0.6164        19.07          
5931.1150     0.40605       27.80         9.552E-4      16.82         1.00E-3       16.25         0.61659       18.90          
5932.6125     0.40306       28.36         9.515E-4      13.99         9.429E-4      10.44         0.61684       18.71          
5934.1100     0.39965       28.84         9.469E-4      11.97         9.594E-4      13.76         0.61717       18.55          
5935.6075     0.39598       29.24         9.501E-4      12.89         9.823E-4      10.86         0.61764       18.38          
5937.1050     0.39206       29.58         9.99E-4       10.87         9.683E-4      11.89         0.61814       18.23          
5938.6025     0.38809       29.80         9.645E-4      7.93          9.74E-4       10.11         0.6187        18.10          
5940.1000     0.38398       29.96         1.013E-3      8.86          9.414E-4      7.24          0.61934       17.98          
5941.5975     0.37994       30.02         9.792E-4      4.11          9.923E-4      4.81          0.62009       17.87          
5943.0950     0.37608       29.99         1.012E-3      5.00          1.012E-3      6.51          0.62081       17.79          
5944.5925     0.37222       29.87         1.035E-3      1.69          1.041E-3      4.20          0.62162       17.74          
5946.0900     0.36865       29.66         9.545E-4      -1.52         1.026E-3      -0.11         0.62236       17.70          
5947.5875     0.3655        29.36         1.03E-3       -1.84         1.035E-3      2.62          0.62312       17.69          
5949.0850     0.36284       28.98         1.088E-3      -3.06         1.078E-3      -0.01         0.62387       17.68          
5950.5825     0.36059       28.57         1.093E-3      -3.16         1.088E-3      1.14          0.62454       17.71          
5952.0800     0.35865       28.10         1.102E-3      -6.39         1.028E-3      -4.31         0.62527       17.75          
5953.5775     0.35732       27.61         1.137E-3      -6.97         1.077E-3      -5.87         0.62589       17.81          
5955.0750     0.35622       27.13         1.098E-3      -7.35         1.063E-3      -7.82         0.62647       17.88          
5956.5725     0.35581       26.61         1.099E-3      -10.30        1.067E-3      -9.43         0.62701       17.97          
5958.0700     0.35562       26.12         1.127E-3      -12.82        1.129E-3      -12.06        0.62751       18.07          
5959.5675     0.35587       25.69         1.113E-3      -15.58        1.131E-3      -14.96        0.62782       18.18          
5961.0650     0.35642       25.31         1.11E-3       -15.24        1.14E-3       -14.21        0.6281        18.30          
5962.5625     0.35697       25.01         1.11E-3       -20.05        1.146E-3      -20.07        0.62835       18.43          
5964.0600     0.35776       24.81         1.108E-3      -22.59        1.187E-3      -23.67        0.62855       18.55          
5965.5575     0.35853       24.69         1.11E-3       -22.34        1.13E-3       -19.97        0.62852       18.67          
5967.0550     0.35935       24.70         1.126E-3      -26.97        1.155E-3      -28.56        0.62841       18.79          
5968.5525     0.36003       24.82         1.152E-3      -29.45        1.187E-3      -29.55        0.62825       18.91          
5970.0500     0.36057       25.07         1.167E-3      -34.99        1.186E-3      -33.90        0.62806       19.02          
5971.5475     0.36093       25.47         1.162E-3      -33.13        1.205E-3      -37.29        0.62768       19.11          
5973.0450     0.36107       25.97         1.13E-3       -35.78        1.195E-3      -37.82        0.62726       19.19          
5974.5425     0.36094       26.64         1.144E-3      -37.85        1.178E-3      -40.19        0.62675       19.25          
5976.0400     0.36058       27.43         1.145E-3      -42.51        1.195E-3      -43.12        0.62619       19.29          
5977.5375     0.35973       28.33         1.078E-3      -42.06        1.186E-3      -46.24        0.6255        19.32          
5979.0350     0.35854       29.35         1.107E-3      -44.39        1.142E-3      -45.96        0.62486       19.31          
5980.5325     0.35697       30.47         1.094E-3      -47.29        1.143E-3      -47.71        0.62413       19.29          
5982.0300     0.35512       31.69         1.08E-3       -49.35        1.18E-3       -50.04        0.62342       19.24          
5983.5275     0.35281       32.99         1.111E-3      -52.06        1.156E-3      -52.90        0.62278       19.17          
5985.0250     0.35018       34.35         1.077E-3      -55.47        1.125E-3      -53.60        0.622         19.08          
5986.5225     0.34713       35.79         1.079E-3      -55.04        1.131E-3      -54.37        0.62129       18.95          
5988.0200     0.34376       37.25         1.056E-3      -59.69        1.106E-3      -57.22        0.62071       18.80          
5989.5175     0.34004       38.79         1.021E-3      -59.69        1.145E-3      -61.00        0.62014       18.63          
5991.0150     0.336         40.32         1.054E-3      -61.39        1.077E-3      -61.20        0.61969       18.44          
5992.5125     0.33164       41.85         9.974E-4      -63.57        1.015E-3      -65.16        0.61928       18.24          
5994.0100     0.32692       43.40         1.058E-3      -65.61        1.074E-3      -64.32        0.61899       18.03          
5995.5075     0.32218       44.91         1.026E-3      -67.66        1.077E-3      -64.48        0.61884       17.81          
5997.0050     0.31701       46.42         9.885E-4      -69.49        1.054E-3      -68.07        0.61869       17.57          
5998.5025     0.31186       47.90         1.008E-3      -70.06        1.015E-3      -68.58        0.61879       17.33          
6000.0000     0.30643       49.32         1.009E-3      -74.38        9.39E-4       -72.65        0.61909       17.10          
