!    08/05/2026   14:37:27 
! Ref Plane: 0.000 mm
# MHZ S MA R  50
!
10.0000       1.00105       -178.85       9.552E-5      -95.57        1.346E-4      -61.83        0.18944       -16.32         
12.9900       1.00133       -178.56       3.12E-5       -90.64        6.14E-5       125.67        0.18894       -19.74         
15.9800       1.00172       -178.27       6.916E-5      98.86         3.908E-5      77.86         0.18669       -24.29         
18.9700       1.00197       -177.97       3.917E-5      132.51        1.007E-4      8.49          0.18089       -28.21         
21.9600       1.00234       -177.68       5.755E-5      50.81         3.97E-5       30.11         0.17547       -29.43         
24.9500       1.00257       -177.38       5.364E-5      55.83         1.477E-4      46.71         0.18368       -30.34         
27.9400       1.00285       -177.09       5.831E-5      100.70        5.297E-5      19.71         0.19442       -34.27         
30.9300       1.00305       -176.80       8.779E-5      -54.45        8.588E-5      -0.51         0.20065       -39.73         
33.9200       1.00321       -176.51       1.103E-4      -55.96        1.82E-5       -13.89        0.20345       -43.92         
36.9100       1.00329       -176.21       8.286E-5      -45.68        5.039E-5      94.43         0.20785       -47.45         
39.9000       1.00326       -175.92       6.588E-5      -90.70        1.017E-4      9.65          0.21311       -50.96         
42.8900       1.00322       -175.63       6.648E-5      -107.38       2.592E-5      165.60        0.21782       -54.29         
45.8800       1.00335       -175.35       6.952E-5      -10.73        8.963E-5      -0.54         0.22201       -57.27         
48.8700       1.00328       -175.00       1.299E-4      18.77         3.21E-5       40.35         0.22416       -60.02         
51.8600       1.00299       -174.76       9.598E-5      -81.09        1.559E-4      -66.51        0.22593       -61.96         
54.8500       1.00406       -174.55       7.092E-5      -93.46        6.535E-5      -67.77        0.23006       -63.43         
57.8400       1.00306       -174.17       7.966E-5      -134.05       8.33E-5       -61.15        0.23401       -65.04         
60.8300       1.00326       -173.87       9.153E-5      -110.02       1.101E-4      -129.31       0.23754       -66.19         
63.8200       1.00326       -173.57       7.383E-5      -128.52       1.531E-4      -110.40       0.24412       -67.33         
66.8100       1.0033        -173.25       8.064E-5      -120.49       8.602E-5      -115.65       0.251         -69.13         
69.8000       1.00366       -172.94       1.921E-5      -111.82       3.965E-5      -76.07        0.25617       -71.28         
72.7900       1.00407       -172.63       9.803E-5      167.08        6.878E-5      -131.91       0.25952       -73.40         
75.7800       1.00438       -172.30       9.169E-6      -6.44         4.752E-5      -130.76       0.26255       -75.31         
78.7700       1.00449       -171.96       8.544E-5      -76.06        3.095E-5      -59.83        0.26631       -77.11         
81.7600       1.0048        -171.65       2.471E-5      176.85        4.262E-5      -73.22        0.27064       -79.01         
84.7500       1.00492       -171.36       4.556E-5      -81.79        2.80E-5       -132.56       0.2746        -81.10         
87.7400       1.00514       -171.07       5.131E-5      136.66        2.598E-5      -173.63       0.27784       -83.08         
90.7300       1.00532       -170.78       4.022E-5      -47.59        1.31E-4       -129.10       0.28073       -84.87         
93.7200       1.00593       -170.43       3.174E-5      -164.94       9.751E-5      137.87        0.28366       -86.30         
96.7100       1.00548       -170.18       3.468E-5      174.17        5.354E-5      -66.77        0.28785       -87.49         
99.7000       1.00555       -169.89       3.551E-5      -108.36       5.561E-5      104.29        0.29373       -88.53         
102.6900      1.00525       -169.61       4.878E-5      172.36        7.07E-5       -154.55       0.30095       -89.61         
105.6800      1.00515       -169.32       3.423E-5      174.84        8.941E-5      176.40        0.30882       -90.72         
108.6700      1.00517       -169.06       3.233E-5      124.46        3.861E-5      -63.91        0.31679       -91.85         
111.6600      1.0049        -168.76       8.862E-5      94.80         5.272E-5      -140.19       0.32463       -92.96         
114.6500      1.00461       -168.46       5.473E-5      -179.03       5.379E-5      15.91         0.33223       -94.07         
117.6400      1.0044        -168.17       5.512E-5      137.34        5.151E-5      112.45        0.33917       -95.15         
120.6300      1.0046        -167.87       1.04E-4       -178.51       4.665E-5      144.65        0.3453        -96.18         
123.6200      1.00479       -167.57       8.285E-5      -164.74       6.389E-5      157.86        0.35041       -97.17         
126.6100      1.00464       -167.24       7.388E-5      142.34        4.382E-5      36.66         0.35511       -98.08         
129.6000      1.00469       -166.91       7.913E-5      153.61        1.514E-4      172.49        0.35966       -98.98         
132.5900      1.00468       -166.59       7.455E-5      -158.05       8.846E-5      -169.18       0.36403       -99.85         
135.5800      1.00464       -166.26       6.644E-5      178.03        5.202E-5      -177.29       0.36829       -100.75        
138.5700      1.00472       -165.93       5.947E-5      125.88        1.147E-4      137.20        0.37225       -101.68        
141.5600      1.00507       -165.64       6.329E-5      -171.39       5.48E-5       125.16        0.37609       -102.62        
144.5500      1.00547       -165.37       5.001E-5      -139.95       8.789E-5      -171.64       0.37983       -103.62        
147.5400      1.00593       -165.06       9.898E-5      158.50        7.866E-5      -170.64       0.38333       -104.68        
150.5300      1.00628       -164.76       9.45E-5       155.08        6.437E-6      134.45        0.38677       -105.81        
153.5200      1.00644       -164.45       7.973E-5      125.56        1.326E-4      141.77        0.39026       -106.99        
156.5100      1.00651       -164.15       8.801E-5      150.91        9.41E-5       150.57        0.39398       -108.17        
159.5000      1.00661       -163.86       1.075E-4      144.48        1.583E-4      130.19        0.39791       -109.33        
162.4900      1.00654       -163.61       1.339E-4      147.37        1.886E-4      156.75        0.40181       -110.45        
165.4800      1.00644       -163.34       1.472E-4      117.63        5.022E-5      -147.27       0.40577       -111.53        
168.4700      1.00625       -163.05       1.978E-4      110.38        1.256E-4      121.11        0.40959       -112.54        
171.4600      1.00614       -162.75       1.581E-4      121.36        1.714E-4      139.60        0.41319       -113.44        
174.4500      1.00617       -162.45       2.018E-4      99.12         1.554E-4      105.35        0.41666       -114.27        
177.4400      1.00573       -162.15       1.842E-4      102.02        2.151E-4      109.94        0.41967       -115.00        
180.4300      1.00517       -161.84       2.699E-4      63.59         1.878E-4      89.66         0.42251       -115.62        
183.4200      1.00482       -161.53       2.013E-4      87.25         2.042E-4      82.73         0.42542       -116.15        
186.4100      1.00444       -161.23       2.221E-4      67.20         1.84E-4       96.74         0.42862       -116.57        
189.4000      1.00403       -160.92       2.16E-4       60.39         2.774E-4      44.95         0.43209       -116.99        
192.3900      1.00366       -160.59       2.169E-4      42.89         2.716E-4      43.23         0.43537       -117.42        
195.3800      1.00373       -160.31       2.057E-4      46.62         1.98E-4       48.61         0.43816       -117.87        
198.3700      1.00405       -160.02       1.815E-4      44.82         1.64E-4       19.57         0.44036       -118.30        
201.3600      1.00448       -159.72       1.961E-4      23.22         2.674E-4      34.67         0.4423        -118.70        
204.3500      1.0051        -159.40       2.277E-4      17.16         2.186E-4      9.43          0.44415       -119.13        
207.3400      1.00553       -159.06       2.586E-4      11.09         2.203E-4      46.11         0.44601       -119.61        
210.3300      1.00601       -158.74       1.996E-4      -0.56         2.466E-4      -11.26        0.44821       -120.18        
213.3200      1.00606       -158.43       2.303E-4      -29.88        3.113E-4      -21.93        0.45076       -120.84        
216.3100      1.0061        -158.14       2.963E-4      -34.94        2.833E-4      -31.09        0.45349       -121.58        
219.3000      1.00644       -157.86       2.832E-4      -75.89        3.061E-4      -69.64        0.45591       -122.36        
222.2900      1.00704       -157.57       2.323E-4      -91.92        2.146E-4      -110.10       0.45814       -123.14        
225.2800      1.00755       -157.23       1.92E-4       -121.78       2.309E-4      -92.27        0.46049       -123.87        
228.2700      1.00756       -156.89       1.797E-4      -141.96       1.324E-4      -112.76       0.46296       -124.57        
231.2600      1.00727       -156.58       1.026E-4      -126.53       1.165E-4      -103.55       0.46583       -125.24        
234.2500      1.00668       -156.26       1.15E-4       -149.53       1.164E-4      -167.38       0.46865       -125.89        
237.2400      1.00601       -155.95       7.478E-5      -174.88       5.635E-5      -94.07        0.47186       -126.51        
240.2300      1.00522       -155.64       1.331E-4      -157.03       7.318E-5      -107.10       0.4753        -127.07        
243.2200      1.00449       -155.34       8.427E-5      -179.95       6.666E-5      172.74        0.47892       -127.56        
246.2100      1.0038        -155.03       8.989E-5      152.80        8.864E-5      154.70        0.48257       -127.97        
249.2000      1.00354       -154.73       6.994E-5      144.73        7.146E-5      148.72        0.48621       -128.34        
252.1900      1.00347       -154.44       8.009E-5      108.92        5.066E-5      161.77        0.48969       -128.65        
255.1800      1.00336       -154.14       7.715E-5      125.19        7.242E-5      10.67         0.49285       -128.91        
258.1700      1.0037        -153.84       1.162E-4      71.05         1.176E-4      169.60        0.49575       -129.18        
261.1600      1.00413       -153.52       8.332E-5      79.11         1.045E-4      60.80         0.49835       -129.44        
264.1500      1.00437       -153.18       8.88E-5       64.99         4.484E-5      60.23         0.50051       -129.72        
267.1400      1.00466       -152.88       4.13E-5       1.41          1.61E-4       28.41         0.50252       -130.04        
270.1300      1.00504       -152.59       6.309E-5      -1.51         5.557E-5      20.55         0.50402       -130.37        
273.1200      1.00613       -152.31       8.431E-5      -1.63         8.778E-5      64.55         0.50526       -130.75        
276.1100      1.00728       -152.03       5.064E-5      -40.80        1.115E-4      -79.86        0.50646       -131.11        
279.1000      1.00835       -151.70       1.454E-5      34.30         4.464E-5      -25.24        0.50797       -131.47        
282.0900      1.00843       -151.34       6.808E-5      -91.27        1.003E-4      -6.68         0.5097        -131.87        
285.0800      1.00801       -150.97       4.275E-5      5.63          1.516E-4      1.61          0.51138       -132.35        
288.0700      1.00764       -150.59       2.332E-5      -50.87        3.227E-5      -6.31         0.5129        -132.90        
291.0600      1.00699       -150.27       6.165E-5      -106.83       1.927E-5      59.55         0.5146        -133.49        
294.0500      1.00622       -149.94       3.822E-5      -163.86       6.258E-5      -171.86       0.51642       -134.10        
297.0400      1.00526       -149.62       6.019E-5      -135.55       5.047E-5      -142.95       0.51837       -134.71        
300.0300      1.00436       -149.30       7.329E-5      46.29         6.382E-5      -88.89        0.52076       -135.30        
303.0200      1.0036        -148.99       6.779E-5      137.09        3.774E-5      -23.77        0.52313       -135.86        
306.0100      1.00281       -148.68       3.711E-5      170.22        1.087E-4      -82.89        0.5257        -136.35        
309.0000      1.00243       -148.38       2.592E-5      107.59        5.693E-5      56.63         0.52813       -136.79        
311.9900      1.00209       -148.08       1.046E-4      133.59        4.53E-5       -13.45        0.53055       -137.18        
314.9800      1.00166       -147.77       9.058E-5      69.56         3.172E-5      -154.09       0.53269       -137.53        
317.9700      1.00136       -147.49       1.445E-4      83.81         6.116E-5      120.86        0.53468       -137.85        
320.9600      1.00118       -147.20       6.163E-5      88.88         1.127E-4      104.68        0.5368        -138.13        
323.9500      1.00171       -146.92       1.589E-5      -153.65       1.718E-4      116.57        0.53868       -138.37        
326.9400      1.00265       -146.63       4.955E-5      76.39         1.349E-4      91.88         0.54032       -138.60        
329.9300      1.00379       -146.32       1.744E-4      91.60         1.099E-4      65.29         0.54171       -138.81        
332.9200      1.00508       -145.98       1.456E-4      78.00         1.572E-4      85.46         0.54304       -139.03        
335.9100      1.00603       -145.60       1.162E-4      73.09         1.182E-4      50.35         0.54425       -139.27        
338.9000      1.00666       -145.20       1.615E-4      71.87         2.863E-4      33.47         0.54516       -139.51        
341.8900      1.0067        -144.80       2.201E-4      41.11         1.599E-4      12.29         0.54566       -139.77        
344.8800      1.00652       -144.43       1.662E-4      43.49         1.271E-4      -20.55        0.54608       -140.10        
347.8700      1.00616       -144.09       1.67E-4       22.37         2.325E-4      33.65         0.54655       -140.47        
350.8600      1.00583       -143.73       1.376E-4      -6.97         1.751E-4      0.02          0.54718       -140.88        
353.8500      1.00544       -143.39       1.92E-4       5.36          1.692E-4      0.20          0.54809       -141.33        
356.8400      1.00467       -143.06       1.247E-4      -9.79         2.054E-4      -18.38        0.54912       -141.79        
359.8300      1.0041        -142.73       1.231E-4      -9.68         8.60E-5       -38.86        0.55021       -142.26        
362.8200      1.00345       -142.41       1.946E-4      -2.03         1.597E-4      3.70          0.55165       -142.71        
365.8100      1.00263       -142.09       8.741E-5      -0.05         1.549E-4      -25.98        0.55313       -143.14        
368.8000      1.00154       -141.79       1.763E-4      -6.70         1.698E-4      -35.66        0.55456       -143.55        
371.7900      1.00057       -141.52       2.186E-4      -11.32        1.731E-4      15.65         0.55603       -143.94        
374.7800      1.00034       -141.25       1.546E-4      -26.08        1.596E-4      -1.41         0.55772       -144.29        
377.7700      1.00011       -141.00       1.961E-4      -40.42        2.967E-4      -28.46        0.5594        -144.61        
380.7600      1.00096       -140.72       2.423E-4      -31.25        1.61E-4       -33.97        0.56121       -144.89        
383.7500      1.00174       -140.40       1.961E-4      -42.76        1.451E-4      -47.18        0.56314       -145.13        
386.7400      1.00289       -140.07       2.21E-4       -53.38        2.142E-4      -56.83        0.56492       -145.30        
389.7300      1.00385       -139.73       1.90E-4       -73.20        1.839E-4      -61.25        0.56658       -145.42        
392.7200      1.00456       -139.34       2.068E-4      -63.60        2.168E-4      -48.93        0.56811       -145.55        
395.7100      1.00469       -138.95       1.247E-4      -80.54        8.361E-5      -100.64       0.5692        -145.64        
398.7000      1.00459       -138.58       1.288E-4      -60.89        3.33E-4       -43.93        0.56999       -145.76        
401.6900      1.00432       -138.22       1.11E-4       -26.79        2.89E-4       -16.87        0.57038       -145.88        
404.6800      1.00416       -137.86       2.025E-4      -31.47        1.865E-4      -13.25        0.57053       -146.04        
407.6700      1.00411       -137.49       2.127E-4      -34.72        2.24E-4       -30.27        0.57041       -146.22        
410.6600      1.00397       -137.11       3.671E-4      -47.65        2.84E-4       -46.31        0.57017       -146.43        
413.6500      1.00363       -136.74       2.874E-4      -57.45        3.131E-4      -55.10        0.57015       -146.66        
416.6400      1.00262       -136.38       3.128E-4      -60.18        4.221E-4      -67.47        0.57009       -146.90        
419.6300      1.00157       -136.04       2.882E-4      -89.19        2.76E-4       -70.39        0.57014       -147.20        
422.6200      0.99986       -135.73       2.665E-4      -86.63        2.504E-4      -93.44        0.57013       -147.52        
425.6100      0.99836       -135.42       2.297E-4      -89.98        3.498E-4      -78.60        0.57023       -147.87        
428.6000      0.99741       -135.15       2.771E-4      -83.55        2.899E-4      -71.58        0.57028       -148.27        
431.5900      0.99699       -134.87       2.251E-4      -94.83        2.36E-4       -84.32        0.57061       -148.68        
434.5800      0.99757       -134.58       2.796E-4      -83.44        3.128E-4      -119.46       0.5709        -149.10        
437.5700      0.9981        -134.28       2.62E-4       -94.59        2.527E-4      -68.79        0.57161       -149.51        
440.5600      0.99888       -133.97       3.151E-4      -79.74        3.823E-4      -115.69       0.57249       -149.89        
443.5500      0.99948       -133.64       3.043E-4      -100.29       3.646E-4      -103.63       0.57388       -150.24        
446.5400      0.9998        -133.30       2.377E-4      -93.65        2.793E-4      -103.71       0.57536       -150.52        
449.5300      0.99986       -132.95       2.793E-4      -104.98       3.221E-4      -101.26       0.57667       -150.73        
452.5200      0.99983       -132.61       2.777E-4      -119.34       4.551E-4      -104.12       0.57786       -150.90        
455.5100      0.99977       -132.26       3.179E-4      -103.52       2.337E-4      -114.93       0.57891       -151.03        
458.5000      0.99981       -131.92       3.099E-4      -111.63       4.381E-4      -104.82       0.57995       -151.15        
461.4900      1.00012       -131.55       3.476E-4      -114.85       3.42E-4       -117.32       0.58099       -151.23        
464.4800      1.0007        -131.17       3.494E-4      -127.55       3.345E-4      -126.55       0.58192       -151.30        
467.4700      1.00083       -130.76       3.293E-4      -135.75       3.124E-4      -117.71       0.58265       -151.37        
470.4600      1.0002        -130.35       3.78E-4       -142.74       2.262E-4      -150.73       0.58324       -151.43        
473.4500      0.99923       -129.95       3.472E-4      -143.53       4.80E-4       -149.01       0.58367       -151.50        
476.4400      0.99825       -129.59       3.773E-4      -145.94       3.459E-4      -154.75       0.5838        -151.57        
479.4300      0.99739       -129.29       3.183E-4      -153.40       3.469E-4      -148.26       0.5835        -151.68        
482.4200      0.9967        -128.98       3.968E-4      -162.42       4.083E-4      -149.53       0.58302       -151.84        
485.4100      0.99664       -128.70       3.493E-4      -163.14       4.813E-4      -162.81       0.58207       -152.05        
488.4000      0.99668       -128.41       3.291E-4      -160.08       4.042E-4      -164.41       0.58116       -152.32        
491.3900      0.99715       -128.11       3.216E-4      -172.23       3.023E-4      -177.29       0.5801        -152.65        
494.3800      0.99737       -127.81       3.46E-4       -168.67       3.583E-4      -169.89       0.57917       -153.04        
497.3700      0.99728       -127.48       3.118E-4      -173.69       2.642E-4      -157.55       0.57855       -153.48        
500.3600      0.99687       -127.15       4.011E-4      -174.65       4.491E-4      -163.97       0.57814       -153.93        
503.3500      0.99638       -126.81       3.751E-4      179.19        3.865E-4      -161.63       0.57805       -154.39        
506.3400      0.99562       -126.50       3.547E-4      -175.79       2.707E-4      -175.96       0.57828       -154.85        
509.3300      0.99513       -126.19       3.49E-4       175.57        3.438E-4      177.57        0.57864       -155.29        
512.3200      0.99478       -125.86       3.08E-4       166.71        3.126E-4      168.39        0.57902       -155.68        
515.3100      0.99485       -125.52       3.305E-4      173.56        3.58E-4       170.96        0.57979       -156.09        
518.3000      0.99493       -125.13       3.108E-4      165.73        3.633E-4      172.44        0.58101       -156.48        
521.2900      0.99467       -124.73       3.289E-4      163.07        2.843E-4      -175.60       0.58268       -156.81        
524.2800      0.99356       -124.33       3.497E-4      166.72        4.413E-4      159.60        0.58457       -157.08        
527.2700      0.99266       -123.95       2.942E-4      159.77        2.217E-4      148.33        0.5867        -157.28        
530.2600      0.99143       -123.59       2.863E-4      157.35        2.544E-4      155.67        0.58886       -157.42        
533.2500      0.99085       -123.26       2.206E-4      160.66        3.20E-4       168.23        0.59099       -157.50        
536.2400      0.99053       -122.96       3.094E-4      176.67        2.264E-4      155.30        0.59295       -157.53        
539.2300      0.99068       -122.66       3.038E-4      167.76        3.371E-4      165.83        0.59463       -157.51        
542.2200      0.99118       -122.36       2.813E-4      167.05        3.798E-4      165.71        0.59595       -157.48        
545.2100      0.9917        -122.03       3.628E-4      169.73        3.428E-4      166.19        0.59696       -157.43        
548.2000      0.99208       -121.71       4.129E-4      165.87        5.13E-4       169.26        0.59746       -157.40        
551.1900      0.9921        -121.38       4.304E-4      158.13        4.631E-4      162.33        0.59778       -157.37        
554.1800      0.99133       -121.04       4.341E-4      160.15        4.525E-4      154.43        0.59783       -157.36        
557.1700      0.9903        -120.71       5.112E-4      157.91        4.899E-4      166.18        0.5979        -157.37        
560.1600      0.9889        -120.40       5.632E-4      146.14        5.105E-4      145.00        0.59753       -157.39        
563.1500      0.98749       -120.10       5.506E-4      136.43        5.894E-4      142.11        0.59701       -157.43        
566.1400      0.98654       -119.76       6.205E-4      135.16        5.579E-4      129.33        0.59623       -157.51        
569.1300      0.98571       -119.41       5.799E-4      127.94        5.749E-4      134.99        0.59518       -157.63        
572.1200      0.98495       -119.02       5.01E-4       118.24        6.136E-4      124.64        0.59402       -157.78        
575.1100      0.98408       -118.62       5.615E-4      113.84        5.214E-4      119.40        0.593         -157.98        
578.1000      0.98314       -118.25       4.831E-4      105.59        5.343E-4      102.52        0.59242       -158.23        
581.0900      0.98173       -117.90       5.17E-4       107.22        5.61E-4       104.43        0.59209       -158.47        
584.0800      0.98048       -117.58       4.229E-4      95.39         4.071E-4      90.07         0.59224       -158.69        
587.0700      0.9796        -117.29       4.809E-4      97.91         4.93E-4       90.16         0.59268       -158.88        
590.0600      0.9795        -117.00       3.87E-4       89.79         4.375E-4      94.69         0.59338       -159.07        
593.0500      0.97948       -116.71       4.287E-4      92.26         4.162E-4      95.31         0.59426       -159.23        
596.0400      0.97984       -116.41       3.942E-4      103.25        3.482E-4      86.46         0.59532       -159.36        
599.0300      0.9808        -116.07       3.902E-4      91.15         4.132E-4      97.90         0.5963        -159.48        
602.0200      0.98148       -115.74       3.716E-4      92.83         3.229E-4      92.25         0.59733       -159.56        
605.0100      0.98184       -115.40       3.865E-4      94.74         4.041E-4      95.27         0.59835       -159.62        
608.0000      0.98192       -115.06       3.852E-4      89.88         3.418E-4      102.85        0.59926       -159.68        
610.9900      0.98171       -114.74       3.892E-4      88.53         2.378E-4      88.39         0.60004       -159.72        
613.9800      0.98109       -114.45       3.245E-4      94.68         3.894E-4      97.27         0.60098       -159.74        
616.9700      0.98052       -114.16       3.562E-4      93.72         4.625E-4      104.30        0.60142       -159.74        
619.9600      0.97996       -113.89       3.92E-4       90.93         4.048E-4      103.76        0.60162       -159.75        
622.9500      0.97911       -113.59       4.293E-4      100.76        3.712E-4      105.35        0.60134       -159.76        
625.9400      0.97793       -113.30       3.916E-4      93.06         3.16E-4       103.46        0.60083       -159.80        
628.9300      0.97625       -113.01       4.813E-4      95.16         4.049E-4      108.44        0.60001       -159.87        
631.9200      0.97406       -112.74       4.65E-4       106.65        4.23E-4       99.31         0.59896       -159.97        
634.9100      0.97153       -112.48       5.442E-4      95.69         4.517E-4      111.97        0.59787       -160.11        
637.9000      0.96889       -112.27       5.384E-4      100.97        5.099E-4      104.03        0.59711       -160.31        
640.8900      0.96693       -112.07       5.92E-4       94.71         6.185E-4      100.80        0.5964        -160.52        
643.8800      0.96519       -111.91       6.003E-4      97.05         5.416E-4      94.49         0.59595       -160.74        
646.8700      0.9634        -111.73       6.417E-4      108.33        6.04E-4       103.10        0.59571       -160.96        
649.8600      0.96204       -111.54       7.828E-4      91.92         7.915E-4      94.70         0.59571       -161.20        
652.8500      0.96071       -111.32       7.95E-4       88.89         8.761E-4      92.65         0.59585       -161.41        
655.8400      0.95933       -111.07       8.706E-4      86.56         9.589E-4      87.27         0.59619       -161.63        
658.8300      0.95774       -110.82       9.382E-4      83.86         1.047E-3      88.44         0.59668       -161.82        
661.8200      0.95607       -110.58       1.032E-3      76.54         8.925E-4      79.03         0.59751       -162.00        
664.8100      0.95416       -110.32       1.041E-3      71.57         1.018E-3      74.77         0.59849       -162.16        
667.8000      0.95185       -110.05       1.162E-3      68.74         1.017E-3      71.54         0.59959       -162.28        
670.7900      0.94947       -109.78       1.239E-3      65.11         1.258E-3      65.41         0.60072       -162.36        
673.7800      0.94682       -109.47       1.315E-3      57.90         1.324E-3      60.86         0.60189       -162.42        
676.7700      0.94389       -109.13       1.341E-3      55.01         1.312E-3      55.96         0.60289       -162.44        
679.7600      0.94083       -108.77       1.371E-3      49.29         1.317E-3      47.72         0.6034        -162.44        
682.7500      0.93793       -108.39       1.469E-3      44.77         1.447E-3      43.99         0.60369       -162.44        
685.7400      0.93566       -108.04       1.525E-3      36.11         1.364E-3      37.32         0.60373       -162.45        
688.7300      0.93472       -107.80       1.279E-3      35.16         1.285E-3      32.30         0.60349       -162.47        
691.7200      0.93089       -108.02       1.354E-3      44.58         1.399E-3      45.34         0.60296       -162.52        
694.7100      0.91835       -107.84       1.77E-3       34.43         1.785E-3      36.73         0.60223       -162.60        
697.7000      0.91193       -107.37       1.875E-3      24.77         1.824E-3      25.47         0.60131       -162.72        
700.6900      0.90774       -106.98       1.85E-3       16.36         1.886E-3      14.80         0.60054       -162.87        
703.6800      0.90482       -106.63       1.793E-3      10.46         1.829E-3      11.45         0.59967       -163.06        
706.6700      0.90241       -106.32       1.793E-3      5.12          1.891E-3      6.90          0.5988        -163.24        
709.6600      0.90021       -106.04       1.809E-3      -0.23         1.75E-3       1.66          0.5982        -163.45        
712.6500      0.89801       -105.79       1.785E-3      -2.67         1.815E-3      1.98          0.59763       -163.68        
715.6400      0.89588       -105.57       1.822E-3      -7.90         1.854E-3      -6.36         0.59732       -163.94        
718.6300      0.89366       -105.36       1.794E-3      -10.38        1.817E-3      -11.36        0.59739       -164.17        
721.6200      0.89163       -105.14       1.778E-3      -14.43        1.692E-3      -11.76        0.59789       -164.41        
724.6100      0.88906       -104.91       1.803E-3      -15.92        1.808E-3      -16.38        0.59899       -164.60        
727.6000      0.88643       -104.66       1.817E-3      -20.64        1.921E-3      -19.82        0.60036       -164.76        
730.5900      0.88319       -104.38       1.913E-3      -21.95        1.844E-3      -21.11        0.60187       -164.87        
733.5800      0.87952       -104.09       1.888E-3      -25.15        1.852E-3      -25.03        0.60347       -164.93        
736.5700      0.87512       -103.78       1.954E-3      -28.90        1.886E-3      -31.76        0.605         -164.95        
739.5600      0.87023       -103.46       2.037E-3      -33.90        2.067E-3      -30.75        0.60632       -164.94        
742.5500      0.86499       -103.16       2.079E-3      -37.73        2.085E-3      -34.73        0.60755       -164.89        
745.5400      0.8595        -102.87       2.204E-3      -40.01        2.159E-3      -39.49        0.60844       -164.82        
748.5300      0.85374       -102.59       2.248E-3      -43.97        2.122E-3      -42.09        0.60911       -164.74        
751.5200      0.84843       -102.32       2.275E-3      -48.82        2.299E-3      -46.90        0.60951       -164.64        
754.5100      0.84297       -102.04       2.338E-3      -52.77        2.338E-3      -52.45        0.6095        -164.56        
757.5000      0.83786       -101.84       2.434E-3      -56.46        2.34E-3       -56.41        0.6091        -164.49        
760.4900      0.83114       -101.70       2.425E-3      -60.69        2.458E-3      -60.08        0.60831       -164.44        
763.4800      0.82368       -101.50       2.52E-3       -65.20        2.358E-3      -64.21        0.60712       -164.43        
766.4700      0.81659       -101.27       2.47E-3       -69.96        2.396E-3      -68.31        0.60579       -164.46        
769.4600      0.80975       -101.06       2.501E-3      -74.29        2.549E-3      -74.44        0.60431       -164.55        
772.4500      0.80342       -100.84       2.552E-3      -78.05        2.487E-3      -75.47        0.60283       -164.71        
775.4400      0.79746       -100.61       2.632E-3      -83.23        2.57E-3       -79.08        0.60142       -164.92        
778.4300      0.79149       -100.37       2.623E-3      -86.40        2.602E-3      -84.64        0.60026       -165.18        
781.4200      0.78544       -100.11       2.673E-3      -90.24        2.637E-3      -90.80        0.59965       -165.46        
784.4100      0.77902       -99.81        2.721E-3      -94.47        2.717E-3      -95.00        0.59945       -165.75        
787.4000      0.77208       -99.47        2.682E-3      -98.21        2.659E-3      -97.78        0.5994        -166.04        
790.3900      0.76463       -99.12        2.644E-3      -102.10       2.709E-3      -100.93       0.59975       -166.32        
793.3800      0.75665       -98.73        2.783E-3      -105.60       2.759E-3      -106.23       0.60025       -166.57        
796.3700      0.74854       -98.32        2.764E-3      -109.41       2.842E-3      -108.44       0.60116       -166.80        
799.3600      0.74045       -97.86        2.784E-3      -111.68       2.814E-3      -111.14       0.60225       -167.00        
802.3500      0.73231       -97.36        2.883E-3      -115.96       2.868E-3      -115.63       0.60357       -167.14        
805.3400      0.72415       -96.81        2.832E-3      -120.42       2.895E-3      -118.68       0.60512       -167.25        
808.3300      0.71587       -96.21        2.889E-3      -123.64       2.907E-3      -124.43       0.6068        -167.29        
811.3200      0.70742       -95.57        2.923E-3      -128.57       2.888E-3      -127.49       0.60842       -167.29        
814.3100      0.69914       -94.90        2.945E-3      -131.33       3.007E-3      -130.47       0.60973       -167.23        
817.3000      0.69111       -94.23        2.974E-3      -136.61       3.047E-3      -134.84       0.61062       -167.13        
820.2900      0.68345       -93.56        3.012E-3      -139.44       3.085E-3      -139.80       0.61097       -167.00        
823.2800      0.6763        -92.91        3.125E-3      -142.00       3.126E-3      -143.30       0.61098       -166.87        
826.2700      0.66947       -92.27        3.223E-3      -146.89       3.141E-3      -146.90       0.61056       -166.79        
829.2600      0.66312       -91.59        3.209E-3      -151.76       3.254E-3      -150.87       0.6099        -166.73        
832.2500      0.65729       -90.88        3.265E-3      -154.42       3.187E-3      -156.31       0.60902       -166.72        
835.2400      0.65189       -90.13        3.332E-3      -160.71       3.238E-3      -161.26       0.60789       -166.75        
838.2300      0.6467        -89.34        3.314E-3      -165.84       3.26E-3       -166.31       0.60663       -166.82        
841.2200      0.64212       -88.50        3.352E-3      -169.54       3.28E-3       -169.38       0.60532       -166.92        
844.2100      0.63785       -87.65        3.305E-3      -174.24       3.268E-3      -176.85       0.60411       -167.08        
847.2000      0.63438       -86.74        3.255E-3      179.06        3.291E-3      -178.88       0.60279       -167.27        
850.1900      0.63185       -85.79        3.254E-3      176.58        3.463E-3      177.51        0.60159       -167.50        
853.1800      0.63081       -84.82        3.165E-3      171.31        3.222E-3      172.97        0.60045       -167.78        
856.1700      0.6312        -83.85        3.078E-3      168.60        3.189E-3      168.07        0.59967       -168.09        
859.1600      0.63262       -82.91        3.088E-3      164.71        3.051E-3      165.59        0.59942       -168.40        
862.1500      0.63479       -82.06        3.06E-3       162.48        2.974E-3      161.74        0.59959       -168.72        
865.1400      0.63716       -81.32        2.977E-3      158.71        2.985E-3      158.87        0.60051       -169.01        
868.1300      0.63946       -80.68        2.934E-3      155.94        3.081E-3      157.53        0.60173       -169.24        
871.1200      0.64104       -80.17        2.877E-3      152.95        2.959E-3      152.29        0.60337       -169.43        
874.1100      0.6422        -79.77        2.939E-3      149.19        2.982E-3      150.49        0.60496       -169.55        
877.1000      0.64261       -79.48        2.902E-3      146.49        3.002E-3      149.54        0.60623       -169.59        
880.0900      0.6424        -79.28        2.891E-3      143.76        2.913E-3      144.75        0.60737       -169.61        
883.0800      0.64151       -79.15        2.994E-3      140.93        2.896E-3      143.16        0.6084        -169.60        
886.0700      0.64001       -79.04        2.97E-3       138.92        3.061E-3      140.22        0.60926       -169.58        
889.0600      0.63774       -78.99        3.073E-3      137.45        3.025E-3      136.01        0.6101        -169.52        
892.0500      0.63482       -78.98        3.061E-3      134.25        3.111E-3      134.43        0.61059       -169.44        
895.0400      0.63087       -79.04        3.165E-3      130.26        3.221E-3      131.46        0.61089       -169.34        
898.0300      0.62631       -79.15        3.238E-3      129.07        3.234E-3      128.19        0.61069       -169.22        
901.0200      0.62114       -79.27        3.253E-3      124.31        3.245E-3      125.55        0.61018       -169.10        
904.0100      0.61546       -79.41        3.302E-3      122.06        3.399E-3      121.74        0.6094        -169.03        
907.0000      0.6093        -79.51        3.398E-3      117.14        3.32E-3       117.99        0.60818       -168.97        
909.9900      0.60293       -79.58        3.384E-3      114.83        3.465E-3      114.29        0.60686       -168.99        
912.9800      0.59583       -79.60        3.449E-3      111.31        3.481E-3      111.68        0.60525       -169.04        
915.9700      0.58788       -79.56        3.467E-3      107.05        3.549E-3      105.51        0.60372       -169.16        
918.9600      0.57876       -79.43        3.601E-3      103.31        3.669E-3      104.02        0.60229       -169.35        
921.9500      0.56883       -79.16        3.679E-3      97.57         3.665E-3      100.49        0.60147       -169.56        
924.9400      0.55893       -78.76        3.697E-3      92.27         3.705E-3      95.38         0.6011        -169.78        
927.9300      0.54911       -78.32        3.755E-3      89.94         3.721E-3      90.33         0.60108       -170.01        
930.9200      0.53897       -77.86        3.759E-3      84.82         3.744E-3      85.86         0.60135       -170.21        
933.9100      0.52816       -77.35        3.721E-3      81.41         3.738E-3      82.32         0.60154       -170.40        
936.9000      0.51668       -76.73        3.869E-3      76.81         3.787E-3      78.58         0.60197       -170.58        
939.8900      0.50488       -75.96        3.775E-3      72.85         3.779E-3      71.70         0.60238       -170.74        
942.8800      0.49289       -75.09        3.664E-3      67.79         3.867E-3      69.05         0.60337       -170.88        
945.8700      0.48099       -74.11        3.734E-3      64.45         3.832E-3      63.86         0.60447       -170.99        
948.8600      0.46921       -73.02        3.751E-3      59.71         3.80E-3       59.50         0.60591       -171.06        
951.8500      0.45803       -71.87        3.685E-3      55.02         3.723E-3      54.96         0.6071        -171.09        
954.8400      0.44737       -70.63        3.699E-3      51.97         3.68E-3       53.24         0.60828       -171.06        
957.8300      0.43774       -69.28        3.665E-3      46.18         3.567E-3      47.84         0.60905       -170.97        
960.8200      0.42902       -67.82        3.611E-3      42.90         3.64E-3       43.43         0.6095        -170.86        
963.8100      0.42163       -66.22        3.65E-3       38.87         3.609E-3      39.64         0.60943       -170.74        
966.8000      0.41546       -64.51        3.58E-3       35.37         3.589E-3      36.57         0.6092        -170.65        
969.7900      0.41083       -62.69        3.552E-3      32.83         3.572E-3      33.40         0.60832       -170.57        
972.7800      0.4079        -60.78        3.474E-3      27.32         3.381E-3      28.69         0.60707       -170.52        
975.7700      0.40659       -58.84        3.46E-3       24.85         3.37E-3       23.71         0.60571       -170.52        
978.7600      0.40684       -56.87        3.321E-3      21.79         3.378E-3      20.82         0.6042        -170.58        
981.7500      0.40872       -54.94        3.32E-3       17.07         3.411E-3      17.47         0.60274       -170.67        
984.7400      0.41179       -53.09        3.241E-3      12.63         3.246E-3      12.05         0.60163       -170.78        
987.7300      0.41603       -51.29        3.267E-3      10.30         3.217E-3      12.74         0.60046       -170.92        
990.7200      0.42108       -49.60        3.224E-3      7.05          3.148E-3      8.17          0.59951       -171.10        
993.7100      0.42708       -48.05        3.152E-3      4.62          3.131E-3      4.96          0.59838       -171.31        
996.7000      0.43357       -46.62        3.098E-3      2.10          3.012E-3      2.53          0.59768       -171.54        
999.6900      0.44043       -45.39        3.061E-3      -1.66         3.039E-3      0.24          0.59734       -171.77        
1002.6800     0.44769       -44.34        3.058E-3      -3.58         3.101E-3      -4.43         0.59742       -172.02        
1005.6700     0.45493       -43.50        2.933E-3      -6.53         3.068E-3      -9.11         0.59812       -172.27        
1008.6600     0.46201       -42.89        2.941E-3      -9.45         3.029E-3      -8.37         0.59898       -172.50        
1011.6500     0.46883       -42.49        2.861E-3      -12.82        3.01E-3       -9.96         0.60034       -172.68        
1014.6400     0.47518       -42.29        2.898E-3      -15.04        2.951E-3      -16.82        0.60161       -172.82        
1017.6300     0.4808        -42.27        2.927E-3      -16.78        2.909E-3      -17.44        0.60291       -172.90        
1020.6200     0.48575       -42.41        2.929E-3      -19.72        2.859E-3      -21.30        0.60412       -172.92        
1023.6100     0.48981       -42.70        3.021E-3      -22.26        2.952E-3      -22.31        0.60494       -172.92        
1026.6000     0.49289       -43.11        2.929E-3      -26.19        2.976E-3      -23.50        0.60581       -172.89        
1029.5900     0.49504       -43.62        3.052E-3      -29.34        3.102E-3      -26.11        0.60647       -172.85        
1032.5800     0.4961        -44.17        2.959E-3      -29.51        3.136E-3      -30.73        0.60655       -172.78        
1035.5700     0.49606       -44.83        3.015E-3      -31.49        3.055E-3      -34.98        0.60654       -172.71        
1038.5600     0.49455       -45.55        3.092E-3      -34.57        2.946E-3      -35.31        0.60623       -172.65        
1041.5500     0.49027       -46.42        3.169E-3      -37.94        3.186E-3      -38.16        0.60576       -172.62        
1044.5400     0.47943       -47.24        2.975E-3      -44.69        2.852E-3      -41.06        0.60544       -172.59        
1047.5300     0.46252       -46.68        3.061E-3      -44.83        2.977E-3      -44.24        0.60466       -172.56        
1050.5200     0.45934       -45.03        2.951E-3      -44.63        3.016E-3      -44.24        0.60404       -172.58        
1053.5100     0.4616        -44.70        3.05E-3       -48.00        3.107E-3      -46.65        0.60291       -172.62        
1056.5000     0.45898       -44.86        3.114E-3      -50.75        3.086E-3      -50.97        0.60223       -172.68        
1059.4900     0.45279       -44.95        3.172E-3      -54.34        3.166E-3      -51.58        0.60166       -172.77        
1062.4800     0.44466       -44.91        3.278E-3      -57.81        3.34E-3       -58.56        0.60141       -172.90        
1065.4700     0.43532       -44.73        3.331E-3      -62.34        3.293E-3      -62.32        0.6013        -173.02        
1068.4600     0.42511       -44.41        3.271E-3      -66.38        3.148E-3      -64.11        0.60168       -173.15        
1071.4500     0.41456       -43.93        3.429E-3      -69.61        3.341E-3      -66.99        0.60218       -173.26        
1074.4400     0.40365       -43.31        3.235E-3      -74.21        3.325E-3      -70.57        0.60318       -173.33        
1077.4300     0.39315       -42.51        3.277E-3      -77.69        3.367E-3      -77.42        0.60407       -173.37        
1080.4200     0.38329       -41.58        3.395E-3      -80.35        3.284E-3      -80.52        0.60498       -173.36        
1083.4100     0.37428       -40.51        3.298E-3      -84.57        3.223E-3      -83.59        0.60593       -173.32        
1086.4000     0.36634       -39.33        3.269E-3      -87.52        3.351E-3      -85.99        0.607         -173.25        
1089.3900     0.35972       -38.09        3.27E-3       -88.99        3.215E-3      -90.31        0.60781       -173.17        
1092.3800     0.35397       -36.81        3.339E-3      -94.92        3.283E-3      -91.97        0.60854       -173.05        
1095.3700     0.34921       -35.45        3.354E-3      -96.30        3.309E-3      -96.61        0.60894       -172.90        
1098.3600     0.34525       -34.06        3.328E-3      -102.18       3.327E-3      -98.99        0.60885       -172.75        
1101.3500     0.34203       -32.63        3.322E-3      -101.32       3.351E-3      -101.75       0.60864       -172.58        
1104.3400     0.33912       -31.17        3.318E-3      -108.15       3.405E-3      -105.38       0.60788       -172.43        
1107.3300     0.33666       -29.65        3.352E-3      -110.35       3.238E-3      -107.54       0.60696       -172.31        
1110.3200     0.33459       -28.04        3.279E-3      -112.31       3.291E-3      -113.67       0.60561       -172.22        
1113.3100     0.33267       -26.40        3.288E-3      -116.49       3.319E-3      -112.77       0.60392       -172.18        
1116.3000     0.33122       -24.70        3.363E-3      -119.26       3.384E-3      -119.73       0.60229       -172.19        
1119.2900     0.32986       -22.92        3.409E-3      -121.02       3.258E-3      -122.27       0.60038       -172.25        
1122.2800     0.3289        -21.07        3.29E-3       -124.15       3.286E-3      -124.48       0.59871       -172.36        
1125.2700     0.32818       -19.20        3.431E-3      -129.37       3.272E-3      -128.76       0.59723       -172.53        
1128.2600     0.32789       -17.27        3.347E-3      -131.99       3.303E-3      -132.99       0.59619       -172.75        
1131.2500     0.32818       -15.37        3.353E-3      -135.36       3.391E-3      -133.38       0.59519       -172.99        
1134.2400     0.32926       -13.46        3.377E-3      -139.08       3.473E-3      -137.86       0.59478       -173.24        
1137.2300     0.33095       -11.64        3.469E-3      -144.54       3.35E-3       -141.45       0.59468       -173.51        
1140.2200     0.33355       -9.88         3.487E-3      -146.61       3.474E-3      -144.65       0.59484       -173.77        
1143.2100     0.33695       -8.23         3.412E-3      -150.98       3.369E-3      -152.42       0.59549       -174.00        
1146.2000     0.34121       -6.69         3.353E-3      -156.71       3.383E-3      -152.93       0.59654       -174.21        
1149.1900     0.34643       -5.35         3.401E-3      -159.72       3.326E-3      -157.48       0.59809       -174.38        
1152.1800     0.35217       -4.13         3.319E-3      -160.73       3.323E-3      -160.80       0.59984       -174.50        
1155.1700     0.35863       -3.11         3.319E-3      -167.62       3.355E-3      -163.29       0.60139       -174.53        
1158.1600     0.36551       -2.24         3.29E-3       -168.89       3.241E-3      -167.83       0.60252       -174.51        
1161.1500     0.37291       -1.53         3.191E-3      -172.18       3.252E-3      -173.39       0.60364       -174.44        
1164.1400     0.38026       -0.93         3.226E-3      -174.90       3.216E-3      -174.76       0.60474       -174.33        
1167.1300     0.38782       -0.44         3.239E-3      -179.08       3.259E-3      179.02        0.60519       -174.19        
1170.1200     0.3954        -0.07         3.147E-3      176.50        3.255E-3      176.76        0.60547       -174.05        
1173.1100     0.4026        0.23          3.153E-3      174.94        3.169E-3      174.06        0.6053        -173.90        
1176.1000     0.40949       0.46          3.17E-3       169.04        3.096E-3      171.92        0.60432       -173.75        
1179.0900     0.41597       0.61          2.991E-3      168.05        3.092E-3      167.64        0.60345       -173.62        
1182.0800     0.42163       0.70          3.032E-3      164.29        3.124E-3      165.19        0.60239       -173.54        
1185.0700     0.42659       0.76          3.109E-3      160.40        3.15E-3       161.58        0.60078       -173.51        
1188.0600     0.43104       0.74          3.025E-3      156.55        3.177E-3      157.49        0.59896       -173.53        
1191.0500     0.43456       0.73          2.984E-3      152.67        3.138E-3      155.24        0.59714       -173.61        
1194.0400     0.4374        0.66          3.075E-3      151.01        2.946E-3      152.26        0.59549       -173.77        
1197.0300     0.43953       0.55          3.008E-3      147.65        2.974E-3      147.39        0.59394       -173.98        
1200.0200     0.44055       0.38          3.06E-3       143.87        2.935E-3      146.28        0.59277       -174.25        
1203.0100     0.441         0.16          2.905E-3      141.89        2.946E-3      140.62        0.59197       -174.53        
1206.0000     0.4403        -0.08         2.812E-3      139.62        2.937E-3      139.30        0.59183       -174.84        
1208.9900     0.43899       -0.38         2.857E-3      135.66        2.845E-3      138.81        0.5923        -175.16        
1211.9800     0.43682       -0.67         2.755E-3      134.57        2.751E-3      132.29        0.59331       -175.44        
1214.9700     0.43352       -0.95         2.871E-3      132.37        2.841E-3      130.34        0.59463       -175.69        
1217.9600     0.42986       -1.21         2.762E-3      125.74        2.769E-3      128.93        0.59622       -175.86        
1220.9500     0.42521       -1.38         2.784E-3      123.65        2.761E-3      124.36        0.59778       -175.97        
1223.9400     0.42002       -1.51         2.756E-3      120.52        2.802E-3      120.54        0.59989       -176.05        
1226.9300     0.41403       -1.50         2.726E-3      117.30        2.72E-3       118.90        0.60183       -176.04        
1229.9200     0.40737       -1.37         2.659E-3      113.75        2.749E-3      115.01        0.60382       -175.98        
1232.9100     0.4006        -1.10         2.579E-3      111.91        2.731E-3      111.21        0.60563       -175.83        
1235.9000     0.39322       -0.64         2.596E-3      109.63        2.632E-3      110.05        0.60688       -175.64        
1238.8900     0.38574       0.03          2.652E-3      107.81        2.594E-3      105.49        0.60779       -175.39        
1241.8800     0.37846       0.93          2.486E-3      100.99        2.604E-3      101.82        0.60814       -175.14        
1244.8700     0.37153       2.01          2.621E-3      100.38        2.549E-3      102.43        0.60808       -174.87        
1247.8600     0.36523       3.30          2.641E-3      98.72         2.634E-3      97.23         0.60711       -174.62        
1250.8500     0.35997       4.81          2.529E-3      94.74         2.556E-3      95.31         0.60579       -174.40        
1253.8400     0.35564       6.46          2.515E-3      89.85         2.48E-3       92.80         0.60402       -174.25        
1256.8300     0.35257       8.21          2.471E-3      90.28         2.484E-3      88.92         0.60188       -174.17        
1259.8200     0.35081       10.00         2.375E-3      85.86         2.373E-3      87.34         0.59976       -174.17        
1262.8100     0.35009       11.76         2.384E-3      85.15         2.404E-3      84.25         0.5973        -174.21        
1265.8000     0.35093       13.39         2.331E-3      81.16         2.371E-3      82.41         0.5953        -174.36        
1268.7900     0.35269       14.94         2.322E-3      79.22         2.35E-3       79.61         0.59345       -174.59        
1271.7800     0.35523       16.33         2.402E-3      77.66         2.374E-3      77.19         0.5922        -174.89        
1274.7700     0.35834       17.58         2.338E-3      76.85         2.35E-3       74.80         0.59144       -175.21        
1277.7600     0.3616        18.66         2.375E-3      73.86         2.271E-3      74.78         0.5909        -175.56        
1280.7500     0.36493       19.63         2.29E-3       70.59         2.297E-3      72.18         0.59103       -175.91        
1283.7400     0.3679        20.49         2.353E-3      68.49         2.338E-3      68.46         0.59153       -176.27        
1286.7300     0.37065       21.31         2.338E-3      65.60         2.398E-3      66.68         0.59292       -176.59        
1289.7200     0.37331       22.08         2.319E-3      62.38         2.334E-3      64.51         0.59468       -176.85        
1292.7100     0.37565       22.80         2.35E-3       63.99         2.233E-3      62.42         0.59691       -177.02        
1295.7000     0.37771       23.56         2.303E-3      59.33         2.346E-3      58.65         0.599         -177.13        
1298.6900     0.37982       24.31         2.382E-3      57.83         2.342E-3      56.09         0.60112       -177.15        
1301.6800     0.38182       25.09         2.363E-3      55.86         2.418E-3      52.14         0.60305       -177.06        
1304.6700     0.38386       25.88         2.438E-3      51.53         2.387E-3      51.85         0.60478       -176.92        
1307.6600     0.38567       26.69         2.354E-3      47.34         2.395E-3      49.13         0.60577       -176.72        
1310.6500     0.38758       27.54         2.386E-3      46.76         2.467E-3      45.18         0.60632       -176.47        
1313.6400     0.38916       28.42         2.49E-3       42.17         2.421E-3      42.37         0.60625       -176.24        
1316.6300     0.39123       29.29         2.396E-3      40.79         2.506E-3      39.47         0.60556       -175.98        
1319.6200     0.39314       30.20         2.547E-3      34.94         2.531E-3      36.00         0.60449       -175.73        
1322.6100     0.39532       31.14         2.426E-3      34.66         2.444E-3      32.85         0.6026        -175.54        
1325.6000     0.39814       32.07         2.492E-3      30.49         2.471E-3      29.22         0.60064       -175.40        
1328.5900     0.40108       32.99         2.522E-3      27.39         2.594E-3      26.70         0.59836       -175.35        
1331.5800     0.40463       33.84         2.478E-3      23.37         2.537E-3      24.46         0.59603       -175.40        
1334.5700     0.40798       34.57         2.439E-3      20.56         2.496E-3      21.71         0.59379       -175.52        
1337.5600     0.41034       35.38         2.558E-3      18.74         2.591E-3      17.78         0.59155       -175.70        
1340.5500     0.4126        36.30         2.535E-3      12.89         2.531E-3      14.45         0.58957       -175.97        
1343.5400     0.4164        37.28         2.517E-3      8.10          2.559E-3      10.90         0.5882        -176.31        
1346.5300     0.42109       38.15         2.447E-3      5.17          2.61E-3       7.66          0.58743       -176.67        
1349.5200     0.42587       38.93         2.497E-3      2.58          2.57E-3       4.70          0.58755       -177.08        
1352.5100     0.43077       39.62         2.595E-3      1.39          2.564E-3      2.08          0.58824       -177.45        
1355.5000     0.43577       40.27         2.45E-3       -3.10         2.579E-3      -1.10         0.58964       -177.81        
1358.4900     0.44089       40.83         2.525E-3      -6.52         2.564E-3      -4.08         0.59121       -178.08        
1361.4800     0.44595       41.34         2.441E-3      -8.36         2.541E-3      -9.08         0.59334       -178.29        
1364.4700     0.451         41.81         2.431E-3      -13.11        2.543E-3      -10.46        0.59556       -178.41        
1367.4600     0.45589       42.23         2.56E-3       -12.88        2.539E-3      -13.96        0.5978        -178.44        
1370.4500     0.46069       42.61         2.576E-3      -16.47        2.529E-3      -17.67        0.59966       -178.39        
1373.4400     0.46538       42.94         2.462E-3      -21.29        2.597E-3      -21.35        0.60136       -178.27        
1376.4300     0.47          43.26         2.41E-3       -23.72        2.522E-3      -23.86        0.60254       -178.11        
1379.4200     0.47468       43.55         2.538E-3      -29.00        2.485E-3      -28.42        0.60316       -177.86        
1382.4100     0.47929       43.83         2.417E-3      -30.59        2.511E-3      -29.93        0.60337       -177.58        
1385.4000     0.48365       44.08         2.47E-3       -33.75        2.505E-3      -33.51        0.60277       -177.31        
1388.3900     0.48809       44.31         2.462E-3      -37.39        2.509E-3      -37.20        0.6017        -177.05        
1391.3800     0.49233       44.57         2.328E-3      -42.31        2.429E-3      -40.75        0.60026       -176.85        
1394.3700     0.49687       44.81         2.386E-3      -43.85        2.406E-3      -42.52        0.59831       -176.69        
1397.3600     0.50191       44.98         2.29E-3       -47.31        2.413E-3      -47.22        0.59602       -176.59        
1400.3500     0.50697       44.98         2.439E-3      -50.73        2.349E-3      -50.18        0.59339       -176.56        
1403.3400     0.51066       44.79         2.431E-3      -55.07        2.367E-3      -52.50        0.59102       -176.63        
1406.3300     0.51214       44.56         2.29E-3       -58.55        2.383E-3      -57.59        0.58894       -176.78        
1409.3200     0.51106       44.42         2.281E-3      -60.75        2.31E-3       -58.91        0.58734       -177.03        
1412.3100     0.50983       44.60         2.33E-3       -62.53        2.282E-3      -61.78        0.58627       -177.33        
1415.3000     0.5098        44.79         2.311E-3      -65.26        2.263E-3      -64.53        0.58585       -177.67        
1418.2900     0.50974       44.95         2.251E-3      -67.52        2.252E-3      -67.08        0.58594       -178.02        
1421.2800     0.50922       45.08         2.212E-3      -71.17        2.202E-3      -70.26        0.58679       -178.35        
1424.2700     0.50836       45.21         2.178E-3      -72.97        2.258E-3      -72.14        0.58798       -178.66        
1427.2600     0.50739       45.36         2.256E-3      -75.31        2.229E-3      -73.76        0.58959       -178.91        
1430.2500     0.50624       45.53         2.204E-3      -81.54        2.166E-3      -80.01        0.59154       -179.08        
1433.2400     0.50517       45.75         2.191E-3      -82.56        2.148E-3      -79.60        0.59356       -179.20        
1436.2300     0.50416       45.99         2.104E-3      -86.82        2.119E-3      -84.22        0.59559       -179.23        
1439.2200     0.50301       46.22         2.123E-3      -88.50        2.108E-3      -86.63        0.59735       -179.16        
1442.2100     0.50193       46.47         2.158E-3      -89.89        2.178E-3      -88.69        0.59895       -179.01        
1445.2000     0.50073       46.77         2.113E-3      -92.20        2.135E-3      -91.17        0.59989       -178.79        
1448.1900     0.49914       47.10         2.123E-3      -94.62        2.063E-3      -92.50        0.60042       -178.54        
1451.1800     0.49747       47.48         2.111E-3      -96.37        2.067E-3      -98.84        0.60033       -178.28        
1454.1700     0.49566       47.88         2.133E-3      -100.18       2.089E-3      -98.60        0.59957       -178.02        
1457.1600     0.49372       48.32         2.082E-3      -104.08       2.035E-3      -101.54       0.59809       -177.76        
1460.1500     0.49145       48.82         2.102E-3      -105.32       2.088E-3      -106.02       0.59599       -177.54        
1463.1400     0.48913       49.36         2.129E-3      -105.82       2.073E-3      -108.40       0.59377       -177.39        
1466.1300     0.48646       49.93         2.12E-3       -109.15       2.078E-3      -111.24       0.59137       -177.33        
1469.1200     0.48369       50.55         2.13E-3       -115.43       2.046E-3      -113.51       0.58917       -177.36        
1472.1100     0.48109       51.20         2.108E-3      -115.99       2.057E-3      -116.03       0.58691       -177.48        
1475.1000     0.47826       51.85         2.125E-3      -119.83       2.056E-3      -121.04       0.58497       -177.71        
1478.0900     0.47535       52.53         2.05E-3       -123.40       2.107E-3      -123.73       0.58331       -177.99        
1481.0800     0.47258       53.22         2.123E-3      -125.13       2.046E-3      -126.13       0.58213       -178.30        
1484.0700     0.46991       53.94         2.07E-3       -126.72       2.034E-3      -128.42       0.58167       -178.68        
1487.0600     0.46772       54.67         2.064E-3      -129.86       2.106E-3      -130.46       0.58183       -179.07        
1490.0500     0.46586       55.43         2.066E-3      -134.90       2.062E-3      -133.92       0.58258       -179.45        
1493.0400     0.46403       56.19         2.03E-3       -136.64       1.994E-3      -137.09       0.58414       -179.80        
1496.0300     0.46284       56.96         2.075E-3      -138.76       1.979E-3      -140.18       0.58597       179.89         
1499.0200     0.4619        57.76         2.027E-3      -142.69       1.989E-3      -143.41       0.58811       179.64         
1502.0100     0.46128       58.60         2.037E-3      -144.50       2.051E-3      -147.23       0.59004       179.58         
1505.0000     0.46105       59.47         2.07E-3       -147.19       2.046E-3      -148.59       0.59219       179.54         
1507.9900     0.46135       60.36         2.053E-3      -151.56       2.044E-3      -150.25       0.59434       179.61         
1510.9800     0.46193       61.29         2.016E-3      -154.32       1.987E-3      -155.65       0.59612       179.75         
1513.9700     0.46288       62.25         1.987E-3      -156.57       1.964E-3      -159.37       0.59737       179.96         
1516.9600     0.46404       63.22         1.963E-3      -160.74       1.951E-3      -158.71       0.59796       -179.77        
1519.9500     0.46544       64.19         1.974E-3      -163.35       1.992E-3      -163.02       0.59792       -179.46        
1522.9400     0.46708       65.17         1.963E-3      -163.88       1.969E-3      -164.21       0.59762       -179.12        
1525.9300     0.46872       66.15         1.91E-3       -166.72       2.003E-3      -168.90       0.59662       -178.82        
1528.9200     0.47041       67.08         1.999E-3      -170.32       1.895E-3      -171.10       0.5953        -178.57        
1531.9100     0.4721        67.99         1.986E-3      -173.65       1.928E-3      -172.67       0.59337       -178.35        
1534.9000     0.47387       68.86         1.972E-3      -175.64       1.964E-3      -176.92       0.59125       -178.24        
1537.8900     0.47586       69.70         1.883E-3      -179.40       1.906E-3      179.36        0.58876       -178.17        
1540.8800     0.4781        70.48         1.872E-3      178.40        1.913E-3      177.50        0.5865        -178.21        
1543.8700     0.48068       71.24         1.882E-3      177.03        1.863E-3      174.75        0.58466       -178.31        
1546.8600     0.48354       71.96         1.852E-3      172.36        1.875E-3      170.12        0.58312       -178.53        
1549.8500     0.48657       72.60         1.797E-3      171.26        1.934E-3      168.41        0.58224       -178.81        
1552.8400     0.48997       73.18         1.814E-3      166.33        1.875E-3      164.04        0.58167       -179.13        
1555.8300     0.49356       73.71         1.878E-3      163.44        1.857E-3      162.74        0.58169       -179.49        
1558.8200     0.49727       74.20         1.88E-3       160.05        1.853E-3      159.89        0.58222       -179.81        
1561.8100     0.50144       74.65         1.911E-3      160.43        1.84E-3       156.54        0.58336       179.88         
1564.8000     0.50571       75.09         1.819E-3      156.72        1.821E-3      153.80        0.58465       179.61         
1567.7900     0.51015       75.49         1.813E-3      152.01        1.81E-3       151.29        0.58656       179.40         
1570.7800     0.51443       75.88         1.834E-3      149.78        1.803E-3      146.50        0.58834       179.26         
1573.7700     0.51882       76.26         1.763E-3      145.72        1.831E-3      144.90        0.59034       179.21         
1576.7600     0.52298       76.63         1.843E-3      141.45        1.777E-3      141.14        0.59195       179.23         
1579.7500     0.52684       77.01         1.836E-3      139.63        1.797E-3      139.03        0.59338       179.36         
1582.7400     0.5305        77.34         1.806E-3      136.52        1.762E-3      136.60        0.59456       179.53         
1585.7300     0.53367       77.65         1.786E-3      134.07        1.742E-3      133.32        0.59544       179.77         
1588.7200     0.53617       77.92         1.76E-3       130.00        1.752E-3      131.97        0.59566       -179.98        
1591.7100     0.53811       78.15         1.674E-3      126.02        1.791E-3      126.95        0.59538       -179.70        
1594.7000     0.53937       78.36         1.723E-3      125.63        1.726E-3      126.36        0.59452       -179.45        
1597.6900     0.54026       78.52         1.767E-3      120.37        1.712E-3      123.79        0.5931        -179.23        
1600.6800     0.54071       78.66         1.756E-3      117.73        1.741E-3      119.23        0.59159       -179.03        
1603.6700     0.54062       78.76         1.733E-3      116.30        1.803E-3      116.85        0.58958       -178.89        
1606.6600     0.54038       78.84         1.643E-3      113.93        1.726E-3      113.69        0.58791       -178.84        
1609.6500     0.53985       78.88         1.676E-3      111.16        1.693E-3      110.47        0.58602       -178.89        
1612.6400     0.53895       78.90         1.595E-3      106.07        1.614E-3      105.57        0.58443       -179.01        
1615.6300     0.53805       78.91         1.708E-3      103.35        1.658E-3      104.49        0.58317       -179.20        
1618.6200     0.53681       78.90         1.708E-3      99.59         1.715E-3      103.83        0.58198       -179.43        
1621.6100     0.53564       78.88         1.718E-3      97.85         1.722E-3      98.81         0.58123       -179.72        
1624.6000     0.53436       78.88         1.594E-3      94.77         1.663E-3      95.01         0.58123       179.98         
1627.5900     0.53268       78.89         1.732E-3      91.98         1.689E-3      92.89         0.58174       179.66         
1630.5800     0.53094       78.92         1.654E-3      88.98         1.661E-3      88.79         0.58274       179.38         
1633.5700     0.52893       78.99         1.624E-3      86.29         1.606E-3      86.38         0.58394       179.13         
1636.5600     0.52647       79.11         1.643E-3      83.71         1.61E-3       84.12         0.58548       178.94         
1639.5500     0.52353       79.24         1.606E-3      80.96         1.558E-3      82.75         0.58709       178.83         
1642.5400     0.51991       79.38         1.563E-3      80.23         1.467E-3      78.13         0.589         178.79         
1645.5300     0.51577       79.55         1.555E-3      75.02         1.575E-3      76.84         0.59083       178.83         
1648.5200     0.51093       79.74         1.607E-3      71.31         1.529E-3      74.48         0.59227       178.94         
1651.5100     0.50538       79.95         1.519E-3      68.86         1.414E-3      72.48         0.59333       179.10         
1654.5000     0.49916       80.12         1.48E-3       67.09         1.512E-3      66.45         0.59381       179.33         
1657.4900     0.49257       80.33         1.552E-3      63.67         1.515E-3      63.26         0.59399       179.59         
1660.4800     0.48541       80.53         1.476E-3      55.32         1.502E-3      62.29         0.59361       179.86         
1663.4700     0.47779       80.70         1.475E-3      59.06         1.392E-3      60.29         0.5927        -179.86        
1666.4600     0.46981       80.89         1.466E-3      55.50         1.419E-3      55.36         0.59149       -179.63        
1669.4500     0.46164       81.08         1.422E-3      53.88         1.458E-3      53.65         0.5901        -179.45        
1672.4400     0.45335       81.29         1.516E-3      48.43         1.383E-3      53.81         0.58829       -179.35        
1675.4300     0.44487       81.50         1.406E-3      50.03         1.411E-3      49.22         0.5862        -179.30        
1678.4200     0.43646       81.77         1.392E-3      45.45         1.442E-3      45.67         0.58412       -179.33        
1681.4100     0.42776       82.08         1.391E-3      42.54         1.394E-3      43.49         0.58205       -179.44        
1684.4000     0.41919       82.47         1.37E-3       38.08         1.349E-3      40.69         0.58022       -179.63        
1687.3900     0.41027       82.95         1.366E-3      37.70         1.434E-3      37.97         0.57899       -179.92        
1690.3800     0.40095       83.53         1.42E-3       34.64         1.363E-3      36.32         0.57825       179.74         
1693.3700     0.39105       84.25         1.369E-3      31.93         1.312E-3      34.65         0.57778       179.38         
1696.3600     0.37998       85.18         1.321E-3      28.92         1.351E-3      30.41         0.578         178.99         
1699.3500     0.36752       86.50         1.288E-3      26.65         1.33E-3       25.64         0.57868       178.63         
1702.3400     0.35415       88.43         1.307E-3      25.06         1.325E-3      22.17         0.58003       178.31         
1705.3300     0.34255       91.29         1.385E-3      23.12         1.293E-3      23.50         0.58165       178.05         
1708.3200     0.33626       94.80         1.315E-3      20.99         1.274E-3      19.69         0.58361       177.85         
1711.3100     0.33628       98.20         1.288E-3      16.71         1.288E-3      17.75         0.58564       177.74         
1714.3000     0.33974       100.94        1.346E-3      14.91         1.247E-3      13.36         0.58777       177.72         
1717.2900     0.34376       103.04        1.427E-3      10.91         1.276E-3      13.69         0.58964       177.79         
1720.2800     0.34671       104.75        1.258E-3      7.90          1.284E-3      9.36          0.59136       177.95         
1723.2700     0.3489        106.21        1.266E-3      6.64          1.258E-3      9.50          0.59275       178.20         
1726.2600     0.35062       107.53        1.255E-3      6.12          1.26E-3       1.57          0.59381       178.49         
1729.2500     0.35171       108.75        1.227E-3      0.94          1.211E-3      -1.24         0.59433       178.83         
1732.2400     0.35278       109.92        1.221E-3      -6.86         1.24E-3       -1.55         0.59439       179.17         
1735.2300     0.35392       111.00        1.234E-3      -6.31         1.231E-3      -6.13         0.59364       179.50         
1738.2200     0.35533       112.03        1.303E-3      -10.19        1.193E-3      -8.61         0.59249       179.82         
1741.2100     0.35719       112.99        1.168E-3      -11.76        1.19E-3       -10.31        0.59079       -179.90        
1744.2000     0.35951       113.91        1.191E-3      -12.99        1.158E-3      -15.57        0.58892       -179.70        
1747.1900     0.36235       114.79        1.162E-3      -19.68        1.204E-3      -19.10        0.58664       -179.60        
1750.1800     0.36545       115.65        1.181E-3      -21.10        1.089E-3      -20.80        0.58451       -179.58        
1753.1700     0.36882       116.48        1.16E-3       -18.75        1.175E-3      -20.74        0.58237       -179.65        
1756.1600     0.37251       117.30        1.122E-3      -24.05        1.144E-3      -28.38        0.58026       -179.80        
1759.1500     0.37615       118.13        1.087E-3      -26.10        1.014E-3      -30.98        0.57854       179.98         
1762.1400     0.38003       118.95        1.112E-3      -30.09        1.05E-3       -32.83        0.57715       179.68         
1765.1300     0.3837        119.77        1.121E-3      -34.37        1.023E-3      -35.42        0.57638       179.32         
1768.1200     0.38732       120.56        1.086E-3      -39.21        1.03E-3       -40.96        0.57615       178.94         
1771.1100     0.39122       121.25        9.798E-4      -37.85        1.038E-3      -41.75        0.57641       178.56         
1774.1000     0.39419       121.75        1.061E-3      -42.37        1.056E-3      -39.54        0.57713       178.21         
1777.0900     0.39574       122.21        9.148E-4      -44.04        9.54E-4       -41.19        0.5783        177.89         
1780.0800     0.39655       122.61        9.86E-4       -46.20        9.661E-4      -47.63        0.57992       177.66         
1783.0700     0.39692       122.94        9.652E-4      -51.81        9.413E-4      -51.53        0.58204       177.50         
1786.0600     0.39654       123.19        8.727E-4      -53.40        8.956E-4      -45.18        0.58419       177.44         
1789.0500     0.39582       123.35        9.165E-4      -58.63        8.735E-4      -53.84        0.58626       177.45         
1792.0400     0.39446       123.38        8.986E-4      -59.42        8.952E-4      -57.39        0.58797       177.54         
1795.0300     0.39294       123.34        9.36E-4       -57.93        9.132E-4      -62.45        0.58921       177.68         
1798.0200     0.39118       123.21        9.579E-4      -55.49        8.884E-4      -54.87        0.59015       177.90         
1801.0100     0.38924       123.00        8.921E-4      -65.39        8.426E-4      -63.10        0.59045       178.17         
1804.0000     0.38718       122.72        8.03E-4       -65.29        8.239E-4      -62.97        0.59047       178.43         
1806.9900     0.38483       122.42        7.639E-4      -60.50        6.884E-4      -70.54        0.59          178.69         
1809.9800     0.38219       122.08        8.158E-4      -69.84        7.641E-4      -62.61        0.58912       178.91         
1812.9700     0.37948       121.75        7.277E-4      -68.08        8.184E-4      -65.54        0.58766       179.10         
1815.9600     0.37625       121.44        7.664E-4      -70.56        7.739E-4      -69.83        0.58598       179.20         
1818.9500     0.3725        121.18        7.613E-4      -72.66        7.995E-4      -69.70        0.58403       179.25         
1821.9400     0.36808       120.96        7.08E-4       -74.40        7.034E-4      -69.00        0.58211       179.21         
1824.9300     0.36287       120.78        7.39E-4       -72.92        6.963E-4      -76.55        0.58021       179.08         
1827.9200     0.35679       120.67        7.791E-4      -71.42        7.42E-4       -71.67        0.5788        178.87         
1830.9100     0.34967       120.56        7.408E-4      -75.18        7.686E-4      -71.03        0.57758       178.60         
1833.9000     0.3416        120.52        7.349E-4      -77.34        6.97E-4       -75.15        0.57708       178.28         
1836.8900     0.33258       120.47        7.482E-4      -77.42        7.095E-4      -83.86        0.57708       177.94         
1839.8800     0.32272       120.47        7.77E-4       -81.33        6.779E-4      -78.39        0.5776        177.62         
1842.8700     0.31179       120.42        7.674E-4      -77.88        7.149E-4      -77.61        0.57884       177.31         
1845.8600     0.30007       120.39        7.189E-4      -79.08        7.266E-4      -78.25        0.58062       177.05         
1848.8500     0.28766       120.38        6.867E-4      -77.73        6.511E-4      -74.85        0.58281       176.86         
1851.8400     0.27468       120.40        7.123E-4      -81.04        7.009E-4      -85.35        0.58515       176.76         
1854.8300     0.26147       120.47        7.287E-4      -88.21        8.019E-4      -84.93        0.58719       176.74         
1857.8200     0.24813       120.69        8.325E-4      -84.08        7.996E-4      -85.42        0.58944       176.82         
1860.8100     0.23477       121.00        8.031E-4      -90.97        7.909E-4      -86.46        0.59128       177.02         
1863.8000     0.22159       121.48        7.606E-4      -88.27        7.466E-4      -89.98        0.5929        177.27         
1866.7900     0.20853       122.20        8.654E-4      -92.19        7.641E-4      -88.36        0.59393       177.59         
1869.7800     0.19579       123.22        8.56E-4       -93.35        8.296E-4      -88.05        0.59438       177.93         
1872.7700     0.18338       124.68        8.442E-4      -95.56        8.643E-4      -94.37        0.59399       178.29         
1875.7600     0.17127       126.62        8.297E-4      -97.37        8.497E-4      -93.72        0.59305       178.65         
1878.7500     0.15986       129.22        9.846E-4      -94.99        9.051E-4      -100.63       0.5913        178.97         
1881.7400     0.14922       132.61        8.891E-4      -98.86        8.71E-4       -99.84        0.58919       179.22         
1884.7300     0.13947       136.80        1.004E-3      -104.01       9.081E-4      -101.07       0.58666       179.37         
1887.7200     0.13106       141.94        9.327E-4      -105.85       1.075E-3      -101.25       0.58403       179.41         
1890.7100     0.12442       147.99        1.053E-3      -109.33       9.777E-4      -110.59       0.5814        179.35         
1893.7000     0.12007       154.83        9.284E-4      -115.55       1.00E-3       -112.93       0.57888       179.19         
1896.6900     0.11806       162.05        8.71E-4       -116.39       9.536E-4      -114.57       0.57649       178.92         
1899.6800     0.11856       169.30        1.001E-3      -117.87       1.075E-3      -117.50       0.57471       178.56         
1902.6700     0.12133       176.20        1.012E-3      -122.06       1.031E-3      -114.44       0.57364       178.13         
1905.6600     0.12584       -177.75       1.049E-3      -121.52       1.057E-3      -121.89       0.57344       177.67         
1908.6500     0.13168       -172.49       1.114E-3      -121.33       1.036E-3      -129.74       0.57417       177.17         
1911.6400     0.13814       -168.17       1.046E-3      -126.80       1.098E-3      -132.27       0.5755        176.70         
1914.6300     0.14498       -164.69       1.166E-3      -131.93       1.042E-3      -138.54       0.57769       176.29         
1917.6200     0.15167       -161.89       1.169E-3      -138.59       1.103E-3      -136.11       0.58034       175.98         
1920.6100     0.15791       -159.57       9.646E-4      -137.57       1.119E-3      -140.16       0.58332       175.81         
1923.6000     0.16415       -157.78       1.095E-3      -144.44       1.142E-3      -140.47       0.58643       175.73         
1926.5900     0.16974       -156.31       1.137E-3      -150.64       1.241E-3      -145.65       0.5894        175.80         
1929.5800     0.17512       -155.12       1.093E-3      -147.41       1.096E-3      -145.68       0.592         175.97         
1932.5700     0.18015       -154.10       1.108E-3      -151.53       1.117E-3      -150.20       0.59397       176.25         
1935.5600     0.1847        -153.23       1.183E-3      -157.18       1.079E-3      -155.61       0.59535       176.61         
1938.5500     0.18905       -152.40       1.13E-3       -160.42       1.099E-3      -155.20       0.5959        177.01         
1941.5400     0.19305       -151.67       1.154E-3      -163.36       1.19E-3       -157.74       0.59561       177.45         
1944.5300     0.1969        -150.91       1.119E-3      -167.10       1.116E-3      -166.52       0.59474       177.87         
1947.5200     0.20049       -150.14       1.142E-3      -169.01       1.113E-3      -167.69       0.59312       178.26         
1950.5100     0.20392       -149.35       1.147E-3      -178.05       1.142E-3      -176.33       0.59087       178.58         
1953.5000     0.20696       -148.54       1.178E-3      -178.42       1.189E-3      -174.65       0.58812       178.82         
1956.4900     0.20959       -147.67       1.12E-3       174.86        1.129E-3      176.31        0.58505       178.94         
1959.4800     0.21183       -146.80       1.117E-3      176.58        1.14E-3       172.94        0.58175       178.94         
1962.4700     0.21343       -145.83       1.103E-3      168.49        1.209E-3      172.63        0.57865       178.81         
1965.4600     0.21467       -144.86       1.166E-3      169.36        1.116E-3      165.33        0.57613       178.53         
1968.4500     0.21533       -143.81       1.07E-3       170.87        1.081E-3      165.35        0.57421       178.11         
1971.4400     0.21545       -142.72       1.145E-3      163.17        1.083E-3      167.69        0.5731        177.64         
1974.4300     0.21512       -141.66       1.231E-3      162.80        1.056E-3      163.31        0.57298       177.11         
1977.4200     0.21448       -140.54       1.014E-3      155.47        1.088E-3      158.53        0.57392       176.58         
1980.4100     0.21345       -139.40       1.025E-3      155.15        1.136E-3      155.04        0.57565       176.11         
1983.4000     0.21213       -138.24       1.034E-3      152.57        1.061E-3      156.29        0.57796       175.71         
1986.3900     0.21057       -137.06       1.057E-3      148.52        1.089E-3      150.49        0.58105       175.40         
1989.3800     0.20887       -135.85       9.69E-4       149.22        1.049E-3      148.50        0.58409       175.22         
1992.3700     0.20692       -134.58       1.013E-3      144.76        1.05E-3       141.54        0.58736       175.17         
1995.3600     0.20485       -133.24       1.015E-3      137.75        9.538E-4      140.70        0.59036       175.25         
1998.3500     0.20263       -131.83       1.02E-3       132.10        9.201E-4      138.42        0.59294       175.47         
2001.3400     0.2005        -130.35       9.569E-4      135.85        9.039E-4      132.06        0.59502       175.79         
2004.3300     0.19847       -128.70       9.18E-4       133.36        9.083E-4      132.32        0.59663       176.22         
2007.3200     0.19646       -126.96       9.643E-4      129.07        8.683E-4      127.14        0.59713       176.70         
2010.3100     0.19484       -125.05       8.672E-4      124.30        9.355E-4      132.29        0.59693       177.21         
2013.3000     0.19328       -122.94       8.511E-4      122.75        9.217E-4      125.39        0.59576       177.72         
2016.2900     0.19199       -120.68       9.121E-4      123.02        8.83E-4       117.35        0.59357       178.19         
2019.2800     0.19104       -118.17       8.993E-4      119.30        8.332E-4      116.87        0.59063       178.58         
2022.2700     0.19093       -115.59       8.915E-4      116.94        8.905E-4      117.41        0.58707       178.84         
2025.2600     0.19111       -112.86       7.377E-4      119.16        9.392E-4      109.71        0.58333       178.94         
2028.2500     0.19167       -109.98       8.347E-4      109.08        8.094E-4      107.15        0.57949       178.91         
2031.2400     0.19308       -107.06       7.659E-4      107.41        7.831E-4      97.71         0.5762        178.70         
2034.2300     0.19526       -104.06       7.597E-4      102.94        8.787E-4      101.23        0.57328       178.35         
2037.2200     0.19805       -101.00       8.152E-4      99.32         8.999E-4      102.04        0.57107       177.87         
2040.2100     0.20241       -97.97        7.734E-4      92.05         8.488E-4      100.16        0.56981       177.32         
2043.2000     0.20772       -95.15        7.925E-4      92.73         7.447E-4      104.89        0.56934       176.71         
2046.1900     0.21376       -92.50        7.552E-4      83.85         7.92E-4       88.00         0.56991       176.08         
2049.1800     0.22061       -90.20        7.469E-4      85.86         7.894E-4      92.85         0.57137       175.48         
2052.1700     0.22773       -88.07        8.178E-4      92.30         7.014E-4      88.11         0.57363       174.93         
2055.1600     0.23518       -86.15        7.50E-4       90.73         7.388E-4      86.58         0.57655       174.49         
2058.1500     0.24313       -84.34        7.627E-4      82.71         7.244E-4      80.04         0.57984       174.20         
2061.1400     0.25135       -82.77        8.044E-4      79.24         8.438E-4      80.41         0.58337       174.04         
2064.1300     0.25986       -81.35        6.578E-4      72.69         7.494E-4      79.44         0.58704       174.06         
2067.1200     0.26859       -80.12        6.956E-4      77.88         7.416E-4      76.69         0.59004       174.21         
2070.1100     0.27747       -79.01        6.666E-4      75.18         7.253E-4      75.21         0.59278       174.50         
2073.1000     0.28624       -78.06        7.71E-4       71.47         7.202E-4      69.56         0.59438       174.90         
2076.0900     0.295         -77.21        6.282E-4      74.86         6.656E-4      71.34         0.5953        175.39         
2079.0800     0.3037        -76.48        7.331E-4      70.15         7.20E-4       68.37         0.59507       175.90         
2082.0700     0.31238       -75.84        6.765E-4      65.80         6.928E-4      66.71         0.59408       176.40         
2085.0600     0.32064       -75.30        6.475E-4      65.09         7.879E-4      68.67         0.59232       176.85         
2088.0500     0.32881       -74.81        5.863E-4      64.16         6.879E-4      68.98         0.5898        177.21         
2091.0400     0.33685       -74.42        6.583E-4      66.37         6.912E-4      66.29         0.58699       177.46         
2094.0300     0.34461       -74.05        6.008E-4      51.65         6.64E-4       55.26         0.58391       177.61         
2097.0200     0.35199       -73.73        6.396E-4      55.03         6.477E-4      55.46         0.58093       177.60         
2100.0100     0.35913       -73.49        6.522E-4      50.65         6.302E-4      62.33         0.57806       177.47         
2103.0000     0.36625       -73.25        6.64E-4       59.29         6.013E-4      58.05         0.57563       177.15         
2105.9900     0.37311       -73.06        6.445E-4      49.41         5.751E-4      54.30         0.57362       176.74         
2108.9800     0.37957       -72.85        6.901E-4      52.46         4.953E-4      43.92         0.57259       176.25         
2111.9700     0.38609       -72.64        6.023E-4      46.48         7.609E-4      53.26         0.57235       175.67         
2114.9600     0.39235       -72.43        6.774E-4      43.59         7.388E-4      51.29         0.57302       175.08         
2117.9500     0.3985        -72.18        6.184E-4      43.03         6.116E-4      51.22         0.57473       174.54         
2120.9400     0.40477       -71.91        6.027E-4      36.12         7.157E-4      35.51         0.57713       174.05         
2123.9300     0.41096       -71.67        6.316E-4      38.48         7.471E-4      34.98         0.58023       173.68         
2126.9200     0.41737       -71.47        6.726E-4      40.08         5.475E-4      34.47         0.58389       173.46         
2129.9100     0.42362       -71.41        6.094E-4      26.71         5.978E-4      26.13         0.58742       173.39         
2132.9000     0.42915       -71.42        6.305E-4      30.09         5.991E-4      23.97         0.5907        173.48         
2135.8900     0.43356       -71.55        6.246E-4      24.04         5.917E-4      29.47         0.59373       173.71         
2138.8800     0.43621       -71.67        5.939E-4      35.85         7.125E-4      27.74         0.59598       174.08         
2141.8700     0.43782       -71.69        6.067E-4      33.87         5.799E-4      31.76         0.59772       174.53         
2144.8600     0.43891       -71.65        5.804E-4      38.29         6.061E-4      34.28         0.59834       175.05         
2147.8500     0.43993       -71.55        5.956E-4      26.89         5.069E-4      30.53         0.59854       175.62         
2150.8400     0.44081       -71.46        5.741E-4      18.80         5.939E-4      17.58         0.59759       176.18         
2153.8300     0.44164       -71.37        5.584E-4      29.40         6.187E-4      21.24         0.59596       176.69         
2156.8200     0.44249       -71.31        4.875E-4      25.60         5.465E-4      15.39         0.59381       177.13         
2159.8100     0.44331       -71.23        5.692E-4      13.38         6.64E-4       19.02         0.59097       177.49         
2162.8000     0.44431       -71.19        6.553E-4      11.27         4.878E-4      -1.94         0.5879        177.71         
2165.7900     0.44521       -71.14        6.295E-4      6.86          5.958E-4      1.89          0.58441       177.79         
2168.7800     0.44625       -71.08        5.066E-4      15.94         5.879E-4      18.32         0.58101       177.71         
2171.7700     0.44746       -70.99        6.427E-4      2.05          7.356E-4      6.55          0.57795       177.49         
2174.7600     0.44851       -70.87        5.114E-4      -2.45         6.231E-4      1.58          0.57523       177.11         
2177.7500     0.44953       -70.73        6.343E-4      -2.58         5.932E-4      -1.00         0.57333       176.64         
2180.7400     0.45033       -70.52        6.934E-4      3.65          6.357E-4      -0.35         0.57216       176.07         
2183.7300     0.45086       -70.28        6.034E-4      -3.80         5.684E-4      -2.13         0.57202       175.48         
2186.7200     0.45129       -70.02        6.201E-4      -7.89         6.841E-4      -1.90         0.57277       174.89         
2189.7100     0.45133       -69.70        6.253E-4      -10.41        5.965E-4      -4.52         0.57424       174.34         
2192.7000     0.45093       -69.34        6.377E-4      -10.17        6.938E-4      -14.55        0.57642       173.89         
2195.6900     0.45032       -68.98        7.37E-4       -12.42        6.154E-4      -17.74        0.57911       173.56         
2198.6800     0.44917       -68.56        6.077E-4      -16.60        6.374E-4      -8.01         0.58204       173.36         
2201.6700     0.44776       -68.19        5.787E-4      -19.84        6.492E-4      -13.60        0.58485       173.29         
2204.6600     0.44596       -67.81        4.894E-4      -18.26        6.252E-4      -22.79        0.58765       173.38         
2207.6500     0.44402       -67.44        5.699E-4      -17.14        5.763E-4      -12.49        0.58989       173.57         
2210.6400     0.44207       -67.12        5.651E-4      -14.68        6.299E-4      -37.31        0.59189       173.89         
2213.6300     0.44008       -66.84        6.286E-4      -21.27        6.764E-4      -24.63        0.59291       174.27         
2216.6200     0.43806       -66.62        4.363E-4      -32.42        6.863E-4      -17.76        0.59349       174.70         
2219.6100     0.43631       -66.40        4.664E-4      -30.70        6.807E-4      -34.99        0.59329       175.15         
2222.6000     0.43482       -66.25        6.248E-4      -26.75        7.211E-4      -27.23        0.59249       175.59         
2225.5900     0.43369       -66.11        6.216E-4      -27.77        6.017E-4      -26.52        0.59085       175.97         
2228.5800     0.43281       -65.95        6.949E-4      -36.14        6.968E-4      -40.03        0.5887        176.27         
2231.5700     0.43221       -65.82        5.59E-4       -35.75        7.768E-4      -33.93        0.58612       176.49         
2234.5600     0.43167       -65.67        6.384E-4      -43.54        5.222E-4      -36.14        0.5833        176.57         
2237.5500     0.43111       -65.46        6.448E-4      -40.47        8.138E-4      -40.87        0.5803        176.52         
2240.5400     0.43056       -65.23        5.738E-4      -52.15        6.399E-4      -36.29        0.57765       176.31         
2243.5300     0.42974       -64.97        5.785E-4      -47.86        6.451E-4      -38.57        0.57509       176.00         
2246.5200     0.42877       -64.65        6.296E-4      -46.46        5.564E-4      -52.31        0.57332       175.55         
2249.5100     0.42721       -64.26        5.664E-4      -39.35        7.076E-4      -39.76        0.57192       175.03         
2252.5000     0.4252        -63.86        5.622E-4      -46.88        5.084E-4      -39.53        0.57155       174.46         
2255.4900     0.42266       -63.41        6.878E-4      -52.74        6.865E-4      -47.00        0.57214       173.87         
2258.4800     0.41966       -62.97        5.179E-4      -58.55        6.694E-4      -54.68        0.57344       173.34         
2261.4700     0.41594       -62.51        6.591E-4      -65.84        6.96E-4       -56.25        0.57542       172.87         
2264.4600     0.41172       -62.05        6.397E-4      -57.49        5.971E-4      -53.66        0.57793       172.50         
2267.4500     0.40711       -61.63        6.399E-4      -66.04        6.373E-4      -50.77        0.58078       172.24         
2270.4400     0.40216       -61.24        6.547E-4      -64.56        5.874E-4      -57.76        0.58369       172.13         
2273.4300     0.39709       -60.89        5.455E-4      -63.46        6.025E-4      -59.92        0.58663       172.15         
2276.4200     0.392         -60.58        5.759E-4      -74.74        6.368E-4      -67.73        0.58937       172.27         
2279.4100     0.38709       -60.28        6.232E-4      -64.06        6.645E-4      -64.53        0.59178       172.51         
2282.4000     0.38258       -60.03        6.092E-4      -75.96        7.17E-4       -69.95        0.59385       172.86         
2285.3900     0.37856       -59.76        6.626E-4      -72.21        6.201E-4      -64.50        0.59506       173.28         
2288.3800     0.37466       -59.48        7.474E-4      -83.92        7.075E-4      -75.13        0.59563       173.75         
2291.3700     0.37128       -59.09        6.803E-4      -85.11        7.155E-4      -70.91        0.59545       174.23         
2294.3600     0.36828       -58.68        7.358E-4      -79.22        6.044E-4      -72.91        0.59439       174.70         
2297.3500     0.36559       -58.15        7.056E-4      -76.23        7.289E-4      -82.79        0.59284       175.11         
2300.3400     0.36324       -57.57        6.328E-4      -82.06        6.592E-4      -81.28        0.59053       175.45         
2303.3300     0.36104       -56.85        7.326E-4      -95.61        6.23E-4       -94.51        0.58786       175.66         
2306.3200     0.35905       -56.03        6.742E-4      -86.31        6.374E-4      -86.62        0.5848        175.72         
2309.3100     0.3571        -55.12        6.298E-4      -95.22        7.308E-4      -86.18        0.58169       175.68         
2312.3000     0.35543       -54.14        6.454E-4      -104.80       6.658E-4      -90.27        0.57891       175.48         
2315.2900     0.3534        -53.09        6.951E-4      -95.43        7.277E-4      -91.30        0.57651       175.19         
2318.2800     0.35142       -52.03        7.261E-4      -105.17       7.837E-4      -99.36        0.57459       174.77         
2321.2700     0.34945       -50.96        7.174E-4      -101.53       7.416E-4      -101.32       0.57335       174.30         
2324.2600     0.34735       -49.98        7.848E-4      -106.61       7.126E-4      -103.25       0.5728        173.79         
2327.2500     0.34521       -49.01        6.655E-4      -108.34       6.85E-4       -106.16       0.57288       173.25         
2330.2400     0.34332       -48.16        7.651E-4      -113.63       7.375E-4      -106.21       0.57388       172.74         
2333.2300     0.34158       -47.39        7.852E-4      -117.61       7.868E-4      -121.14       0.57552       172.28         
2336.2200     0.34023       -46.74        7.626E-4      -107.35       8.041E-4      -113.98       0.57768       171.89         
2339.2100     0.33937       -46.21        7.134E-4      -121.17       8.026E-4      -117.93       0.58032       171.63         
2342.2000     0.33919       -45.76        6.801E-4      -126.58       8.783E-4      -112.68       0.58341       171.49         
2345.1900     0.33964       -45.47        7.925E-4      -124.73       8.744E-4      -118.84       0.58645       171.48         
2348.1800     0.34059       -45.24        8.184E-4      -119.44       7.59E-4       -128.69       0.58927       171.62         
2351.1700     0.34201       -45.06        8.217E-4      -130.57       7.479E-4      -133.28       0.59184       171.88         
2354.1600     0.34392       -44.96        7.741E-4      -124.29       8.143E-4      -128.88       0.59361       172.23         
2357.1500     0.34604       -44.92        8.911E-4      -135.38       7.586E-4      -135.72       0.59474       172.67         
2360.1400     0.34847       -44.89        7.363E-4      -137.01       8.714E-4      -148.85       0.59508       173.11         
2363.1300     0.35081       -44.89        7.998E-4      -140.96       6.102E-4      -147.16       0.59453       173.57         
2366.1200     0.35291       -44.86        8.071E-4      -148.83       7.35E-4       -147.38       0.59355       173.98         
2369.1100     0.3548        -44.88        8.389E-4      -143.33       8.481E-4      -152.32       0.59169       174.34         
2372.1000     0.35604       -44.87        7.915E-4      -150.73       7.327E-4      -153.56       0.58942       174.61         
2375.0900     0.35663       -44.85        8.594E-4      -146.43       7.399E-4      -147.43       0.58695       174.78         
2378.0800     0.35627       -44.87        7.916E-4      -154.93       7.834E-4      -151.17       0.58423       174.84         
2381.0700     0.35528       -44.96        8.791E-4      -155.73       8.245E-4      -151.73       0.58144       174.78         
2384.0600     0.35322       -45.12        8.357E-4      -161.91       8.031E-4      -158.08       0.57874       174.61         
2387.0500     0.35037       -45.35        7.541E-4      -162.96       8.647E-4      -162.71       0.57641       174.29         
2390.0400     0.34683       -45.71        7.893E-4      -166.41       8.904E-4      -162.08       0.57463       173.87         
2393.0300     0.34297       -46.12        8.57E-4       -165.12       8.135E-4      -161.01       0.5735        173.41         
2396.0200     0.33856       -46.63        8.348E-4      -175.58       9.215E-4      -162.60       0.57333       172.87         
2399.0100     0.33395       -47.22        7.841E-4      -174.38       9.11E-4       -168.78       0.5741        172.34         
2402.0000     0.32926       -47.84        7.571E-4      -178.52       7.60E-4       178.80        0.57572       171.87         
2404.9900     0.32467       -48.50        8.632E-4      177.26        1.051E-3      -178.43       0.5782        171.46         
2407.9800     0.32019       -49.20        8.266E-4      -178.24       8.892E-4      166.07        0.58112       171.20         
2410.9700     0.31592       -49.84        9.367E-4      169.49        7.147E-4      173.76        0.58421       171.08         
2413.9600     0.31185       -50.48        8.429E-4      170.01        7.244E-4      169.03        0.58747       171.10         
2416.9500     0.30808       -51.01        7.919E-4      169.53        8.414E-4      168.01        0.59039       171.25         
2419.9400     0.30438       -51.50        8.306E-4      166.09        8.563E-4      169.10        0.59269       171.55         
2422.9300     0.30059       -51.89        8.613E-4      161.19        8.986E-4      162.11        0.59439       171.92         
2425.9200     0.29675       -52.18        7.334E-4      160.40        8.753E-4      154.54        0.59567       172.37         
2428.9100     0.29258       -52.41        9.677E-4      158.04        8.627E-4      158.62        0.59573       172.86         
2431.9000     0.28791       -52.53        8.345E-4      161.17        8.238E-4      151.62        0.5953        173.35         
2434.8900     0.28259       -52.66        8.813E-4      152.98        8.161E-4      155.93        0.59403       173.84         
2437.8800     0.27664       -52.73        9.265E-4      154.65        9.186E-4      154.82        0.59205       174.27         
2440.8700     0.27003       -52.81        9.388E-4      150.50        8.305E-4      149.95        0.58948       174.63         
2443.8600     0.26296       -52.93        8.445E-4      150.91        8.833E-4      144.58        0.5862        174.85         
2446.8500     0.25568       -53.10        9.535E-4      147.44        9.709E-4      156.45        0.58253       174.93         
2449.8400     0.24807       -53.28        8.477E-4      139.73        8.34E-4       148.44        0.57886       174.84         
2452.8300     0.2404        -53.55        8.602E-4      141.04        9.395E-4      145.30        0.5752        174.60         
2455.8200     0.23274       -53.92        9.591E-4      133.78        8.829E-4      129.70        0.5722        174.19         
2458.8100     0.2253        -54.31        9.512E-4      133.93        8.556E-4      128.92        0.56967       173.65         
2461.8000     0.21837       -54.79        9.103E-4      129.85        1.044E-3      133.85        0.56839       173.00         
2464.7900     0.21161       -55.29        9.07E-4       132.26        8.805E-4      136.73        0.56789       172.30         
2467.7800     0.20538       -55.78        9.858E-4      132.38        9.776E-4      124.93        0.56881       171.64         
2470.7700     0.19947       -56.22        8.908E-4      128.48        9.928E-4      123.03        0.57031       170.99         
2473.7600     0.19407       -56.54        1.014E-3      120.11        9.815E-4      119.01        0.57287       170.46         
2476.7500     0.18873       -56.68        9.054E-4      118.24        9.976E-4      111.05        0.57593       170.04         
2479.7400     0.18371       -56.58        9.757E-4      110.37        1.01E-3       109.32        0.57922       169.77         
2482.7300     0.17868       -56.31        9.442E-4      108.53        1.01E-3       108.77        0.58277       169.66         
2485.7200     0.1739        -55.82        1.031E-3      107.22        8.244E-4      111.13        0.58638       169.67         
2488.7100     0.16858       -55.19        9.303E-4      101.62        8.913E-4      99.06         0.58967       169.86         
2491.7000     0.1627        -54.02        1.024E-3      101.96        9.671E-4      103.86        0.59265       170.25         
2494.6900     0.15666       -52.93        9.951E-4      103.53        1.015E-3      103.77        0.59478       170.68         
2497.6800     0.1496        -51.64        9.382E-4      95.84         1.014E-3      97.33         0.59597       171.20         
2500.6700     0.14239       -49.87        9.916E-4      96.50         9.906E-4      95.56         0.59648       171.76         
2503.6600     0.13559       -47.74        9.409E-4      85.02         9.487E-4      89.25         0.59597       172.32         
2506.6500     0.1296        -45.47        9.869E-4      91.73         1.019E-3      86.92         0.59439       172.86         
2509.6400     0.12414       -42.99        1.06E-3       86.84         1.04E-3       89.71         0.59196       173.28         
2512.6300     0.11941       -40.46        1.051E-3      85.73         1.025E-3      84.85         0.58891       173.61         
2515.6200     0.11549       -38.04        1.04E-3       83.05         9.552E-4      80.44         0.58551       173.77         
2518.6100     0.11252       -35.69        1.064E-3      78.66         1.13E-3       76.49         0.58181       173.77         
2521.6000     0.1107        -33.52        1.035E-3      73.31         1.023E-3      75.41         0.57822       173.60         
2524.5900     0.10979       -31.55        1.021E-3      66.19         1.069E-3      71.99         0.57497       173.27         
2527.5800     0.10983       -29.66        9.541E-4      63.97         1.104E-3      65.62         0.57258       172.81         
2530.5700     0.11091       -28.07        1.017E-3      63.68         1.223E-3      60.99         0.57068       172.24         
2533.5600     0.11313       -26.57        1.101E-3      58.00         1.164E-3      57.17         0.56987       171.61         
2536.5500     0.11615       -25.18        1.089E-3      54.31         1.014E-3      60.95         0.57017       170.94         
2539.5400     0.11996       -23.87        1.126E-3      58.56         1.122E-3      52.12         0.5713        170.32         
2542.5300     0.12422       -22.70        1.098E-3      43.58         1.171E-3      52.82         0.57343       169.77         
2545.5200     0.12875       -21.57        1.117E-3      45.91         1.095E-3      41.34         0.57634       169.32         
2548.5100     0.13332       -20.67        1.006E-3      43.98         1.065E-3      42.63         0.57958       169.02         
2551.5000     0.13781       -19.87        1.066E-3      40.91         1.09E-3       36.80         0.58317       168.88         
2554.4900     0.14181       -19.20        1.139E-3      35.85         1.003E-3      29.88         0.58687       168.92         
2557.4800     0.14532       -18.80        1.073E-3      36.01         1.108E-3      33.40         0.59012       169.13         
2560.4700     0.14806       -18.60        9.967E-4      33.43         1.007E-3      30.92         0.59307       169.49         
2563.4600     0.15031       -18.78        1.008E-3      26.80         1.085E-3      25.69         0.59517       169.98         
2566.4500     0.1516        -19.12        1.119E-3      27.02         9.984E-4      21.72         0.59635       170.53         
2569.4400     0.15247       -19.87        1.089E-3      21.07         1.071E-3      22.95         0.59633       171.11         
2572.4300     0.15283       -20.90        1.129E-3      20.71         1.039E-3      19.65         0.5953        171.69         
2575.4200     0.15294       -22.18        1.021E-3      14.28         1.081E-3      21.82         0.59346       172.20         
2578.4100     0.15287       -23.76        1.019E-3      11.39         1.077E-3      12.72         0.59076       172.63         
2581.4000     0.15283       -25.62        1.049E-3      9.36          1.144E-3      12.04         0.58732       172.93         
2584.3900     0.15324       -27.65        9.375E-4      2.40          1.063E-3      9.51          0.58383       173.07         
2587.3800     0.15368       -29.77        9.544E-4      3.19          1.02E-3       2.82          0.57985       173.02         
2590.3700     0.15454       -31.88        1.069E-3      -1.34         9.797E-4      2.23          0.57628       172.84         
2593.3600     0.15546       -34.01        9.337E-4      -5.43         1.099E-3      -4.05         0.57304       172.46         
2596.3500     0.15656       -35.96        9.657E-4      -14.69        9.49E-4       -6.62         0.57059       171.95         
2599.3400     0.15739       -37.75        9.607E-4      -10.53        1.02E-3       -13.26        0.56903       171.35         
2602.3300     0.15794       -39.40        1.02E-3       -16.28        1.002E-3      -10.79        0.56835       170.67         
2605.3200     0.15799       -40.94        9.763E-4      -23.49        1.03E-3       -18.40        0.56896       169.98         
2608.3100     0.1574        -42.29        9.787E-4      -25.86        1.003E-3      -19.70        0.57057       169.33         
2611.3000     0.15631       -43.70        9.386E-4      -27.79        1.027E-3      -17.87        0.57327       168.79         
2614.2900     0.15413       -45.03        1.032E-3      -27.78        9.863E-4      -27.72        0.57649       168.38         
2617.2800     0.15147       -46.46        9.284E-4      -27.37        8.404E-4      -42.53        0.58025       168.14         
2620.2700     0.14808       -47.99        8.838E-4      -34.70        1.028E-3      -33.35        0.58442       168.07         
2623.2600     0.14413       -49.70        9.224E-4      -39.02        9.085E-4      -36.34        0.58825       168.21         
2626.2500     0.14          -51.62        8.932E-4      -43.01        9.242E-4      -37.55        0.59195       168.50         
2629.2400     0.13563       -53.76        9.062E-4      -36.12        9.269E-4      -35.19        0.59472       168.93         
2632.2300     0.13122       -56.17        8.92E-4       -44.81        9.179E-4      -38.95        0.59651       169.48         
2635.2200     0.12679       -58.79        8.346E-4      -47.74        8.756E-4      -43.82        0.59745       170.09         
2638.2100     0.12276       -61.50        8.845E-4      -47.03        9.615E-4      -46.94        0.59731       170.72         
2641.2000     0.11919       -64.32        8.701E-4      -56.78        8.752E-4      -49.01        0.59612       171.34         
2644.1900     0.11579       -67.21        8.412E-4      -57.53        8.147E-4      -49.10        0.59386       171.89         
2647.1800     0.11276       -69.92        9.161E-4      -54.64        8.359E-4      -53.26        0.5909        172.33         
2650.1700     0.10993       -72.49        8.674E-4      -59.63        8.728E-4      -56.85        0.58747       172.65         
2653.1600     0.10691       -74.92        8.712E-4      -59.06        9.098E-4      -56.43        0.58352       172.79         
2656.1500     0.10375       -77.00        9.359E-4      -57.84        9.316E-4      -61.20        0.57941       172.77         
2659.1400     0.10023       -79.01        7.339E-4      -62.80        8.213E-4      -61.83        0.57544       172.56         
2662.1300     0.0962        -80.72        8.558E-4      -68.94        8.623E-4      -69.68        0.57186       172.18         
2665.1200     0.09158       -82.37        8.672E-4      -79.62        8.999E-4      -68.01        0.56914       171.67         
2668.1100     0.08644       -83.93        8.797E-4      -71.74        8.505E-4      -81.61        0.56722       171.01         
2671.1000     0.08063       -85.68        8.207E-4      -74.38        7.821E-4      -77.08        0.56654       170.32         
2674.0900     0.07441       -87.40        8.83E-4       -72.63        8.592E-4      -77.43        0.56675       169.62         
2677.0800     0.06778       -89.48        8.162E-4      -86.46        8.351E-4      -82.18        0.56817       168.96         
2680.0700     0.06095       -92.06        7.60E-4       -86.22        7.578E-4      -83.38        0.57084       168.41         
2683.0600     0.05401       -94.95        8.037E-4      -80.15        8.036E-4      -84.68        0.57409       167.99         
2686.0500     0.04747       -98.72        7.742E-4      -85.03        7.805E-4      -83.87        0.57785       167.74         
2689.0400     0.04109       -103.42       7.449E-4      -90.29        8.07E-4       -92.09        0.58157       167.67         
2692.0300     0.03529       -109.38       7.576E-4      -94.74        8.236E-4      -96.21        0.58523       167.79         
2695.0200     0.03012       -116.60       6.687E-4      -96.92        8.197E-4      -97.56        0.58822       168.04         
2698.0100     0.02556       -125.18       7.392E-4      -94.24        7.641E-4      -97.03        0.59057       168.45         
2701.0000     0.02168       -135.73       7.685E-4      -104.63       8.266E-4      -112.02       0.59195       168.93         
2703.9900     0.0185        -148.86       7.433E-4      -101.05       8.231E-4      -104.07       0.59249       169.46         
2706.9800     0.01604       -165.03       8.018E-4      -107.98       8.794E-4      -109.73       0.59191       170.02         
2709.9700     0.01456       175.64        6.501E-4      -108.25       7.243E-4      -112.34       0.59049       170.52         
2712.9600     0.01438       153.50        7.657E-4      -110.61       8.071E-4      -113.77       0.58837       170.96         
2715.9500     0.01581       132.13        6.339E-4      -119.12       6.576E-4      -111.04       0.58539       171.30         
2718.9400     0.01871       114.35        7.672E-4      -118.90       8.108E-4      -115.63       0.58202       171.50         
2721.9300     0.02291       101.32        7.044E-4      -122.70       8.869E-4      -121.96       0.57815       171.54         
2724.9200     0.02803       91.50         6.894E-4      -120.51       8.002E-4      -130.52       0.57416       171.41         
2727.9100     0.03368       84.53         7.014E-4      -132.67       7.845E-4      -121.13       0.57061       171.09         
2730.9000     0.03975       79.39         7.71E-4       -129.37       8.045E-4      -125.48       0.56756       170.61         
2733.8900     0.04582       75.30         8.295E-4      -137.35       7.738E-4      -136.20       0.5653        170.00         
2736.8800     0.05177       71.94         7.284E-4      -137.01       7.892E-4      -147.55       0.56432       169.31         
2739.8700     0.05731       69.20         7.824E-4      -140.06       8.039E-4      -134.61       0.56457       168.58         
2742.8600     0.06221       67.01         7.552E-4      -147.00       7.374E-4      -140.87       0.56615       167.88         
2745.8500     0.06674       65.12         6.977E-4      -145.27       7.256E-4      -146.35       0.56851       167.27         
2748.8400     0.07069       63.65         7.145E-4      -152.96       8.295E-4      -148.29       0.57196       166.79         
2751.8300     0.07438       62.17         7.08E-4       -154.25       8.065E-4      -148.91       0.5759        166.44         
2754.8200     0.07752       60.60         7.407E-4      -154.85       7.293E-4      -155.81       0.57992       166.30         
2757.8100     0.08022       59.23         7.041E-4      -156.93       7.206E-4      -158.75       0.58422       166.33         
2760.8000     0.0827        57.91         7.067E-4      -163.97       7.097E-4      -158.58       0.58796       166.53         
2763.7900     0.085         56.63         6.626E-4      -163.39       6.64E-4       -160.74       0.59128       166.88         
2766.7800     0.08726       55.25         7.101E-4      -167.31       7.134E-4      -161.04       0.59374       167.37         
2769.7700     0.08934       53.83         6.889E-4      -163.58       7.968E-4      -162.93       0.59534       167.93         
2772.7600     0.09158       52.51         7.351E-4      -164.46       6.952E-4      -167.07       0.59627       168.56         
2775.7500     0.09362       51.21         6.738E-4      -170.33       5.994E-4      -166.54       0.59567       169.23         
2778.7400     0.0959        50.14         5.579E-4      -172.17       7.379E-4      -175.64       0.59433       169.85         
2781.7300     0.09799       48.94         6.293E-4      178.20        6.373E-4      -174.14       0.59181       170.40         
2784.7200     0.10005       48.15         6.051E-4      173.57        6.596E-4      -175.93       0.5884        170.86         
2787.7100     0.10208       47.33         6.941E-4      176.53        6.062E-4      177.88        0.58432       171.14         
2790.7000     0.10391       46.88         5.797E-4      175.07        5.982E-4      175.91        0.57982       171.27         
2793.6900     0.10568       46.49         7.203E-4      162.86        5.723E-4      179.51        0.57535       171.21         
2796.6800     0.10729       46.24         6.289E-4      170.24        7.198E-4      163.61        0.57087       170.97         
2799.6700     0.10877       46.15         7.328E-4      169.68        6.81E-4       170.68        0.56734       170.56         
2802.6600     0.10991       46.19         6.315E-4      158.90        5.881E-4      159.75        0.56452       169.99         
2805.6500     0.1109        46.37         6.882E-4      165.25        7.059E-4      170.93        0.56268       169.32         
2808.6400     0.11166       46.57         6.326E-4      157.56        5.861E-4      160.65        0.56218       168.61         
2811.6300     0.11228       46.83         6.309E-4      153.22        6.817E-4      161.75        0.56266       167.90         
2814.6200     0.11287       47.17         6.473E-4      156.41        6.189E-4      155.65        0.56424       167.25         
2817.6100     0.11355       47.60         4.918E-4      149.59        5.402E-4      152.42        0.56663       166.67         
2820.6000     0.11404       48.09         5.734E-4      154.15        5.468E-4      155.30        0.5698        166.25         
2823.5900     0.11457       48.58         7.013E-4      156.56        6.693E-4      158.84        0.57334       165.95         
2826.5800     0.11514       49.24         5.596E-4      147.21        5.696E-4      151.50        0.57717       165.84         
2829.5700     0.11599       49.93         6.158E-4      134.39        6.142E-4      140.90        0.58078       165.89         
2832.5600     0.11694       50.64         5.677E-4      138.64        5.882E-4      148.12        0.58422       166.10         
2835.5500     0.11797       51.57         5.88E-4       135.44        6.733E-4      140.13        0.58681       166.45         
2838.5400     0.11933       52.43         5.709E-4      143.54        6.314E-4      138.28        0.5888        166.91         
2841.5300     0.12091       53.47         5.283E-4      141.85        6.354E-4      134.30        0.58981       167.46         
2844.5200     0.12249       54.56         5.745E-4      143.16        5.553E-4      132.75        0.58964       168.01         
2847.5100     0.12436       55.81         5.894E-4      138.23        5.137E-4      134.66        0.58854       168.57         
2850.5000     0.12633       56.93         5.49E-4       126.57        7.191E-4      130.80        0.58658       169.05         
2853.4900     0.12838       57.96         7.516E-4      124.85        5.906E-4      128.13        0.58367       169.44         
2856.4800     0.13015       59.02         6.231E-4      122.59        6.005E-4      121.52        0.58031       169.74         
2859.4700     0.13172       60.11         6.12E-4       124.19        6.701E-4      119.75        0.57668       169.86         
2862.4600     0.13332       61.23         6.734E-4      130.99        6.984E-4      130.65        0.57322       169.85         
2865.4500     0.13483       62.38         5.574E-4      123.26        6.049E-4      124.14        0.56959       169.65         
2868.4400     0.13654       63.57         6.807E-4      117.60        6.505E-4      115.98        0.56646       169.32         
2871.4300     0.13826       64.70         5.621E-4      112.10        5.685E-4      113.40        0.56402       168.84         
2874.4200     0.14017       65.86         5.413E-4      106.40        6.505E-4      107.99        0.56242       168.28         
2877.4100     0.1423        66.88         7.567E-4      101.03        6.00E-4       102.16        0.5615        167.65         
2880.4000     0.14467       68.05         5.502E-4      96.43         6.186E-4      99.23         0.56166       166.98         
2883.3900     0.14726       69.15         6.528E-4      110.35        6.966E-4      99.24         0.56272       166.35         
2886.3800     0.15002       70.32         5.714E-4      100.33        5.675E-4      99.60         0.56478       165.78         
2889.3700     0.15323       71.55         5.672E-4      98.91         6.858E-4      96.53         0.56765       165.33         
2892.3600     0.15666       72.79         6.631E-4      92.43         5.961E-4      96.36         0.57109       164.96         
2895.3500     0.16063       74.16         7.392E-4      87.72         6.178E-4      87.47         0.57477       164.80         
2898.3400     0.16496       75.56         5.746E-4      80.24         6.839E-4      85.89         0.57821       164.78         
2901.3300     0.16967       76.95         5.339E-4      98.79         6.459E-4      79.50         0.58139       164.91         
2904.3200     0.17461       78.33         5.724E-4      86.00         6.311E-4      76.50         0.58413       165.20         
2907.3100     0.17999       79.77         6.318E-4      78.49         6.358E-4      72.22         0.58605       165.56         
2910.3000     0.18531       81.08         6.049E-4      75.64         6.282E-4      74.84         0.58711       166.01         
2913.2900     0.1911        82.29         6.121E-4      80.14         6.138E-4      71.71         0.5875        166.49         
2916.2800     0.19689       83.39         5.907E-4      71.13         6.409E-4      73.23         0.58692       166.99         
2919.2700     0.20307       84.31         5.316E-4      61.33         6.083E-4      60.93         0.58575       167.44         
2922.2600     0.20929       85.10         5.982E-4      58.68         6.265E-4      59.09         0.58402       167.85         
2925.2500     0.21548       85.67         5.861E-4      59.16         6.381E-4      54.39         0.58151       168.17         
2928.2400     0.22182       86.13         6.34E-4       47.34         5.677E-4      58.04         0.57873       168.40         
2931.2300     0.22824       86.41         5.575E-4      47.67         5.999E-4      57.04         0.57555       168.46         
2934.2200     0.2347        86.54         5.232E-4      52.90         6.259E-4      50.17         0.57247       168.37         
2937.2100     0.24152       86.57         6.528E-4      43.38         6.158E-4      52.10         0.56945       168.17         
2940.2000     0.24846       86.52         5.465E-4      39.44         5.792E-4      34.94         0.56683       167.83         
2943.1900     0.25561       86.43         7.546E-4      39.20         6.358E-4      45.04         0.56502       167.36         
2946.1800     0.26284       86.29         5.341E-4      47.24         6.089E-4      38.89         0.5641        166.82         
2949.1700     0.27058       86.14         5.549E-4      28.04         6.495E-4      28.73         0.56416       166.22         
2952.1600     0.2782        85.99         6.279E-4      32.98         5.99E-4       30.82         0.56488       165.65         
2955.1500     0.28595       85.89         5.551E-4      31.22         6.31E-4       33.31         0.5664        165.12         
2958.1400     0.29381       85.78         4.66E-4       19.14         5.589E-4      21.73         0.56885       164.67         
2961.1300     0.30135       85.71         5.62E-4       22.73         5.447E-4      26.18         0.57196       164.38         
2964.1200     0.30859       85.67         6.071E-4      20.42         4.745E-4      19.65         0.575         164.20         
2967.1100     0.31528       85.66         6.079E-4      15.86         4.864E-4      15.23         0.57819       164.17         
2970.1000     0.32134       85.58         4.79E-4       14.45         6.252E-4      17.16         0.58129       164.28         
2973.0900     0.32702       85.50         4.469E-4      27.80         5.333E-4      17.97         0.58393       164.53         
2976.0800     0.33203       85.37         5.24E-4       7.61          5.205E-4      10.86         0.58576       164.92         
2979.0700     0.33637       85.23         4.122E-4      5.28          4.989E-4      7.93          0.58737       165.38         
2982.0600     0.33988       85.02         4.58E-4       12.19         5.254E-4      10.88         0.58801       165.91         
2985.0500     0.34331       84.76         5.116E-4      -1.45         4.583E-4      8.74          0.58787       166.47         
2988.0400     0.34612       84.46         4.779E-4      12.01         5.341E-4      1.03          0.58678       167.02         
2991.0300     0.34863       84.13         4.172E-4      -10.80        5.06E-4       -7.86         0.58489       167.50         
2994.0200     0.35127       83.74         3.901E-4      -15.81        4.411E-4      -12.47        0.58227       167.91         
2997.0100     0.35383       83.32         5.941E-4      -15.85        5.659E-4      -8.76         0.57901       168.18         
3000.0000     0.35636       82.93         4.721E-4      -11.24        5.817E-4      -20.15        0.57489       168.26         
