!    08/05/2026   14:34:44 
! Ref Plane: 0.000 mm
# MHZ S MA R  50
!
10.0000       1.00119       -178.85       1.017E-4      -68.98        3.146E-5      132.43        0.36572       -8.60          
12.9900       1.00158       -178.56       9.716E-6      -144.57       2.881E-5      -24.08        0.36209       -10.17         
15.9800       1.00181       -178.26       1.953E-5      41.38         1.202E-5      -129.94       0.35953       -12.37         
18.9700       1.00214       -177.97       5.86E-5       157.34        8.336E-5      35.37         0.35301       -14.46         
21.9600       1.00244       -177.68       1.292E-4      70.00         2.826E-5      117.78        0.34598       -15.55         
24.9500       1.00276       -177.38       8.281E-5      40.67         6.746E-5      11.64         0.34888       -16.09         
27.9400       1.003         -177.09       5.115E-5      85.13         3.181E-5      -28.05        0.35748       -18.25         
30.9300       1.00317       -176.80       1.167E-4      -28.36        6.44E-5       -99.54        0.35984       -21.45         
33.9200       1.00332       -176.51       8.148E-5      -83.34        3.382E-5      -153.66       0.35784       -23.93         
36.9100       1.00336       -176.21       8.812E-5      -54.35        3.038E-5      118.71        0.35851       -26.23         
39.9000       1.00322       -175.93       5.397E-5      -40.02        2.437E-5      -14.88        0.3588        -28.57         
42.8900       1.00321       -175.64       8.547E-5      -117.54       8.547E-5      -26.11        0.35871       -30.77         
45.8800       1.00335       -175.35       5.966E-5      29.65         5.616E-5      -38.18        0.35811       -32.82         
48.8700       1.00336       -175.00       1.35E-4       19.05         9.275E-5      -60.35        0.3559        -34.59         
51.8600       1.0031        -174.77       9.908E-5      -63.33        1.655E-4      -35.21        0.35309       -35.95         
54.8500       1.00416       -174.55       1.016E-4      -139.39       4.094E-5      -110.13       0.35531       -36.47         
57.8400       1.00315       -174.16       8.151E-5      -165.12       7.855E-5      -55.85        0.36164       -37.86         
60.8300       1.00325       -173.87       3.627E-5      155.80        7.002E-5      -88.67        0.36445       -39.64         
63.8200       1.00335       -173.57       1.307E-4      -168.11       8.731E-5      -99.39        0.36535       -41.16         
66.8100       1.00352       -173.25       4.685E-6      146.44        1.424E-4      -176.70       0.36643       -42.55         
69.8000       1.00372       -172.94       6.491E-5      174.67        2.414E-5      46.44         0.36803       -44.10         
72.7900       1.00427       -172.63       1.492E-4      142.88        9.935E-5      168.24        0.36857       -45.77         
75.7800       1.00438       -172.31       3.488E-5      -14.76        6.687E-5      -8.72         0.36815       -47.42         
78.7700       1.00462       -171.97       6.06E-5       10.71         8.295E-5      -147.89       0.36759       -49.00         
81.7600       1.00488       -171.65       2.722E-5      142.32        5.066E-5      93.82         0.36738       -50.55         
84.7500       1.00505       -171.36       5.792E-5      -94.21        8.165E-5      74.99         0.36736       -52.20         
87.7400       1.00523       -171.07       7.405E-5      56.34         1.874E-5      106.10        0.36733       -53.87         
90.7300       1.00546       -170.79       7.139E-5      -58.46        8.148E-5      -78.47        0.36738       -55.49         
93.7200       1.006         -170.43       1.425E-5      23.88         7.987E-5      76.96         0.36815       -57.00         
96.7100       1.0056        -170.19       2.089E-5      -37.45        3.719E-5      6.15          0.36972       -58.52         
99.7000       1.00565       -169.89       8.998E-5      -60.27        9.529E-5      76.72         0.37229       -60.04         
102.6900      1.00536       -169.61       4.445E-5      -179.26       5.392E-5      -98.30        0.37558       -61.60         
105.6800      1.00521       -169.33       1.088E-4      175.60        9.904E-5      -146.48       0.37938       -63.17         
108.6700      1.00522       -169.06       8.197E-5      -143.59       9.971E-5      -54.18        0.38318       -64.72         
111.6600      1.00487       -168.76       2.519E-5      -153.49       7.178E-5      -120.75       0.38702       -66.22         
114.6500      1.0046        -168.47       3.055E-5      -47.74        5.739E-5      -40.35        0.39057       -67.66         
117.6400      1.00444       -168.18       4.018E-5      -28.42        1.508E-5      132.52        0.39391       -68.99         
120.6300      1.00464       -167.88       6.411E-5      161.73        1.061E-4      -127.23       0.39686       -70.24         
123.6200      1.00487       -167.57       3.247E-5      124.50        6.227E-5      -174.51       0.3993        -71.42         
126.6100      1.00464       -167.25       2.291E-5      -133.63       2.79E-5       53.26         0.40138       -72.54         
129.6000      1.00468       -166.92       7.059E-5      130.75        6.696E-5      119.11        0.40327       -73.63         
132.5900      1.00475       -166.60       4.464E-5      170.28        6.806E-5      -146.35       0.40518       -74.70         
135.5800      1.00468       -166.27       6.691E-5      170.48        4.606E-5      -85.71        0.40688       -75.76         
138.5700      1.00483       -165.94       9.454E-5      -169.22       6.288E-5      148.60        0.40827       -76.85         
141.5600      1.00514       -165.65       7.307E-5      -166.80       5.345E-5      145.41        0.40948       -77.95         
144.5500      1.00548       -165.37       2.694E-5      -162.69       7.248E-5      -174.13       0.4105        -79.07         
147.5400      1.00604       -165.06       1.055E-4      168.10        1.262E-5      -141.51       0.41134       -80.24         
150.5300      1.00635       -164.76       6.532E-5      168.54        1.015E-4      124.25        0.41203       -81.49         
153.5200      1.00647       -164.46       4.617E-5      128.24        1.34E-4       129.02        0.41265       -82.77         
156.5100      1.0065        -164.15       3.775E-5      153.72        1.073E-4      79.63         0.41373       -84.11         
159.5000      1.00673       -163.86       8.572E-5      135.42        1.383E-4      149.22        0.415         -85.46         
162.4900      1.00664       -163.60       1.183E-4      160.76        5.126E-5      146.97        0.41644       -86.80         
165.4800      1.00656       -163.33       1.301E-4      115.68        4.576E-5      161.43        0.41806       -88.13         
168.4700      1.00628       -163.05       1.133E-4      112.58        8.947E-5      84.62         0.41989       -89.40         
171.4600      1.00617       -162.75       1.497E-4      118.66        1.388E-4      165.55        0.42158       -90.62         
174.4500      1.00623       -162.45       1.314E-4      101.20        7.234E-5      66.75         0.42332       -91.77         
177.4400      1.00581       -162.15       1.242E-4      121.97        8.192E-5      78.70         0.42484       -92.83         
180.4300      1.00535       -161.85       1.519E-4      42.65         1.619E-4      84.70         0.42608       -93.78         
183.4200      1.00493       -161.54       1.535E-4      93.82         1.241E-4      83.60         0.42722       -94.66         
186.4100      1.00441       -161.24       1.387E-4      110.75        1.435E-4      94.83         0.42842       -95.40         
189.4000      1.00403       -160.93       9.447E-5      83.20         1.212E-4      81.54         0.43003       -96.03         
192.3900      1.0037        -160.60       1.41E-4       78.09         2.098E-4      60.03         0.43204       -96.64         
195.3800      1.00374       -160.32       1.008E-4      66.45         1.422E-4      71.65         0.43412       -97.28         
198.3700      1.00408       -160.02       1.702E-4      71.03         1.244E-4      59.32         0.43438       -98.98         
201.3600      1.00459       -159.73       1.497E-4      66.77         1.743E-4      68.27         0.43562       -99.64         
204.3500      1.00499       -159.40       1.476E-4      55.68         4.308E-5      24.58         0.43645       -100.32        
207.3400      1.0055        -159.07       1.98E-4       32.96         2.739E-4      56.07         0.43692       -101.07        
210.3300      1.00618       -158.74       2.281E-4      33.56         1.73E-4       23.42         0.43734       -101.88        
213.3200      1.0062        -158.43       2.082E-4      11.15         2.609E-4      36.42         0.438         -102.74        
216.3100      1.0062        -158.14       1.914E-4      -2.37         2.238E-4      -6.47         0.4388        -103.66        
219.3000      1.00658       -157.87       1.761E-4      -18.69        2.106E-4      -41.80        0.43968       -104.65        
222.2900      1.00722       -157.58       1.443E-4      -53.63        1.883E-4      -52.94        0.44063       -105.66        
225.2800      1.00766       -157.23       1.083E-4      -53.56        2.441E-4      -37.93        0.44173       -106.67        
228.2700      1.00767       -156.89       8.713E-5      -41.15        1.089E-4      -23.02        0.44281       -107.67        
231.2600      1.00737       -156.57       6.374E-5      -22.31        6.357E-5      -54.75        0.44401       -108.68        
234.2500      1.00669       -156.27       6.155E-5      -59.57        5.814E-5      -36.66        0.44532       -109.66        
237.2400      1.00606       -155.95       5.426E-5      -29.61        1.359E-4      -61.09        0.44689       -110.62        
240.2300      1.0053        -155.65       9.885E-5      -66.37        1.151E-4      -13.67        0.44871       -111.52        
243.2200      1.00443       -155.35       2.266E-5      -77.34        4.295E-5      -59.08        0.45071       -112.35        
246.2100      1.00374       -155.04       7.735E-5      9.73          1.358E-4      21.27         0.45277       -113.10        
249.2000      1.00344       -154.75       5.365E-5      28.46         9.444E-5      -1.27         0.45478       -113.78        
252.1900      1.00343       -154.46       1.254E-4      20.47         8.424E-5      -52.40        0.4566        -114.38        
255.1800      1.00334       -154.16       1.015E-4      8.87          1.083E-4      -5.67         0.45817       -114.89        
258.1700      1.00366       -153.86       9.095E-5      9.29          1.672E-4      -38.86        0.45956       -115.35        
261.1600      1.00408       -153.53       1.424E-4      14.62         2.158E-4      26.77         0.46074       -115.78        
264.1500      1.00436       -153.20       1.94E-4       -11.13        1.747E-4      -14.74        0.46149       -116.21        
267.1400      1.00464       -152.89       2.483E-4      -48.80        2.761E-4      -9.26         0.46228       -116.66        
270.1300      1.00508       -152.60       1.521E-4      -49.52        2.233E-4      -45.22        0.46278       -117.12        
273.1200      1.00619       -152.33       1.686E-4      -38.43        1.913E-4      -41.90        0.46311       -117.62        
276.1100      1.00729       -152.04       1.573E-4      -73.12        2.104E-4      -83.56        0.46348       -118.12        
279.1000      1.00837       -151.70       1.296E-4      -73.56        2.172E-4      -65.26        0.46393       -118.65        
282.0900      1.00846       -151.35       1.45E-4       -83.34        1.795E-4      -79.25        0.46443       -119.22        
285.0800      1.0081        -150.97       1.653E-4      -109.59       2.191E-4      -42.36        0.46494       -119.85        
288.0700      1.00773       -150.60       1.433E-4      -82.24        1.526E-4      -103.04       0.46526       -120.58        
291.0600      1.00708       -150.27       1.162E-4      -87.64        1.124E-4      -99.47        0.46564       -121.36        
294.0500      1.00624       -149.95       1.135E-4      -81.38        1.165E-4      -104.82       0.46614       -122.17        
297.0400      1.0053        -149.63       1.254E-4      -99.38        1.351E-4      -72.15        0.46684       -123.02        
300.0300      1.00439       -149.31       5.463E-5      -105.78       1.556E-4      -130.22       0.46772       -123.83        
303.0200      1.00356       -149.00       8.707E-5      -103.44       1.831E-5      -138.31       0.46878       -124.62        
306.0100      1.00284       -148.69       7.406E-5      -101.66       1.534E-4      -110.68       0.46988       -125.37        
309.0000      1.0024        -148.39       5.289E-5      -80.41        1.725E-4      -79.90        0.47103       -126.03        
311.9900      1.00199       -148.10       6.912E-5      -121.39       1.323E-4      -55.17        0.47188       -126.65        
314.9800      1.00163       -147.79       6.325E-5      -71.31        1.196E-4      -100.14       0.47267       -127.19        
317.9700      1.00131       -147.50       9.853E-5      -103.97       9.405E-5      -80.91        0.47332       -127.71        
320.9600      1.00105       -147.21       1.077E-4      -78.30        1.149E-4      -135.78       0.47393       -128.15        
323.9500      1.00148       -146.94       1.697E-4      -112.26       1.673E-4      -142.52       0.47438       -128.55        
326.9400      1.0025        -146.65       1.092E-4      -106.31       1.112E-4      -111.96       0.47472       -128.92        
329.9300      1.00398       -146.34       1.462E-4      -107.29       1.384E-4      -72.74        0.47484       -129.25        
332.9200      1.00512       -146.00       1.593E-4      -153.23       1.81E-4       -134.87       0.47478       -129.57        
335.9100      1.00606       -145.61       2.358E-4      -137.31       1.111E-4      -158.09       0.47472       -129.86        
338.9000      1.00668       -145.20       1.254E-4      169.34        7.282E-5      -133.22       0.47453       -130.17        
341.8900      1.00666       -144.80       1.876E-4      -169.56       1.31E-4       -125.25       0.47385       -130.49        
344.8800      1.00658       -144.43       9.282E-5      -147.48       2.099E-4      -145.91       0.47315       -130.84        
347.8700      1.00627       -144.08       1.052E-4      -157.75       9.324E-5      175.77        0.47241       -131.26        
350.8600      1.00589       -143.74       1.583E-4      -132.98       2.531E-4      -150.90       0.4719        -131.71        
353.8500      1.00561       -143.40       1.533E-4      -135.84       1.73E-4       -156.80       0.47182       -132.19        
356.8400      1.00495       -143.06       1.915E-4      -162.68       2.359E-4      -165.86       0.47193       -132.70        
359.8300      1.00423       -142.73       1.828E-4      -177.87       2.453E-4      -162.46       0.47234       -133.23        
362.8200      1.00361       -142.41       2.099E-4      171.18        2.334E-4      172.71        0.47311       -133.75        
365.8100      1.00265       -142.10       3.042E-4      168.57        2.874E-4      170.42        0.47397       -134.27        
368.8000      1.00165       -141.81       2.405E-4      160.02        1.767E-4      168.02        0.47488       -134.76        
371.7900      1.00061       -141.54       2.799E-4      135.11        3.649E-4      122.86        0.47607       -135.26        
374.7800      1.0003        -141.27       2.492E-4      114.62        3.356E-4      118.00        0.47734       -135.71        
377.7700      1.00007       -141.02       2.383E-4      89.89         2.332E-4      71.94         0.47862       -136.13        
380.7600      1.00095       -140.73       2.667E-4      58.97         2.819E-4      76.72         0.48027       -136.52        
383.7500      1.00166       -140.42       1.689E-4      31.81         2.65E-4       55.75         0.48205       -136.86        
386.7400      1.00275       -140.09       1.771E-4      -1.98         2.009E-4      -1.64         0.48379       -137.14        
389.7300      1.00382       -139.74       1.398E-4      -15.09        1.57E-4       10.05         0.48542       -137.38        
392.7200      1.00454       -139.36       1.579E-4      -36.01        2.436E-4      -33.90        0.48675       -137.60        
395.7100      1.00462       -138.97       1.097E-4      -45.81        5.325E-5      -71.55        0.48779       -137.78        
398.7000      1.00444       -138.60       1.21E-4       -6.26         1.913E-4      -9.02         0.48841       -137.96        
401.6900      1.00431       -138.23       1.18E-4       -28.00        1.166E-4      -17.44        0.48872       -138.17        
404.6800      1.00429       -137.87       9.345E-5      -34.24        1.162E-4      -25.91        0.48859       -138.39        
407.6700      1.00432       -137.50       1.639E-4      -46.00        1.663E-4      -67.32        0.48836       -138.65        
410.6600      1.00409       -137.13       2.872E-4      -62.87        2.002E-4      -48.22        0.48787       -138.93        
413.6500      1.00378       -136.75       2.375E-4      -89.30        2.072E-4      -84.52        0.48753       -139.23        
416.6400      1.00276       -136.39       1.268E-4      -90.73        2.19E-4       -71.21        0.48716       -139.56        
419.6300      1.00176       -136.04       1.953E-4      -137.87       1.844E-4      -123.13       0.48687       -139.95        
422.6200      0.99991       -135.74       2.022E-4      -142.29       2.391E-4      -139.33       0.48656       -140.36        
425.6100      0.99847       -135.43       1.768E-4      -121.53       2.514E-4      -116.23       0.4863        -140.82        
428.6000      0.99746       -135.15       2.239E-4      -129.93       1.731E-4      -119.00       0.48599       -141.33        
431.5900      0.99696       -134.87       2.261E-4      -144.58       1.471E-4      -157.30       0.48592       -141.86        
434.5800      0.99747       -134.60       1.854E-4      -114.86       2.957E-4      -150.02       0.48594       -142.41        
437.5700      0.99808       -134.29       1.746E-4      -162.79       7.975E-5      -121.13       0.48633       -142.96        
440.5600      0.99882       -133.98       1.32E-4       174.79        2.368E-4      -141.11       0.48695       -143.50        
443.5500      0.99928       -133.65       1.787E-4      -141.26       1.345E-4      -115.51       0.48807       -143.99        
446.5400      0.99959       -133.31       1.06E-4       -155.32       1.395E-4      -150.66       0.48941       -144.41        
449.5300      0.99983       -132.96       1.007E-4      -165.72       1.284E-4      -167.27       0.49062       -144.77        
452.5200      0.99959       -132.61       1.228E-4      -179.32       1.721E-4      -122.38       0.49162       -145.07        
455.5100      0.99968       -132.27       1.019E-4      -157.01       1.05E-4       -111.94       0.49256       -145.33        
458.5000      0.99968       -131.92       1.556E-4      -145.91       1.644E-4      -119.70       0.49339       -145.55        
461.4900      1.00007       -131.56       1.293E-4      -122.18       1.737E-4      -151.84       0.49419       -145.75        
464.4800      1.00068       -131.17       2.132E-4      -164.97       1.685E-4      -150.19       0.49486       -145.91        
467.4700      1.00082       -130.76       2.105E-4      -141.74       1.72E-4       -129.16       0.49539       -146.06        
470.4600      1.00039       -130.34       2.997E-4      -167.89       2.612E-4      167.37        0.4957        -146.20        
473.4500      0.99933       -129.94       1.921E-4      -179.82       2.953E-4      -169.20       0.49588       -146.35        
476.4400      0.99825       -129.59       3.08E-4       175.25        2.682E-4      143.23        0.49562       -146.50        
479.4300      0.99756       -129.28       2.688E-4      165.49        3.221E-4      -173.48       0.49493       -146.69        
482.4200      0.99696       -128.98       3.757E-4      171.84        3.626E-4      160.07        0.49405       -146.91        
485.4100      0.99685       -128.70       3.43E-4       149.72        3.822E-4      160.63        0.49267       -147.21        
488.4000      0.99698       -128.41       3.257E-4      145.36        3.87E-4       150.85        0.49129       -147.56        
491.3900      0.99746       -128.11       3.282E-4      131.06        3.649E-4      131.91        0.48986       -147.99        
494.3800      0.99771       -127.80       2.953E-4      120.01        3.852E-4      139.33        0.48845       -148.48        
497.3700      0.99759       -127.47       3.404E-4      118.96        3.161E-4      114.47        0.48736       -149.03        
500.3600      0.99721       -127.15       2.847E-4      116.89        2.916E-4      122.81        0.48652       -149.62        
503.3500      0.99672       -126.83       2.80E-4       100.30        3.343E-4      111.55        0.48616       -150.21        
506.3400      0.99598       -126.52       3.01E-4       101.30        3.496E-4      86.71         0.48599       -150.81        
509.3300      0.9955        -126.20       2.273E-4      98.52         2.42E-4       99.32         0.48613       -151.38        
512.3200      0.99532       -125.88       3.193E-4      86.80         3.042E-4      88.91         0.4864        -151.95        
515.3100      0.99527       -125.54       2.324E-4      83.80         2.801E-4      82.62         0.48703       -152.51        
518.3000      0.99541       -125.16       2.468E-4      82.59         2.585E-4      84.25         0.48822       -153.03        
521.2900      0.99522       -124.76       2.667E-4      84.27         1.879E-4      91.50         0.48968       -153.51        
524.2800      0.99425       -124.36       2.898E-4      76.46         2.837E-4      66.48         0.49153       -153.92        
527.2700      0.99319       -123.98       2.485E-4      83.03         2.354E-4      69.52         0.4935        -154.25        
530.2600      0.99206       -123.63       2.249E-4      73.22         2.387E-4      72.36         0.49567       -154.51        
533.2500      0.99155       -123.31       1.92E-4       54.18         2.777E-4      79.47         0.49769       -154.70        
536.2400      0.99123       -123.00       1.671E-4      75.55         2.768E-4      45.00         0.49954       -154.82        
539.2300      0.99142       -122.72       1.781E-4      73.12         1.836E-4      86.95         0.50105       -154.90        
542.2200      0.99193       -122.41       2.313E-4      59.61         1.978E-4      91.99         0.50223       -154.94        
545.2100      0.99234       -122.10       1.761E-4      67.69         2.609E-4      72.57         0.50299       -154.97        
548.2000      0.99257       -121.78       1.92E-4       70.96         2.328E-4      95.60         0.50336       -155.01        
551.1900      0.99253       -121.46       2.267E-4      64.00         2.123E-4      84.20         0.50339       -155.06        
554.1800      0.99158       -121.13       1.778E-4      65.96         3.131E-4      68.55         0.5032        -155.11        
557.1700      0.99035       -120.80       2.217E-4      60.66         6.812E-5      21.42         0.50287       -155.19        
560.1600      0.98854       -120.51       1.66E-4       76.98         3.387E-4      65.97         0.50225       -155.30        
563.1500      0.98703       -120.21       2.815E-4      71.33         2.892E-4      74.45         0.50143       -155.41        
566.1400      0.9857        -119.87       3.287E-4      57.65         3.337E-4      51.76         0.50031       -155.58        
569.1300      0.98448       -119.51       3.209E-4      65.27         3.445E-4      69.76         0.49908       -155.77        
572.1200      0.98343       -119.12       3.407E-4      51.55         3.40E-4       69.30         0.49773       -156.03        
575.1100      0.98244       -118.70       4.22E-4       51.46         3.062E-4      55.51         0.49658       -156.32        
578.1000      0.9814        -118.31       4.559E-4      35.10         4.721E-4      34.94         0.49568       -156.67        
581.0900      0.97995       -117.94       4.064E-4      32.43         4.40E-4       33.60         0.49524       -157.03        
584.0800      0.97883       -117.60       4.386E-4      20.40         5.169E-4      11.15         0.49519       -157.37        
587.0700      0.97809       -117.30       4.473E-4      24.04         5.314E-4      16.53         0.49534       -157.68        
590.0600      0.97811       -117.00       4.389E-4      5.87          3.949E-4      10.66         0.49576       -157.97        
593.0500      0.97832       -116.69       4.783E-4      -8.29         3.248E-4      4.75          0.49639       -158.25        
596.0400      0.97905       -116.39       2.997E-4      -7.60         4.196E-4      -2.01         0.49716       -158.47        
599.0300      0.98022       -116.04       4.019E-4      -14.72        3.659E-4      -11.30        0.49786       -158.69        
602.0200      0.9812        -115.70       3.50E-4       -10.10        3.755E-4      -18.19        0.49864       -158.87        
605.0100      0.98176       -115.36       2.81E-4       -21.19        2.537E-4      -13.33        0.49933       -159.01        
608.0000      0.9821        -115.03       2.768E-4      -15.40        2.869E-4      -9.95         0.49991       -159.17        
610.9900      0.98203       -114.73       2.443E-4      -14.42        3.483E-4      -31.75        0.5005        -159.28        
613.9800      0.98153       -114.44       2.805E-4      -9.22         2.207E-4      -20.00        0.50077       -159.38        
616.9700      0.98109       -114.18       3.156E-4      -39.91        2.341E-4      -13.38        0.5009        -159.47        
619.9600      0.98036       -113.91       3.423E-4      -24.53        2.337E-4      -30.72        0.50061       -159.54        
622.9500      0.97935       -113.64       2.366E-4      -31.76        3.397E-4      -51.08        0.49996       -159.65        
625.9400      0.97786       -113.36       3.36E-4       -47.17        4.35E-4       -46.29        0.499         -159.77        
628.9300      0.97604       -113.08       3.026E-4      -37.66        3.673E-4      -55.84        0.49781       -159.91        
631.9200      0.97373       -112.81       2.088E-4      -52.65        3.146E-4      -59.77        0.49646       -160.11        
634.9100      0.97089       -112.57       2.658E-4      -44.60        2.813E-4      -85.00        0.49509       -160.34        
637.9000      0.96804       -112.35       3.325E-4      -78.47        2.962E-4      -80.07        0.49382       -160.64        
640.8900      0.96579       -112.16       2.528E-4      -73.51        2.064E-4      -79.07        0.4927        -160.94        
643.8800      0.96392       -111.99       2.26E-4       -59.54        3.093E-4      -54.96        0.49188       -161.26        
646.8700      0.96228       -111.80       2.41E-4       -72.58        2.946E-4      -67.50        0.49122       -161.60        
649.8600      0.96091       -111.60       3.054E-4      -71.46        2.238E-4      -63.21        0.4908        -161.92        
652.8500      0.95942       -111.38       2.787E-4      -81.05        2.811E-4      -88.52        0.49065       -162.25        
655.8400      0.95792       -111.15       3.123E-4      -81.05        2.534E-4      -95.37        0.49056       -162.57        
658.8300      0.95611       -110.90       2.223E-4      -103.77       2.634E-4      -110.91       0.49075       -162.86        
661.8200      0.95412       -110.64       2.158E-4      -102.29       3.65E-4       -99.28        0.49116       -163.13        
664.8100      0.95204       -110.37       2.184E-4      -112.73       3.777E-4      -107.59       0.49176       -163.39        
667.8000      0.94938       -110.10       2.14E-4       -108.03       3.822E-4      -118.79       0.49241       -163.60        
670.7900      0.94655       -109.80       2.083E-4      -155.78       2.422E-4      -122.87       0.49312       -163.76        
673.7800      0.94361       -109.46       1.771E-4      -137.57       2.415E-4      -121.42       0.49371       -163.89        
676.7700      0.94059       -109.09       2.52E-4       -149.47       1.986E-4      -159.14       0.49421       -163.99        
679.7600      0.93767       -108.68       1.539E-4      172.70        1.775E-4      -170.94       0.49431       -164.06        
682.7500      0.935         -108.27       1.705E-4      177.46        1.739E-4      153.93        0.49407       -164.13        
685.7400      0.93343       -107.87       1.502E-4      136.69        1.099E-4      144.14        0.49355       -164.20        
688.7300      0.93377       -107.65       4.984E-5      93.76         3.518E-5      44.51         0.49272       -164.30        
691.7200      0.93002       -107.93       7.815E-5      167.19        6.177E-5      68.06         0.49166       -164.41        
694.7100      0.91697       -107.76       1.076E-4      116.68        1.131E-4      89.09         0.49034       -164.55        
697.7000      0.91042       -107.27       4.994E-5      61.80         5.603E-5      149.46        0.48902       -164.74        
700.6900      0.90663       -106.87       4.623E-5      78.32         1.433E-4      22.66         0.48758       -164.97        
703.6800      0.90404       -106.53       9.735E-5      60.49         1.552E-4      42.95         0.48625       -165.22        
706.6700      0.90157       -106.22       9.48E-5       31.37         2.118E-4      28.53         0.48497       -165.49        
709.6600      0.89955       -105.93       1.776E-4      -0.15         7.493E-5      8.95          0.48373       -165.79        
712.6500      0.89741       -105.68       2.023E-4      -13.84        1.885E-4      23.40         0.48289       -166.10        
715.6400      0.89539       -105.47       1.809E-4      -28.46        1.749E-4      -32.90        0.48222       -166.43        
718.6300      0.89337       -105.26       1.746E-4      -30.14        1.961E-4      -43.37        0.48193       -166.75        
721.6200      0.89133       -105.05       1.905E-4      -44.53        1.255E-4      -33.56        0.48221       -167.06        
724.6100      0.88888       -104.82       1.787E-4      -70.74        2.399E-4      -61.71        0.48281       -167.33        
727.6000      0.8861        -104.56       2.469E-4      -101.26       1.957E-4      -83.64        0.48382       -167.54        
730.5900      0.88295       -104.29       2.09E-4       -100.59       1.895E-4      -111.26       0.48491       -167.71        
733.5800      0.87911       -103.99       2.715E-4      -114.33       2.117E-4      -128.39       0.48605       -167.83        
736.5700      0.8747        -103.69       2.264E-4      -115.44       3.12E-4       -138.18       0.48727       -167.89        
739.5600      0.86964       -103.36       2.153E-4      -135.31       1.704E-4      -159.07       0.48813       -167.90        
742.5500      0.86419       -103.06       2.259E-4      -160.69       1.944E-4      -173.28       0.48889       -167.87        
745.5400      0.85844       -102.76       1.724E-4      -165.11       1.557E-4      -175.50       0.48937       -167.83        
748.5300      0.85259       -102.48       1.38E-4       169.65        2.062E-4      155.24        0.48949       -167.75        
751.5200      0.84698       -102.20       2.638E-4      147.43        2.016E-4      152.88        0.48926       -167.68        
754.5100      0.8411        -101.92       1.769E-4      114.65        2.548E-4      134.76        0.48873       -167.60        
757.5000      0.83509       -101.67       1.992E-4      110.50        2.289E-4      132.02        0.48774       -167.55        
760.4900      0.82839       -101.44       2.115E-4      89.81         1.545E-4      87.47         0.48637       -167.52        
763.4800      0.82151       -101.19       2.446E-4      77.31         3.354E-4      96.05         0.4847        -167.54        
766.4700      0.81494       -100.92       2.435E-4      66.35         3.663E-4      78.93         0.48267       -167.62        
769.4600      0.80883       -100.68       2.90E-4       53.73         2.648E-4      50.56         0.48066       -167.76        
772.4500      0.80315       -100.42       3.517E-4      40.96         4.107E-4      48.24         0.47865       -167.97        
775.4400      0.79781       -100.16       3.776E-4      24.53         4.867E-4      34.71         0.47677       -168.25        
778.4300      0.79258       -99.90        3.822E-4      19.51         4.071E-4      23.99         0.47514       -168.58        
781.4200      0.7873        -99.61        4.773E-4      7.44          4.349E-4      14.67         0.4741        -168.94        
784.4100      0.7818        -99.29        4.355E-4      -0.29         4.128E-4      4.75          0.47346       -169.31        
787.4000      0.77581       -98.95        5.109E-4      -2.81         4.851E-4      -3.09         0.4731        -169.68        
790.3900      0.76918       -98.60        5.316E-4      -9.71         5.43E-4       -6.53         0.47313       -170.03        
793.3800      0.76214       -98.23        5.876E-4      -21.19        5.646E-4      -22.09        0.47355       -170.37        
796.3700      0.75484       -97.82        6.387E-4      -21.39        6.276E-4      -22.69        0.47426       -170.66        
799.3600      0.74747       -97.39        6.706E-4      -30.99        7.483E-4      -33.52        0.47525       -170.90        
802.3500      0.74001       -96.92        7.413E-4      -42.19        7.661E-4      -39.99        0.47639       -171.09        
805.3400      0.7325        -96.40        7.456E-4      -43.95        7.798E-4      -45.22        0.47775       -171.22        
808.3300      0.72486       -95.83        8.502E-4      -53.38        8.378E-4      -46.27        0.47913       -171.28        
811.3200      0.71707       -95.23        8.597E-4      -58.74        7.982E-4      -58.10        0.4804        -171.27        
814.3100      0.70959       -94.60        9.836E-4      -62.93        1.006E-3      -68.06        0.48143       -171.21        
817.3000      0.70259       -93.99        9.473E-4      -74.38        9.952E-4      -74.18        0.48191       -171.10        
820.2900      0.69605       -93.40        1.009E-3      -80.63        1.034E-3      -86.75        0.48195       -170.97        
823.2800      0.69002       -92.86        1.086E-3      -89.33        9.634E-4      -88.82        0.48147       -170.84        
826.2700      0.68434       -92.37        1.128E-3      -100.65       1.138E-3      -99.14        0.48058       -170.75        
829.2600      0.67873       -91.88        1.164E-3      -105.38       1.098E-3      -102.94       0.47943       -170.70        
832.2500      0.67307       -91.39        1.147E-3      -115.76       1.046E-3      -114.01       0.47796       -170.69        
835.2400      0.66735       -90.88        1.059E-3      -120.50       1.038E-3      -119.62       0.47626       -170.75        
838.2300      0.66122       -90.33        1.107E-3      -130.52       1.004E-3      -127.83       0.47448       -170.85        
841.2200      0.65516       -89.69        1.106E-3      -132.86       1.041E-3      -131.55       0.47267       -171.00        
844.2100      0.64903       -89.02        1.055E-3      -139.81       9.922E-4      -143.44       0.47088       -171.21        
847.2000      0.64334       -88.25        1.04E-3       -147.16       1.139E-3      -144.19       0.46905       -171.47        
850.1900      0.63852       -87.41        1.065E-3      -148.35       1.259E-3      -152.82       0.46752       -171.78        
853.1800      0.63496       -86.50        9.735E-4      -156.14       1.101E-3      -155.84       0.46611       -172.14        
856.1700      0.63277       -85.55        9.523E-4      -161.94       1.098E-3      -166.99       0.46531       -172.53        
859.1600      0.63163       -84.59        1.008E-3      -165.26       9.141E-4      -160.05       0.46492       -172.93        
862.1500      0.63146       -83.67        9.099E-4      -168.88       8.914E-4      -168.57       0.46508       -173.32        
865.1400      0.6319        -82.84        8.145E-4      -171.78       9.656E-4      -173.50       0.46573       -173.66        
868.1300      0.63249       -82.10        8.80E-4       -176.73       9.531E-4      -171.09       0.46686       -173.95        
871.1200      0.63266       -81.49        8.228E-4      -178.20       8.645E-4      -175.26       0.46826       -174.17        
874.1100      0.63234       -80.99        8.483E-4      -175.89       7.713E-4      179.75        0.46972       -174.30        
877.1000      0.63169       -80.60        8.251E-4      -176.48       8.689E-4      -174.31       0.47096       -174.36        
880.0900      0.63051       -80.30        8.391E-4      -179.66       7.571E-4      179.95        0.47197       -174.38        
883.0800      0.62875       -80.04        8.994E-4      178.09        8.863E-4      176.84        0.47292       -174.35        
886.0700      0.62653       -79.84        9.207E-4      170.52        9.124E-4      172.04        0.47348       -174.29        
889.0600      0.62372       -79.68        9.776E-4      171.01        9.693E-4      170.21        0.47398       -174.20        
892.0500      0.6202        -79.58        1.062E-3      167.89        1.072E-3      171.19        0.47417       -174.09        
895.0400      0.6158        -79.53        1.125E-3      161.66        1.138E-3      162.81        0.4739        -173.95        
898.0300      0.61089       -79.52        1.082E-3      159.43        1.154E-3      158.38        0.47329       -173.82        
901.0200      0.6052        -79.54        1.137E-3      154.31        1.086E-3      156.33        0.47224       -173.70        
904.0100      0.59923       -79.55        1.118E-3      151.74        1.217E-3      149.49        0.47091       -173.63        
907.0000      0.59291       -79.50        1.234E-3      146.44        1.18E-3       145.58        0.46924       -173.59        
909.9900      0.58625       -79.41        1.149E-3      140.91        1.167E-3      141.57        0.4674        -173.61        
912.9800      0.57898       -79.24        1.195E-3      138.89        1.185E-3      136.62        0.46549       -173.71        
915.9700      0.57117       -78.99        1.23E-3       130.12        1.30E-3       129.00        0.46377       -173.88        
918.9600      0.56241       -78.64        1.247E-3      128.79        1.278E-3      127.92        0.46215       -174.11        
921.9500      0.55316       -78.12        1.239E-3      123.65        1.283E-3      124.97        0.46115       -174.40        
924.9400      0.54447       -77.40        1.339E-3      115.50        1.383E-3      119.22        0.46053       -174.67        
927.9300      0.53672       -76.69        1.32E-3       115.36        1.428E-3      113.57        0.46036       -174.96        
930.9200      0.52891       -75.99        1.32E-3       105.54        1.30E-3       105.66        0.46031       -175.21        
933.9100      0.52084       -75.29        1.393E-3      100.72        1.28E-3       101.08        0.46057       -175.44        
936.9000      0.51229       -74.52        1.381E-3      93.09         1.377E-3      96.64         0.46111       -175.67        
939.8900      0.50349       -73.64        1.282E-3      91.23         1.25E-3       87.44         0.46163       -175.84        
942.8800      0.49464       -72.73        1.251E-3      81.46         1.23E-3       80.97         0.46265       -176.00        
945.8700      0.48582       -71.75        1.201E-3      78.64         1.295E-3      74.22         0.46362       -176.10        
948.8600      0.47715       -70.75        1.147E-3      73.95         1.235E-3      69.40         0.46473       -176.16        
951.8500      0.46887       -69.72        1.051E-3      67.90         1.076E-3      63.95         0.46581       -176.16        
954.8400      0.46099       -68.67        1.04E-3       62.51         1.051E-3      67.81         0.46666       -176.10        
957.8300      0.45385       -67.57        1.024E-3      54.70         9.538E-4      60.94         0.46704       -175.98        
960.8200      0.44723       -66.43        9.357E-4      52.67         1.018E-3      45.67         0.46713       -175.85        
963.8100      0.44169       -65.24        8.724E-4      50.32         9.143E-4      52.63         0.46672       -175.72        
966.8000      0.43682       -63.97        8.935E-4      48.39         8.751E-4      51.35         0.46598       -175.60        
969.7900      0.43293       -62.64        8.746E-4      44.48         9.014E-4      50.47         0.46469       -175.52        
972.7800      0.43014       -61.27        7.607E-4      42.60         7.404E-4      48.87         0.46321       -175.48        
975.7700      0.42808       -59.83        7.193E-4      46.83         5.952E-4      33.17         0.46158       -175.48        
978.7600      0.42714       -58.37        6.582E-4      38.15         7.081E-4      40.91         0.45972       -175.57        
981.7500      0.42708       -56.90        6.543E-4      44.16         6.734E-4      36.07         0.45816       -175.69        
984.7400      0.42776       -55.45        5.339E-4      37.65         4.886E-4      44.71         0.45668       -175.84        
987.7300      0.42927       -53.99        6.506E-4      53.22         5.843E-4      44.87         0.45531       -176.04        
990.7200      0.43108       -52.57        6.423E-4      50.21         5.721E-4      49.37         0.45423       -176.28        
993.7100      0.43348       -51.18        7.605E-4      43.57         6.638E-4      51.07         0.45331       -176.55        
996.7000      0.43621       -49.84        6.665E-4      49.57         5.623E-4      60.72         0.45259       -176.83        
999.6900      0.43943       -48.59        6.44E-4       45.96         6.633E-4      58.29         0.45234       -177.13        
1002.6800     0.44289       -47.46        7.504E-4      44.15         8.067E-4      44.21         0.45265       -177.44        
1005.6700     0.44683       -46.46        8.003E-4      44.89         7.612E-4      40.17         0.45318       -177.73        
1008.6600     0.45087       -45.65        7.06E-4       40.52         7.506E-4      44.77         0.45429       -177.96        
1011.6500     0.45503       -45.02        7.36E-4       38.67         8.861E-4      43.57         0.45537       -178.17        
1014.6400     0.45903       -44.57        8.111E-4      42.03         7.479E-4      34.35         0.45666       -178.29        
1017.6300     0.46275       -44.33        7.901E-4      34.68         7.52E-4       36.19         0.45785       -178.36        
1020.6200     0.46588       -44.23        9.35E-4       37.09         7.112E-4      33.14         0.45897       -178.38        
1023.6100     0.4685        -44.29        8.862E-4      29.66         8.997E-4      40.02         0.45978       -178.35        
1026.6000     0.47034       -44.46        8.284E-4      34.34         9.128E-4      26.71         0.46045       -178.28        
1029.5900     0.47139       -44.71        9.602E-4      27.92         1.059E-3      21.91         0.4609        -178.22        
1032.5800     0.47152       -45.03        1.047E-3      27.22         1.09E-3       25.57         0.46089       -178.15        
1035.5700     0.47088       -45.41        1.066E-3      23.52         1.002E-3      12.41         0.46077       -178.05        
1038.5600     0.46912       -45.83        1.298E-3      21.16         1.112E-3      26.48         0.46027       -177.99        
1041.5500     0.4653        -46.39        1.238E-3      15.15         1.328E-3      14.49         0.45966       -177.95        
1044.5400     0.45614       -47.00        1.299E-3      5.64          1.233E-3      7.02          0.459         -177.90        
1047.5300     0.44061       -46.50        1.331E-3      -3.46         1.361E-3      -4.28         0.45816       -177.90        
1050.5200     0.43427       -44.75        1.181E-3      -7.35         1.352E-3      -6.84         0.45723       -177.93        
1053.5100     0.43537       -43.87        1.181E-3      -17.09        1.069E-3      -5.91         0.45642       -178.00        
1056.5000     0.43319       -43.56        1.152E-3      -16.28        1.153E-3      -16.34        0.45551       -178.08        
1059.4900     0.42813       -43.28        1.163E-3      -14.90        1.237E-3      -8.49         0.45493       -178.20        
1062.4800     0.4211        -42.90        1.081E-3      -21.22        1.171E-3      -24.90        0.45469       -178.37        
1065.4700     0.41312       -42.35        1.031E-3      -23.18        1.121E-3      -22.65        0.45458       -178.52        
1068.4600     0.40442       -41.66        1.128E-3      -28.04        1.093E-3      -26.67        0.45508       -178.66        
1071.4500     0.39554       -40.81        1.247E-3      -34.05        1.299E-3      -31.02        0.45562       -178.77        
1074.4400     0.38677       -39.78        1.096E-3      -37.51        1.225E-3      -31.95        0.45647       -178.86        
1077.4300     0.37875       -38.59        1.113E-3      -39.94        1.204E-3      -44.01        0.45731       -178.88        
1080.4200     0.37173       -37.31        1.143E-3      -45.45        1.108E-3      -42.63        0.45828       -178.86        
1083.4100     0.36588       -35.95        1.059E-3      -51.82        1.077E-3      -46.63        0.45919       -178.81        
1086.4000     0.36139       -34.58        9.863E-4      -59.72        1.069E-3      -51.96        0.45998       -178.73        
1089.3900     0.35807       -33.16        9.247E-4      -53.29        9.98E-4       -60.04        0.46064       -178.61        
1092.3800     0.35607       -31.80        8.629E-4      -65.09        9.078E-4      -48.96        0.46121       -178.46        
1095.3700     0.35471       -30.47        8.474E-4      -66.12        9.418E-4      -58.12        0.46127       -178.26        
1098.3600     0.35425       -29.16        9.07E-4       -65.78        8.359E-4      -56.04        0.46093       -178.09        
1101.3500     0.3543        -27.86        6.863E-4      -58.80        8.516E-4      -59.82        0.46048       -177.90        
1104.3400     0.35491       -26.62        7.166E-4      -63.90        8.162E-4      -58.23        0.45943       -177.74        
1107.3300     0.35561       -25.36        7.625E-4      -65.01        8.384E-4      -51.72        0.45804       -177.60        
1110.3200     0.35661       -24.12        7.779E-4      -61.13        7.663E-4      -63.57        0.45643       -177.51        
1113.3100     0.35776       -22.90        7.261E-4      -59.93        7.74E-4       -63.16        0.45461       -177.46        
1116.3000     0.35898       -21.70        8.179E-4      -65.40        8.049E-4      -60.31        0.45271       -177.51        
1119.2900     0.35983       -20.48        7.978E-4      -61.57        6.688E-4      -52.98        0.45062       -177.62        
1122.2800     0.36062       -19.27        8.407E-4      -59.76        8.112E-4      -57.52        0.44888       -177.77        
1125.2700     0.36118       -18.05        8.14E-4       -54.24        7.142E-4      -63.35        0.44742       -178.01        
1128.2600     0.3615        -16.83        8.112E-4      -61.94        8.627E-4      -59.28        0.44621       -178.28        
1131.2500     0.36179       -15.65        9.72E-4       -62.11        1.073E-3      -55.93        0.44526       -178.58        
1134.2400     0.36205       -14.47        1.02E-3       -62.53        9.981E-4      -57.89        0.44476       -178.91        
1137.2300     0.36242       -13.32        1.084E-3      -59.38        1.081E-3      -65.03        0.4448        -179.24        
1140.2200     0.36303       -12.20        1.145E-3      -67.03        1.248E-3      -68.72        0.4452        -179.54        
1143.2100     0.36397       -11.10        1.224E-3      -67.97        1.086E-3      -67.11        0.44596       -179.82        
1146.2000     0.36528       -10.03        1.213E-3      -65.68        1.25E-3       -70.91        0.44723       179.93         
1149.1900     0.36712       -9.04         1.249E-3      -74.26        1.316E-3      -77.59        0.44877       179.76         
1152.1800     0.3693        -8.11         1.324E-3      -78.39        1.285E-3      -79.29        0.45041       179.65         
1155.1700     0.37222       -7.23         1.434E-3      -80.25        1.371E-3      -80.31        0.45195       179.63         
1158.1600     0.37567       -6.39         1.45E-3       -83.34        1.45E-3       -84.89        0.45341       179.68         
1161.1500     0.37927       -5.65         1.46E-3       -88.13        1.409E-3      -88.79        0.45444       179.78         
1164.1400     0.38355       -4.95         1.621E-3      -89.84        1.405E-3      -92.49        0.45537       179.92         
1167.1300     0.38814       -4.30         1.597E-3      -95.65        1.518E-3      -93.75        0.45565       -179.89        
1170.1200     0.39288       -3.69         1.476E-3      -98.26        1.608E-3      -98.78        0.45587       -179.70        
1173.1100     0.39758       -3.13         1.582E-3      -104.69       1.598E-3      -99.67        0.45544       -179.51        
1176.1000     0.40236       -2.62         1.585E-3      -102.64       1.68E-3       -105.48       0.45452       -179.36        
1179.0900     0.40696       -2.14         1.763E-3      -107.41       1.707E-3      -108.97       0.45344       -179.20        
1182.0800     0.41138       -1.71         1.857E-3      -115.79       1.67E-3       -115.28       0.4519        -179.14        
1185.0700     0.41544       -1.31         1.782E-3      -124.18       1.813E-3      -118.49       0.45004       -179.09        
1188.0600     0.41916       -1.00         1.723E-3      -126.21       1.803E-3      -123.96       0.44817       -179.15        
1191.0500     0.42269       -0.75         1.823E-3      -124.26       1.779E-3      -126.98       0.4463        -179.30        
1194.0400     0.42552       -0.54         1.973E-3      -131.94       1.793E-3      -131.02       0.4445        -179.51        
1197.0300     0.42777       -0.41         1.896E-3      -135.89       1.851E-3      -135.39       0.44307       -179.80        
1200.0200     0.42932       -0.35         1.956E-3      -139.79       1.996E-3      -136.74       0.44194       179.87         
1203.0100     0.43023       -0.37         1.904E-3      -143.38       1.928E-3      -142.97       0.44123       179.50         
1206.0000     0.43029       -0.47         1.925E-3      -147.90       1.955E-3      -147.48       0.44135       179.09         
1208.9900     0.42991       -0.62         2.036E-3      -150.61       1.96E-3       -149.14       0.44199       178.71         
1211.9800     0.42868       -0.80         2.058E-3      -154.11       1.936E-3      -153.46       0.44314       178.36         
1214.9700     0.42663       -1.01         1.982E-3      -158.38       2.078E-3      -159.20       0.44467       178.09         
1217.9600     0.42406       -1.25         2.073E-3      -163.33       2.046E-3      -162.17       0.44651       177.90         
1220.9500     0.42072       -1.46         2.075E-3      -166.45       2.024E-3      -165.29       0.44857       177.78         
1223.9400     0.41645       -1.61         1.978E-3      -172.95       2.056E-3      -173.16       0.45085       177.70         
1226.9300     0.41144       -1.70         2.103E-3      -177.34       2.022E-3      -174.45       0.45282       177.76         
1229.9200     0.40558       -1.69         1.962E-3      -179.34       2.108E-3      -178.82       0.45515       177.89         
1232.9100     0.39906       -1.55         1.938E-3      175.44        2.005E-3      174.07        0.45682       178.08         
1235.9000     0.39189       -1.22         2.16E-3       170.84        2.036E-3      174.99        0.45799       178.35         
1238.8900     0.38424       -0.72         2.049E-3      171.83        2.055E-3      167.56        0.45875       178.65         
1241.8800     0.3764        0.03          1.947E-3      164.60        1.925E-3      167.30        0.45896       178.98         
1244.8700     0.36869       0.99          1.953E-3      164.92        2.014E-3      163.82        0.45854       179.30         
1247.8600     0.36134       2.21          1.989E-3      159.22        2.031E-3      157.72        0.4575        179.60         
1250.8500     0.35467       3.70          1.975E-3      155.19        1.944E-3      155.67        0.45582       179.85         
1253.8400     0.34902       5.37          1.93E-3       149.53        2.035E-3      150.54        0.45375       180.00         
1256.8300     0.34435       7.20          1.857E-3      147.62        1.849E-3      145.86        0.45133       -179.92        
1259.8200     0.34111       9.13          1.88E-3       142.32        1.877E-3      142.97        0.44891       -179.96        
1262.8100     0.33902       11.09         1.891E-3      138.42        1.861E-3      138.08        0.44635       179.94         
1265.8000     0.33844       13.00         1.80E-3       134.92        1.767E-3      135.19        0.44427       179.72         
1268.7900     0.3391        14.87         1.797E-3      133.77        1.745E-3      128.48        0.44234       179.41         
1271.7800     0.34098       16.64         1.78E-3       129.20        1.823E-3      126.55        0.44102       179.01         
1274.7700     0.34384       18.27         1.713E-3      125.76        1.735E-3      125.77        0.44034       178.58         
1277.7600     0.3474        19.75         1.668E-3      120.99        1.644E-3      119.65        0.44007       178.14         
1280.7500     0.35154       21.11         1.702E-3      125.23        1.65E-3       117.99        0.44044       177.69         
1283.7400     0.35605       22.32         1.707E-3      118.77        1.667E-3      116.41        0.44152       177.27         
1286.7300     0.36071       23.41         1.616E-3      116.33        1.634E-3      114.14        0.44312       176.89         
1289.7200     0.36551       24.42         1.524E-3      113.27        1.576E-3      115.85        0.44536       176.62         
1292.7100     0.37028       25.31         1.599E-3      115.78        1.536E-3      112.62        0.44772       176.44         
1295.7000     0.37528       26.16         1.497E-3      109.97        1.518E-3      107.79        0.45017       176.36         
1298.6900     0.3801        26.94         1.609E-3      106.83        1.52E-3       108.71        0.45255       176.38         
1301.6800     0.38497       27.69         1.662E-3      109.59        1.558E-3      104.09        0.4547        176.52         
1304.6700     0.38972       28.38         1.552E-3      103.87        1.474E-3      103.88        0.45635       176.72         
1307.6600     0.39453       29.05         1.502E-3      106.97        1.498E-3      99.89         0.45736       177.01         
1310.6500     0.39894       29.68         1.645E-3      102.09        1.54E-3       97.71         0.45784       177.30         
1313.6400     0.40309       30.30         1.496E-3      98.01         1.519E-3      98.72         0.45765       177.62         
1316.6300     0.40738       30.88         1.509E-3      96.00         1.561E-3      93.86         0.45688       177.93         
1319.6200     0.41117       31.42         1.647E-3      96.57         1.539E-3      92.94         0.45557       178.20         
1322.6100     0.41504       31.96         1.614E-3      93.94         1.586E-3      91.49         0.4537        178.40         
1325.6000     0.41879       32.47         1.63E-3       87.75         1.551E-3      90.58         0.45142       178.53         
1328.5900     0.4222        32.92         1.605E-3      84.64         1.63E-3       88.58         0.44901       178.53         
1331.5800     0.4253        33.32         1.621E-3      87.52         1.541E-3      86.09         0.44657       178.44         
1334.5700     0.42752       33.68         1.671E-3      84.21         1.707E-3      83.79         0.4441        178.24         
1337.5600     0.42906       34.17         1.709E-3      81.50         1.734E-3      80.46         0.44193       177.97         
1340.5500     0.43049       34.75         1.795E-3      78.74         1.826E-3      74.64         0.44013       177.61         
1343.5400     0.43296       35.37         1.739E-3      75.47         1.79E-3       74.39         0.43911       177.16         
1346.5300     0.43562       35.92         1.852E-3      70.07         1.876E-3      70.61         0.4387        176.65         
1349.5200     0.43819       36.42         1.692E-3      69.89         1.837E-3      67.50         0.43913       176.17         
1352.5100     0.44075       36.89         1.823E-3      62.80         1.859E-3      62.36         0.44017       175.72         
1355.5000     0.44314       37.36         1.798E-3      62.33         1.913E-3      59.03         0.44191       175.31         
1358.4900     0.44557       37.80         1.75E-3       58.06         1.831E-3      57.16         0.44403       174.99         
1361.4800     0.4477        38.22         1.818E-3      54.05         1.873E-3      55.60         0.44653       174.77         
1364.4700     0.44998       38.68         1.842E-3      51.62         1.891E-3      52.47         0.44912       174.66         
1367.4600     0.45187       39.12         1.867E-3      49.78         1.93E-3       47.15         0.45163       174.67         
1370.4500     0.45387       39.57         1.869E-3      45.71         1.996E-3      44.45         0.45382       174.77         
1373.4400     0.45587       40.04         1.882E-3      42.40         1.932E-3      40.84         0.45563       174.95         
1376.4300     0.45813       40.50         1.915E-3      40.68         1.974E-3      39.63         0.45691       175.19         
1379.4200     0.46037       40.99         1.939E-3      37.07         1.975E-3      36.38         0.45769       175.52         
1382.4100     0.46271       41.48         1.967E-3      34.18         1.959E-3      33.15         0.45769       175.84         
1385.4000     0.46507       41.97         2.002E-3      26.90         1.935E-3      28.65         0.45709       176.17         
1388.3900     0.46765       42.48         2.019E-3      23.70         2.005E-3      23.49         0.45595       176.45         
1391.3800     0.4704        43.00         1.94E-3       22.30         2.02E-3       22.25         0.45424       176.68         
1394.3700     0.47349       43.53         2.06E-3       17.60         2.044E-3      16.71         0.45222       176.82         
1397.3600     0.47733       44.01         1.984E-3      14.49         2.024E-3      12.69         0.44969       176.89         
1400.3500     0.48138       44.33         1.933E-3      9.46          2.022E-3      10.51         0.44727       176.85         
1403.3400     0.48485       44.53         2.012E-3      5.55          1.976E-3      6.19          0.4449        176.69         
1406.3300     0.48764       44.61         1.979E-3      4.53          1.991E-3      3.70          0.44286       176.43         
1409.3200     0.48814       44.59         1.947E-3      0.93          2.017E-3      2.45          0.44131       176.09         
1412.3100     0.48723       44.80         2.005E-3      -0.86         2.016E-3      0.10          0.44053       175.68         
1415.3000     0.48685       45.09         2.014E-3      -6.44         2.002E-3      -4.01         0.44023       175.23         
1418.2900     0.48651       45.40         2.033E-3      -9.20         2.056E-3      -8.50         0.44068       174.78         
1421.2800     0.4859        45.71         2.048E-3      -12.07        2.127E-3      -13.69        0.44189       174.37         
1424.2700     0.4851        46.05         2.003E-3      -15.08        2.024E-3      -16.48        0.44342       174.00         
1427.2600     0.48427       46.42         2.066E-3      -21.01        2.016E-3      -20.80        0.44554       173.73         
1430.2500     0.48356       46.83         1.985E-3      -24.45        2.03E-3       -21.83        0.44784       173.54         
1433.2400     0.4833        47.28         2.03E-3       -28.32        2.001E-3      -29.65        0.45012       173.44         
1436.2300     0.48307       47.75         1.968E-3      -32.91        1.908E-3      -31.36        0.45247       173.46         
1439.2200     0.483         48.21         1.933E-3      -34.51        1.895E-3      -35.42        0.45444       173.57         
1442.2100     0.4831        48.70         1.983E-3      -38.15        1.905E-3      -37.21        0.45606       173.80         
1445.2000     0.48326       49.23         1.862E-3      -41.46        1.88E-3       -39.57        0.45712       174.06         
1448.1900     0.4835        49.78         1.865E-3      -44.52        1.816E-3      -44.02        0.45756       174.35         
1451.1800     0.48384       50.38         1.856E-3      -48.18        1.788E-3      -47.36        0.45754       174.67         
1454.1700     0.4842        50.96         1.808E-3      -51.05        1.786E-3      -50.15        0.45666       174.97         
1457.1600     0.48465       51.58         1.759E-3      -52.63        1.77E-3       -52.83        0.45494       175.24         
1460.1500     0.48503       52.20         1.775E-3      -56.89        1.707E-3      -56.04        0.4528        175.45         
1463.1400     0.4854        52.83         1.718E-3      -59.40        1.677E-3      -56.28        0.45049       175.57         
1466.1300     0.48559       53.45         1.744E-3      -61.71        1.682E-3      -59.04        0.44799       175.55         
1469.1200     0.48571       54.08         1.75E-3       -62.42        1.635E-3      -63.50        0.44564       175.45         
1472.1100     0.48591       54.72         1.761E-3      -65.50        1.697E-3      -64.62        0.44338       175.24         
1475.1000     0.48578       55.30         1.707E-3      -70.23        1.611E-3      -65.80        0.44142       174.91         
1478.0900     0.48567       55.88         1.739E-3      -69.37        1.682E-3      -68.18        0.43997       174.49         
1481.0800     0.48556       56.44         1.68E-3       -75.38        1.635E-3      -72.06        0.43909       174.04         
1484.0700     0.48546       57.00         1.70E-3       -72.25        1.665E-3      -74.97        0.43902       173.55         
1487.0600     0.48562       57.54         1.684E-3      -78.54        1.607E-3      -76.37        0.43957       173.05         
1490.0500     0.48589       58.07         1.665E-3      -80.25        1.682E-3      -77.66        0.44084       172.58         
1493.0400     0.4864        58.58         1.721E-3      -85.59        1.636E-3      -80.82        0.44279       172.17         
1496.0300     0.48691       59.07         1.685E-3      -87.24        1.652E-3      -84.12        0.44519       171.85         
1499.0200     0.48743       59.55         1.712E-3      -89.96        1.646E-3      -86.95        0.44774       171.59         
1502.0100     0.48804       60.09         1.696E-3      -93.18        1.588E-3      -90.29        0.45026       171.55         
1505.0000     0.48868       60.64         1.696E-3      -92.29        1.614E-3      -91.07        0.45287       171.55         
1507.9900     0.48957       61.22         1.691E-3      -97.75        1.607E-3      -94.62        0.45519       171.67         
1510.9800     0.49051       61.81         1.729E-3      -100.50       1.582E-3      -97.75        0.45708       171.87         
1513.9700     0.49151       62.43         1.664E-3      -101.05       1.653E-3      -102.00       0.45842       172.14         
1516.9600     0.49257       63.09         1.665E-3      -105.06       1.599E-3      -101.81       0.45913       172.49         
1519.9500     0.4935        63.75         1.681E-3      -107.49       1.61E-3       -106.93       0.45921       172.85         
1522.9400     0.49439       64.43         1.701E-3      -109.28       1.664E-3      -109.05       0.4586        173.20         
1525.9300     0.49511       65.11         1.686E-3      -111.58       1.637E-3      -111.17       0.45754       173.51         
1528.9200     0.49566       65.76         1.621E-3      -116.52       1.564E-3      -111.02       0.45581       173.78         
1531.9100     0.49597       66.40         1.601E-3      -118.64       1.664E-3      -115.08       0.45374       173.96         
1534.9000     0.49622       67.03         1.685E-3      -119.24       1.554E-3      -119.90       0.45146       174.04         
1537.8900     0.49644       67.63         1.755E-3      -122.31       1.616E-3      -121.99       0.44899       174.02         
1540.8800     0.49664       68.22         1.742E-3      -124.74       1.60E-3       -126.94       0.44676       173.90         
1543.8700     0.49715       68.80         1.708E-3      -128.08       1.585E-3      -129.04       0.44483       173.67         
1546.8600     0.49781       69.36         1.71E-3       -128.90       1.622E-3      -129.76       0.44334       173.34         
1549.8500     0.49856       69.88         1.663E-3      -131.77       1.62E-3       -138.43       0.44248       172.95         
1552.8400     0.49971       70.38         1.68E-3       -135.62       1.541E-3      -137.18       0.4423        172.50         
1555.8300     0.50091       70.85         1.598E-3      -141.09       1.602E-3      -138.50       0.44264       172.06         
1558.8200     0.50254       71.30         1.606E-3      -142.04       1.631E-3      -142.04       0.44341       171.63         
1561.8100     0.50425       71.75         1.677E-3      -145.42       1.632E-3      -145.05       0.44485       171.27         
1564.8000     0.50604       72.19         1.554E-3      -149.17       1.604E-3      -149.80       0.44673       170.95         
1567.7900     0.50807       72.65         1.664E-3      -151.67       1.538E-3      -148.85       0.44903       170.73         
1570.7800     0.51005       73.12         1.636E-3      -153.33       1.499E-3      -153.12       0.45126       170.61         
1573.7700     0.51209       73.60         1.622E-3      -156.25       1.582E-3      -157.26       0.45342       170.57         
1576.7600     0.51407       74.10         1.584E-3      -160.54       1.627E-3      -159.14       0.4554        170.63         
1579.7500     0.51601       74.65         1.556E-3      -162.68       1.547E-3      -160.79       0.45709       170.81         
1582.7400     0.5176        75.15         1.526E-3      -162.52       1.527E-3      -164.95       0.45826       171.04         
1585.7300     0.51892       75.65         1.50E-3       -168.93       1.521E-3      -169.35       0.45906       171.31         
1588.7200     0.51975       76.13         1.554E-3      -169.98       1.584E-3      -170.76       0.45927       171.60         
1591.7100     0.52036       76.58         1.532E-3      -176.79       1.567E-3      -174.69       0.45886       171.90         
1594.7000     0.52063       77.01         1.494E-3      -175.53       1.536E-3      -176.16       0.45786       172.16         
1597.6900     0.52063       77.40         1.509E-3      179.81        1.525E-3      179.87        0.45629       172.39         
1600.6800     0.52035       77.76         1.516E-3      176.49        1.529E-3      177.55        0.45449       172.55         
1603.6700     0.51998       78.08         1.451E-3      175.19        1.495E-3      174.68        0.45258       172.62         
1606.6600     0.51942       78.37         1.493E-3      168.85        1.486E-3      172.20        0.45044       172.60         
1609.6500     0.51869       78.62         1.393E-3      173.20        1.428E-3      172.82        0.44856       172.45         
1612.6400     0.5181        78.83         1.447E-3      167.42        1.454E-3      167.10        0.44693       172.23         
1615.6300     0.51744       79.06         1.428E-3      163.93        1.522E-3      164.21        0.44567       171.94         
1618.6200     0.51675       79.23         1.456E-3      162.17        1.461E-3      161.70        0.44476       171.59         
1621.6100     0.51631       79.39         1.43E-3       161.55        1.446E-3      157.57        0.44437       171.20         
1624.6000     0.51563       79.58         1.34E-3       156.16        1.393E-3      157.63        0.4446        170.79         
1627.5900     0.51496       79.76         1.453E-3      155.63        1.454E-3      156.08        0.44539       170.39         
1630.5800     0.5143        79.95         1.418E-3      153.78        1.382E-3      149.63        0.44677       170.06         
1633.5700     0.51342       80.18         1.411E-3      149.04        1.46E-3       147.73        0.44831       169.78         
1636.5600     0.5121        80.44         1.441E-3      146.85        1.398E-3      147.37        0.45036       169.56         
1639.5500     0.51059       80.71         1.318E-3      144.30        1.408E-3      144.89        0.4523        169.45         
1642.5400     0.50833       80.98         1.368E-3      140.05        1.382E-3      144.57        0.45451       169.45         
1645.5300     0.50559       81.28         1.386E-3      139.05        1.376E-3      140.46        0.45643       169.53         
1648.5200     0.50234       81.58         1.349E-3      135.09        1.43E-3       139.28        0.45796       169.67         
1651.5100     0.49824       81.87         1.351E-3      132.01        1.321E-3      136.95        0.45914       169.90         
1654.5000     0.49366       82.14         1.417E-3      131.69        1.394E-3      135.01        0.45962       170.17         
1657.4900     0.48844       82.41         1.344E-3      128.64        1.376E-3      130.65        0.45969       170.45         
1660.4800     0.48267       82.67         1.249E-3      129.70        1.399E-3      131.21        0.45902       170.76         
1663.4700     0.47648       82.90         1.333E-3      126.56        1.312E-3      129.40        0.45811       171.02         
1666.4600     0.46996       83.14         1.341E-3      123.28        1.371E-3      126.42        0.45664       171.25         
1669.4500     0.46325       83.36         1.358E-3      120.74        1.293E-3      120.64        0.45489       171.39         
1672.4400     0.45659       83.59         1.296E-3      120.14        1.311E-3      122.50        0.45279       171.43         
1675.4300     0.44981       83.82         1.387E-3      118.07        1.372E-3      116.99        0.45055       171.41         
1678.4200     0.44287       84.09         1.353E-3      116.12        1.368E-3      112.72        0.44834       171.27         
1681.4100     0.43587       84.36         1.40E-3       113.29        1.393E-3      113.78        0.44624       171.04         
1684.4000     0.42894       84.72         1.326E-3      111.33        1.348E-3      111.96        0.44449       170.71         
1687.3900     0.42169       85.13         1.366E-3      105.85        1.385E-3      112.08        0.44334       170.30         
1690.3800     0.41411       85.61         1.40E-3       107.34        1.38E-3       106.21        0.4429        169.84         
1693.3700     0.40571       86.19         1.376E-3      107.20        1.397E-3      106.41        0.44284       169.35         
1696.3600     0.39602       86.96         1.411E-3      101.29        1.40E-3       102.44        0.44352       168.87         
1699.3500     0.38487       88.08         1.339E-3      99.36         1.364E-3      101.49        0.44476       168.43         
1702.3400     0.37252       89.80         1.486E-3      95.64         1.447E-3      100.68        0.44649       168.06         
1705.3300     0.36207       92.37         1.345E-3      95.56         1.428E-3      95.31         0.44869       167.78         
1708.3200     0.35685       95.54         1.438E-3      89.83         1.436E-3      94.86         0.45117       167.57         
1711.3100     0.35786       98.53         1.536E-3      90.01         1.352E-3      92.15         0.45362       167.50         
1714.3000     0.36198       100.87        1.422E-3      87.62         1.381E-3      91.05         0.45602       167.53         
1717.2900     0.36642       102.58        1.47E-3       87.40         1.514E-3      89.10         0.45807       167.66         
1720.2800     0.36955       103.90        1.483E-3      83.80         1.46E-3       85.22         0.46004       167.89         
1723.2700     0.37162       105.00        1.62E-3       78.56         1.529E-3      81.80         0.46144       168.20         
1726.2600     0.37277       105.95        1.513E-3      74.59         1.484E-3      77.34         0.46228       168.55         
1729.2500     0.37331       106.82        1.562E-3      71.25         1.465E-3      75.67         0.46248       168.92         
1732.2400     0.37346       107.60        1.574E-3      71.28         1.557E-3      70.99         0.46214       169.31         
1735.2300     0.37341       108.31        1.50E-3       71.22         1.51E-3       70.06         0.46099       169.66         
1738.2200     0.37351       108.99        1.543E-3      65.25         1.576E-3      66.93         0.45947       169.98         
1741.2100     0.37372       109.64        1.518E-3      58.08         1.554E-3      63.61         0.45725       170.22         
1744.2000     0.37425       110.25        1.574E-3      57.91         1.601E-3      61.08         0.45494       170.35         
1747.1900     0.37493       110.89        1.576E-3      57.63         1.558E-3      57.76         0.45238       170.37         
1750.1800     0.3758        111.50        1.561E-3      53.57         1.544E-3      58.91         0.44975       170.29         
1753.1700     0.37692       112.13        1.65E-3       51.83         1.596E-3      49.93         0.44746       170.09         
1756.1600     0.37809       112.81        1.558E-3      48.55         1.535E-3      48.69         0.4453        169.80         
1759.1500     0.37918       113.54        1.544E-3      44.55         1.572E-3      48.49         0.44366       169.43         
1762.1400     0.38028       114.32        1.591E-3      41.07         1.546E-3      42.68         0.44244       168.99         
1765.1300     0.3813        115.08        1.547E-3      39.61         1.558E-3      36.55         0.44206       168.49         
1768.1200     0.38212       115.86        1.601E-3      35.98         1.534E-3      39.71         0.44231       168.01         
1771.1100     0.38274       116.57        1.653E-3      35.20         1.588E-3      34.33         0.4431        167.52         
1774.1000     0.38258       117.17        1.579E-3      32.86         1.646E-3      33.02         0.44434       167.10         
1777.0900     0.38134       117.76        1.602E-3      25.98         1.557E-3      28.45         0.44612       166.75         
1780.0800     0.37919       118.32        1.595E-3      24.56         1.556E-3      26.03         0.44834       166.53         
1783.0700     0.37668       118.85        1.522E-3      23.40         1.503E-3      23.93         0.45069       166.39         
1786.0600     0.37378       119.32        1.491E-3      21.98         1.54E-3       21.14         0.45302       166.36         
1789.0500     0.37044       119.72        1.567E-3      16.25         1.553E-3      16.21         0.4551        166.40         
1792.0400     0.36675       120.02        1.506E-3      16.86         1.497E-3      14.29         0.45692       166.55         
1795.0300     0.36298       120.28        1.472E-3      11.03         1.454E-3      13.73         0.45817       166.78         
1798.0200     0.35917       120.47        1.428E-3      11.74         1.544E-3      12.53         0.45892       167.04         
1801.0100     0.35548       120.63        1.494E-3      4.99          1.547E-3      8.96          0.45904       167.33         
1804.0000     0.35164       120.75        1.55E-3       5.89          1.433E-3      6.41          0.45849       167.61         
1806.9900     0.34805       120.85        1.475E-3      -0.13         1.443E-3      2.79          0.45768       167.86         
1809.9800     0.34456       120.96        1.437E-3      -2.96         1.484E-3      -1.24         0.45634       168.05         
1812.9700     0.34094       121.09        1.486E-3      -2.95         1.469E-3      -4.24         0.45448       168.19         
1815.9600     0.33718       121.27        1.424E-3      -4.76         1.497E-3      -3.75         0.45246       168.23         
1818.9500     0.33331       121.52        1.432E-3      -12.12        1.434E-3      -7.97         0.45028       168.18         
1821.9400     0.32889       121.84        1.494E-3      -10.01        1.426E-3      -11.05        0.4483        168.02         
1824.9300     0.32411       122.24        1.459E-3      -12.88        1.464E-3      -9.94         0.44657       167.76         
1827.9200     0.3187        122.73        1.474E-3      -13.00        1.38E-3       -11.63        0.44524       167.42         
1830.9100     0.31261       123.29        1.529E-3      -15.40        1.499E-3      -16.04        0.44442       167.01         
1833.9000     0.30585       123.90        1.543E-3      -18.67        1.457E-3      -19.71        0.44421       166.58         
1836.8900     0.29869       124.59        1.552E-3      -21.91        1.474E-3      -24.54        0.44463       166.15         
1839.8800     0.29088       125.32        1.48E-3       -23.60        1.469E-3      -21.82        0.44585       165.75         
1842.8700     0.28247       126.05        1.51E-3       -27.77        1.426E-3      -23.11        0.44768       165.42         
1845.8600     0.27361       126.84        1.487E-3      -27.51        1.444E-3      -32.66        0.44971       165.13         
1848.8500     0.26435       127.61        1.457E-3      -29.40        1.565E-3      -27.56        0.45219       164.95         
1851.8400     0.25506       128.42        1.593E-3      -34.67        1.469E-3      -32.87        0.45473       164.91         
1854.8300     0.24571       129.27        1.53E-3       -37.14        1.421E-3      -38.06        0.457         164.96         
1857.8200     0.2363        130.15        1.524E-3      -43.09        1.545E-3      -38.16        0.45919       165.13         
1860.8100     0.22694       131.12        1.48E-3       -42.68        1.494E-3      -41.97        0.46082       165.39         
1863.8000     0.21799       132.20        1.628E-3      -45.02        1.497E-3      -42.86        0.46214       165.71         
1866.7900     0.20937       133.44        1.576E-3      -49.08        1.451E-3      -44.88        0.46269       166.10         
1869.7800     0.20102       134.84        1.542E-3      -50.44        1.62E-3       -48.52        0.46245       166.49         
1872.7700     0.1932        136.49        1.478E-3      -50.57        1.566E-3      -52.18        0.46159       166.87         
1875.7600     0.18584       138.51        1.543E-3      -52.87        1.581E-3      -52.65        0.45996       167.21         
1878.7500     0.17905       140.85        1.584E-3      -56.17        1.60E-3       -57.81        0.45766       167.50         
1881.7400     0.17296       143.61        1.647E-3      -61.02        1.579E-3      -57.26        0.45501       167.68         
1884.7300     0.16754       146.73        1.551E-3      -65.17        1.604E-3      -61.77        0.45209       167.73         
1887.7200     0.1631        150.28        1.66E-3       -64.60        1.652E-3      -62.80        0.44915       167.65         
1890.7100     0.15938       154.10        1.615E-3      -68.64        1.648E-3      -67.30        0.44623       167.44         
1893.7000     0.15688       158.27        1.667E-3      -74.58        1.586E-3      -71.11        0.44372       167.11         
1896.6900     0.15546       162.53        1.613E-3      -73.33        1.579E-3      -72.53        0.44164       166.67         
1899.6800     0.15525       166.82        1.557E-3      -75.64        1.631E-3      -79.32        0.44027       166.14         
1902.6700     0.15584       171.00        1.586E-3      -80.32        1.687E-3      -77.92        0.43987       165.54         
1905.6600     0.15728       174.88        1.532E-3      -80.76        1.732E-3      -79.09        0.4403        164.94         
1908.6500     0.15927       178.51        1.645E-3      -84.31        1.558E-3      -86.59        0.4416        164.36         
1911.6400     0.16142       -178.25       1.596E-3      -90.11        1.561E-3      -86.70        0.44376       163.85         
1914.6300     0.16394       -175.40       1.69E-3       -90.29        1.485E-3      -88.02        0.44658       163.43         
1917.6200     0.16634       -172.90       1.619E-3      -95.92        1.616E-3      -94.52        0.44955       163.17         
1920.6100     0.16852       -170.69       1.672E-3      -96.59        1.642E-3      -95.78        0.45299       163.07         
1923.6000     0.17071       -168.77       1.667E-3      -97.57        1.714E-3      -98.20        0.45615       163.09         
1926.5900     0.17247       -167.06       1.654E-3      -104.55       1.651E-3      -102.82       0.45911       163.26         
1929.5800     0.1742        -165.53       1.707E-3      -106.34       1.668E-3      -103.45       0.46143       163.55         
1932.5700     0.17556       -164.05       1.691E-3      -108.93       1.654E-3      -107.55       0.46307       163.93         
1935.5600     0.17689       -162.67       1.662E-3      -114.66       1.591E-3      -110.55       0.46396       164.38         
1938.5500     0.17811       -161.28       1.651E-3      -115.66       1.601E-3      -110.57       0.46399       164.85         
1941.5400     0.17925       -159.90       1.667E-3      -117.48       1.627E-3      -115.91       0.46305       165.35         
1944.5300     0.18049       -158.46       1.674E-3      -118.91       1.616E-3      -121.51       0.46154       165.78         
1947.5200     0.18192       -156.99       1.604E-3      -123.59       1.647E-3      -121.10       0.45907       166.13         
1950.5100     0.1831        -155.44       1.631E-3      -128.50       1.603E-3      -124.84       0.45622       166.41         
1953.5000     0.18427       -153.85       1.638E-3      -130.88       1.627E-3      -124.39       0.4529        166.55         
1956.4900     0.18534       -152.18       1.594E-3      -131.71       1.651E-3      -133.77       0.44956       166.55         
1959.4800     0.18638       -150.43       1.657E-3      -130.80       1.624E-3      -132.49       0.44629       166.38         
1962.4700     0.18698       -148.58       1.631E-3      -137.90       1.57E-3       -138.36       0.44318       166.07         
1965.4600     0.18759       -146.70       1.639E-3      -139.32       1.603E-3      -140.01       0.44088       165.59         
1968.4500     0.18795       -144.76       1.744E-3      -143.38       1.518E-3      -144.79       0.43934       164.99         
1971.4400     0.18786       -142.71       1.616E-3      -148.85       1.663E-3      -142.05       0.43874       164.35         
1974.4300     0.18796       -140.67       1.62E-3       -149.87       1.58E-3       -144.64       0.43921       163.70         
1977.4200     0.18805       -138.63       1.672E-3      -148.76       1.578E-3      -152.50       0.44082       163.10         
1980.4100     0.18818       -136.50       1.51E-3       -151.96       1.659E-3      -151.60       0.4431        162.58         
1983.4000     0.18834       -134.39       1.643E-3      -154.73       1.664E-3      -152.04       0.44615       162.17         
1986.3900     0.18873       -132.32       1.622E-3      -155.89       1.668E-3      -160.12       0.44967       161.91         
1989.3800     0.18919       -130.28       1.673E-3      -161.30       1.655E-3      -162.60       0.45308       161.82         
1992.3700     0.18998       -128.25       1.584E-3      -162.46       1.555E-3      -165.68       0.45643       161.87         
1995.3600     0.19085       -126.32       1.639E-3      -167.56       1.613E-3      -165.15       0.45938       162.09         
1998.3500     0.19204       -124.37       1.578E-3      -171.27       1.647E-3      -170.69       0.46183       162.45         
2001.3400     0.19327       -122.53       1.59E-3       -170.77       1.59E-3       -169.27       0.46352       162.89         
2004.3300     0.19487       -120.69       1.574E-3      -172.72       1.583E-3      -171.81       0.46447       163.43         
2007.3200     0.19669       -118.93       1.626E-3      -177.71       1.618E-3      -174.87       0.46427       163.99         
2010.3100     0.19868       -117.11       1.547E-3      -179.25       1.573E-3      -179.88       0.46331       164.54         
2013.3000     0.2009        -115.29       1.464E-3      -178.89       1.62E-3       179.43        0.46124       165.07         
2016.2900     0.20318       -113.47       1.565E-3      175.42        1.568E-3      177.84        0.45833       165.49         
2019.2800     0.20572       -111.64       1.575E-3      172.16        1.507E-3      175.20        0.4546        165.82         
2022.2700     0.20847       -109.76       1.684E-3      170.02        1.652E-3      169.70        0.45063       165.97         
2025.2600     0.21138       -107.90       1.654E-3      164.63        1.649E-3      165.03        0.44644       165.90         
2028.2500     0.21429       -106.00       1.66E-3       165.46        1.603E-3      168.38        0.44239       165.67         
2031.2400     0.21755       -104.06       1.571E-3      158.96        1.594E-3      161.88        0.43906       165.25         
2034.2300     0.22087       -102.08       1.632E-3      158.27        1.63E-3       156.86        0.43633       164.66         
2037.2200     0.2249        -99.98        1.567E-3      156.82        1.606E-3      153.65        0.43441       163.97         
2040.2100     0.23012       -97.98        1.563E-3      153.34        1.624E-3      158.55        0.43361       163.24         
2043.2000     0.23551       -96.26        1.62E-3       150.45        1.664E-3      153.45        0.43403       162.44         
2046.1900     0.24098       -94.68        1.596E-3      149.92        1.594E-3      148.43        0.43541       161.68         
2049.1800     0.24633       -93.22        1.693E-3      145.44        1.654E-3      145.00        0.4378        161.00         
2052.1700     0.25168       -91.83        1.656E-3      141.17        1.708E-3      142.66        0.44089       160.46         
2055.1600     0.25678       -90.51        1.568E-3      138.83        1.567E-3      138.02        0.44444       160.05         
2058.1500     0.26194       -89.23        1.698E-3      134.76        1.59E-3       132.73        0.44837       159.84         
2061.1400     0.26725       -87.98        1.591E-3      129.92        1.632E-3      132.65        0.45222       159.81         
2064.1300     0.27251       -86.82        1.538E-3      128.16        1.67E-3       128.43        0.45603       159.96         
2067.1200     0.27786       -85.68        1.606E-3      127.60        1.679E-3      124.51        0.45898       160.27         
2070.1100     0.28324       -84.62        1.606E-3      123.52        1.622E-3      124.48        0.4613        160.71         
2073.1000     0.28864       -83.59        1.593E-3      120.13        1.662E-3      119.72        0.46264       161.24         
2076.0900     0.29401       -82.62        1.569E-3      118.49        1.569E-3      118.09        0.4628        161.82         
2079.0800     0.29942       -81.71        1.565E-3      113.77        1.644E-3      115.86        0.46197       162.41         
2082.0700     0.30487       -80.82        1.582E-3      112.60        1.668E-3      111.49        0.4602        162.93         
2085.0600     0.31031       -79.98        1.564E-3      107.74        1.647E-3      108.48        0.45775       163.37         
2088.0500     0.31579       -79.15        1.557E-3      106.25        1.666E-3      107.89        0.45469       163.68         
2091.0400     0.32126       -78.38        1.534E-3      105.66        1.685E-3      102.64        0.45113       163.82         
2094.0300     0.3268        -77.62        1.551E-3      97.11         1.563E-3      98.56         0.44752       163.82         
2097.0200     0.33227       -76.91        1.555E-3      98.69         1.515E-3      97.58         0.44413       163.64         
2100.0100     0.33807       -76.24        1.623E-3      95.25         1.667E-3      91.78         0.44105       163.29         
2103.0000     0.34374       -75.58        1.534E-3      91.21         1.527E-3      91.91         0.43874       162.79         
2105.9900     0.34963       -74.95        1.476E-3      87.98         1.516E-3      88.82         0.43705       162.17         
2108.9800     0.35547       -74.33        1.46E-3       87.08         1.461E-3      84.90         0.43651       161.48         
2111.9700     0.36145       -73.68        1.524E-3      82.10         1.482E-3      83.61         0.43708       160.78         
2114.9600     0.36761       -73.09        1.452E-3      80.44         1.521E-3      79.51         0.43844       160.08         
2117.9500     0.3738        -72.46        1.492E-3      76.03         1.566E-3      77.82         0.44094       159.49         
2120.9400     0.3804        -71.84        1.485E-3      72.39         1.476E-3      71.69         0.44423       159.01         
2123.9300     0.38719       -71.29        1.393E-3      69.26         1.521E-3      66.81         0.44806       158.72         
2126.9200     0.39429       -70.81        1.39E-3       64.89         1.331E-3      65.40         0.45204       158.60         
2129.9100     0.4012        -70.49        1.358E-3      59.81         1.354E-3      63.07         0.4559        158.68         
2132.9000     0.40746       -70.28        1.317E-3      58.58         1.332E-3      59.54         0.45934       158.92         
2135.8900     0.41273       -70.20        1.328E-3      56.47         1.261E-3      60.80         0.46218       159.32         
2138.8800     0.41634       -70.13        1.28E-3       55.19         1.354E-3      56.16         0.46417       159.84         
2141.8700     0.41925       -69.97        1.246E-3      52.43         1.223E-3      57.69         0.46527       160.46         
2144.8600     0.42169       -69.76        1.269E-3      50.53         1.29E-3       53.49         0.46518       161.08         
2147.8500     0.42396       -69.52        1.288E-3      46.89         1.299E-3      50.49         0.46447       161.71         
2150.8400     0.42633       -69.29        1.38E-3       43.66         1.271E-3      45.40         0.4626        162.32         
2153.8300     0.42871       -69.11        1.307E-3      47.22         1.282E-3      43.10         0.46009       162.82         
2156.8200     0.43125       -68.97        1.202E-3      44.37         1.357E-3      41.66         0.45666       163.21         
2159.8100     0.43366       -68.82        1.215E-3      40.19         1.348E-3      40.48         0.45305       163.47         
2162.8000     0.43626       -68.75        1.316E-3      33.90         1.203E-3      31.54         0.44889       163.54         
2165.7900     0.43886       -68.68        1.179E-3      31.65         1.286E-3      28.67         0.44492       163.42         
2168.7800     0.44166       -68.59        1.212E-3      32.78         1.197E-3      36.85         0.44115       163.15         
2171.7700     0.44436       -68.50        1.232E-3      25.41         1.278E-3      27.09         0.43791       162.69         
2174.7600     0.4469        -68.41        1.266E-3      27.43         1.251E-3      29.12         0.43532       162.07         
2177.7500     0.44962       -68.30        1.208E-3      23.52         1.349E-3      24.54         0.43385       161.37         
2180.7400     0.4519        -68.14        1.26E-3       20.35         1.188E-3      20.80         0.43339       160.62         
2183.7300     0.45403       -67.96        1.084E-3      20.09         1.119E-3      18.83         0.43404       159.89         
2186.7200     0.45592       -67.76        1.151E-3      15.10         1.263E-3      17.43         0.43557       159.18         
2189.7100     0.45715       -67.54        1.203E-3      16.82         1.172E-3      12.63         0.43805       158.60         
2192.7000     0.45802       -67.29        1.152E-3      13.50         1.276E-3      9.16          0.44102       158.16         
2195.6900     0.45846       -67.04        1.181E-3      10.73         1.112E-3      7.39          0.44437       157.91         
2198.6800     0.45811       -66.76        1.187E-3      8.42          1.113E-3      10.76         0.44778       157.80         
2201.6700     0.45748       -66.49        1.087E-3      4.55          1.151E-3      0.92          0.45102       157.89         
2204.6600     0.45623       -66.25        1.079E-3      1.23          1.165E-3      4.02          0.45392       158.11         
2207.6500     0.45499       -66.02        1.114E-3      -1.95         1.137E-3      4.19          0.45609       158.46         
2210.6400     0.45341       -65.81        1.041E-3      0.38          1.069E-3      -0.81         0.45753       158.91         
2213.6300     0.4516        -65.67        1.099E-3      -2.53         1.019E-3      -6.38         0.45811       159.42         
2216.6200     0.44993       -65.55        9.953E-4      -11.74        1.097E-3      -3.76         0.45799       159.96         
2219.6100     0.44834       -65.46        1.007E-3      -9.41         1.072E-3      -11.27        0.4568        160.43         
2222.6000     0.44698       -65.42        9.277E-4      -14.24        1.11E-3       -15.35        0.45495       160.88         
2225.5900     0.44592       -65.37        1.059E-3      -15.65        9.584E-4      -14.18        0.45244       161.24         
2228.5800     0.44515       -65.33        1.14E-3       -16.56        1.038E-3      -11.36        0.44931       161.46         
2231.5700     0.44472       -65.27        1.011E-3      -14.35        1.054E-3      -17.52        0.44592       161.54         
2234.5600     0.44424       -65.18        9.546E-4      -18.96        1.012E-3      -21.63        0.44244       161.47         
2237.5500     0.44382       -65.09        9.874E-4      -18.14        1.103E-3      -20.54        0.43902       161.20         
2240.5400     0.44343       -64.92        9.067E-4      -24.52        9.738E-4      -20.53        0.43629       160.78         
2243.5300     0.44274       -64.72        9.322E-4      -24.64        9.589E-4      -28.47        0.43391       160.25         
2246.5200     0.44187       -64.49        9.337E-4      -29.51        9.57E-4       -30.92        0.43241       159.60         
2249.5100     0.44037       -64.20        9.211E-4      -25.94        9.802E-4      -30.25        0.43196       158.89         
2252.5000     0.43835       -63.88        9.94E-4       -29.00        8.701E-4      -29.17        0.43247       158.18         
2255.4900     0.43582       -63.52        1.016E-3      -29.96        1.062E-3      -34.04        0.43399       157.49         
2258.4800     0.43269       -63.16        8.976E-4      -30.03        9.373E-4      -28.77        0.43632       156.92         
2261.4700     0.42895       -62.79        9.539E-4      -39.10        1.03E-3       -35.63        0.43929       156.48         
2264.4600     0.4247        -62.45        9.694E-4      -38.06        9.303E-4      -34.32        0.44259       156.18         
2267.4500     0.42005       -62.12        9.157E-4      -45.00        1.015E-3      -38.69        0.44619       156.04         
2270.4400     0.41499       -61.86        9.165E-4      -42.28        9.912E-4      -43.01        0.44959       156.05         
2273.4300     0.4099        -61.62        9.749E-4      -42.03        9.651E-4      -44.16        0.45277       156.24         
2276.4200     0.40486       -61.48        9.157E-4      -49.18        8.868E-4      -49.28        0.45551       156.54         
2279.4100     0.39965       -61.34        9.872E-4      -47.29        9.974E-4      -52.28        0.45763       156.95         
2282.4000     0.39503       -61.26        9.188E-4      -45.05        9.637E-4      -45.09        0.45904       157.45         
2285.3900     0.39061       -61.18        9.11E-4       -50.21        9.403E-4      -48.66        0.45954       157.99         
2288.3800     0.38643       -61.05        1.075E-3      -50.71        9.699E-4      -46.76        0.45914       158.57         
2291.3700     0.3825        -60.88        8.854E-4      -54.06        9.68E-4       -55.72        0.45794       159.09         
2294.3600     0.37894       -60.68        9.903E-4      -53.51        9.262E-4      -51.56        0.45588       159.55         
2297.3500     0.37556       -60.36        1.021E-3      -58.37        9.846E-4      -64.77        0.4532        159.93         
2300.3400     0.37216       -59.94        1.053E-3      -56.13        9.821E-4      -54.91        0.44993       160.15         
2303.3300     0.36876       -59.43        9.834E-4      -61.88        8.626E-4      -65.05        0.44635       160.23         
2306.3200     0.36555       -58.78        1.008E-3      -68.31        9.121E-4      -63.73        0.44283       160.13         
2309.3100     0.36207       -58.04        1.03E-3       -64.93        8.789E-4      -64.89        0.43952       159.88         
2312.3000     0.35854       -57.17        9.626E-4      -71.34        9.038E-4      -65.07        0.43671       159.49         
2315.2900     0.3548        -56.25        1.029E-3      -71.79        1.072E-3      -68.54        0.43451       158.97         
2318.2800     0.35083       -55.21        1.031E-3      -77.80        1.056E-3      -69.02        0.43299       158.35         
2321.2700     0.34678       -54.20        1.056E-3      -75.45        9.684E-4      -74.55        0.43257       157.69         
2324.2600     0.34251       -53.17        1.04E-3       -82.63        9.583E-4      -76.21        0.43302       157.04         
2327.2500     0.33843       -52.17        1.056E-3      -80.36        9.988E-4      -81.32        0.43419       156.41         
2330.2400     0.33444       -51.23        1.01E-3       -82.75        9.558E-4      -85.73        0.43631       155.87         
2333.2300     0.33081       -50.37        1.062E-3      -82.15        1.003E-3      -82.70        0.43881       155.42         
2336.2200     0.32766       -49.58        1.082E-3      -87.29        1.071E-3      -86.20        0.44193       155.12         
2339.2100     0.32512       -48.88        1.13E-3       -91.87        1.059E-3      -94.97        0.44537       154.99         
2342.2000     0.32337       -48.24        1.049E-3      -87.74        1.11E-3       -89.23        0.44873       154.99         
2345.1900     0.3223        -47.71        1.106E-3      -94.60        1.096E-3      -92.50        0.45191       155.16         
2348.1800     0.32184       -47.22        1.089E-3      -94.15        1.079E-3      -100.66       0.45457       155.46         
2351.1700     0.32206       -46.77        1.106E-3      -104.25       1.131E-3      -100.99       0.45661       155.89         
2354.1600     0.32295       -46.36        1.097E-3      -96.78        1.095E-3      -99.67        0.45773       156.38         
2357.1500     0.32444       -45.96        1.074E-3      -105.25       1.005E-3      -108.78       0.45809       156.93         
2360.1400     0.32625       -45.60        1.118E-3      -105.41       1.165E-3      -109.32       0.45748       157.45         
2363.1300     0.32834       -45.22        1.115E-3      -111.85       1.09E-3       -109.15       0.45607       157.93         
2366.1200     0.3305        -44.85        1.147E-3      -117.07       1.067E-3      -114.03       0.45398       158.33         
2369.1100     0.33239       -44.47        1.135E-3      -115.34       1.161E-3      -119.80       0.45137       158.63         
2372.1000     0.33423       -44.07        1.174E-3      -114.43       1.108E-3      -115.07       0.44829       158.82         
2375.0900     0.33549       -43.70        1.171E-3      -115.40       1.133E-3      -114.82       0.44519       158.84         
2378.0800     0.33606       -43.40        1.10E-3       -126.42       1.056E-3      -123.17       0.44196       158.73         
2381.0700     0.33616       -43.15        1.237E-3      -125.73       1.117E-3      -124.53       0.43905       158.49         
2384.0600     0.33531       -42.98        1.158E-3      -136.83       1.119E-3      -123.59       0.43661       158.09         
2387.0500     0.33393       -42.91        1.212E-3      -132.95       1.146E-3      -132.61       0.43469       157.58         
2390.0400     0.332         -42.98        1.192E-3      -138.18       1.208E-3      -133.64       0.4335        156.99         
2393.0300     0.32963       -43.18        1.148E-3      -133.92       1.282E-3      -134.99       0.43337       156.36         
2396.0200     0.32714       -43.48        1.256E-3      -145.13       1.255E-3      -141.71       0.43422       155.72         
2399.0100     0.32419       -43.90        1.197E-3      -140.35       1.104E-3      -142.40       0.43614       155.15         
2402.0000     0.3213        -44.40        1.198E-3      -145.47       1.12E-3       -149.13       0.43878       154.69         
2404.9900     0.31852       -44.99        1.217E-3      -148.66       1.154E-3      -150.36       0.44196       154.39         
2407.9800     0.31575       -45.62        1.142E-3      -153.60       1.142E-3      -153.50       0.44551       154.24         
2410.9700     0.31323       -46.25        1.145E-3      -159.79       1.142E-3      -150.76       0.44885       154.26         
2413.9600     0.31107       -46.90        1.084E-3      -151.18       1.053E-3      -157.68       0.4521        154.46         
2416.9500     0.30892       -47.53        1.175E-3      -162.53       1.043E-3      -163.09       0.45465       154.78         
2419.9400     0.30698       -48.10        1.199E-3      -165.74       1.123E-3      -163.37       0.45664       155.23         
2422.9300     0.30484       -48.62        1.09E-3       -163.68       1.201E-3      -162.46       0.45777       155.75         
2425.9200     0.30239       -49.03        1.098E-3      -169.15       1.145E-3      -170.78       0.45796       156.32         
2428.9100     0.29971       -49.41        1.168E-3      -171.70       1.174E-3      -168.54       0.45725       156.88         
2431.9000     0.29632       -49.73        1.091E-3      -169.36       1.098E-3      -172.80       0.45571       157.42         
2434.8900     0.29225       -50.01        1.21E-3       -166.96       1.169E-3      -168.36       0.45337       157.88         
2437.8800     0.28716       -50.31        1.234E-3      -176.21       1.17E-3       -172.69       0.45027       158.26         
2440.8700     0.28134       -50.63        1.191E-3      179.21        1.213E-3      -171.15       0.44664       158.48         
2443.8600     0.27466       -50.94        1.138E-3      179.67        1.123E-3      -179.80       0.44257       158.53         
2446.8500     0.26776       -51.28        1.169E-3      -178.19       1.363E-3      -176.54       0.43852       158.39         
2449.8400     0.26018       -51.78        1.176E-3      176.02        1.128E-3      -179.45       0.43456       158.07         
2452.8300     0.25244       -52.27        1.268E-3      175.78        1.16E-3       174.22        0.4312        157.55         
2455.8200     0.24469       -52.85        1.145E-3      168.38        1.124E-3      172.77        0.4287        156.86         
2458.8100     0.23687       -53.51        1.205E-3      171.61        1.075E-3      166.93        0.42708       156.09         
2461.8000     0.22954       -54.20        1.232E-3      162.15        1.256E-3      164.47        0.42684       155.23         
2464.7900     0.22231       -54.92        1.294E-3      168.66        1.121E-3      170.01        0.42774       154.42         
2467.7800     0.21555       -55.61        1.204E-3      159.39        1.209E-3      159.44        0.42966       153.65         
2470.7700     0.20927       -56.23        1.187E-3      157.07        1.161E-3      156.20        0.4326        153.03         
2473.7600     0.20347       -56.76        1.162E-3      157.40        1.204E-3      155.98        0.43625       152.54         
2476.7500     0.19769       -57.11        1.204E-3      149.48        1.241E-3      147.44        0.44024       152.24         
2479.7400     0.19229       -57.22        1.133E-3      149.83        1.171E-3      147.77        0.44428       152.13         
2482.7300     0.18707       -57.17        1.29E-3       150.46        1.243E-3      146.90        0.44828       152.20         
2485.7200     0.18156       -56.91        1.26E-3       146.36        1.334E-3      144.05        0.45186       152.45         
2488.7100     0.17588       -56.44        1.285E-3      145.17        1.206E-3      141.16        0.45492       152.83         
2491.7000     0.16955       -55.75        1.329E-3      141.47        1.344E-3      139.01        0.45722       153.35         
2494.6900     0.16276       -54.84        1.334E-3      135.58        1.264E-3      140.33        0.45845       153.95         
2497.6800     0.15509       -53.54        1.296E-3      131.85        1.264E-3      133.73        0.45879       154.60         
2500.6700     0.14773       -51.86        1.296E-3      131.87        1.293E-3      134.62        0.45816       155.24         
2503.6600     0.14097       -49.99        1.232E-3      130.03        1.26E-3       137.39        0.45644       155.83         
2506.6500     0.13442       -47.92        1.286E-3      127.84        1.31E-3       128.16        0.45366       156.35         
2509.6400     0.12851       -45.71        1.245E-3      119.97        1.232E-3      126.71        0.45031       156.69         
2512.6300     0.12346       -43.57        1.279E-3      123.69        1.327E-3      123.58        0.4463        156.88         
2515.6200     0.11895       -41.41        1.245E-3      122.75        1.333E-3      123.77        0.44218       156.85         
2518.6100     0.1152        -39.48        1.328E-3      119.45        1.373E-3      111.65        0.43811       156.61         
2521.6000     0.11261       -37.65        1.327E-3      111.86        1.273E-3      114.87        0.43491       156.22         
2524.5900     0.11074       -35.98        1.311E-3      111.07        1.34E-3       116.07        0.43197       155.63         
2527.5800     0.10979       -34.46        1.412E-3      107.07        1.416E-3      108.99        0.43005       154.90         
2530.5700     0.10993       -32.95        1.414E-3      107.45        1.347E-3      103.64        0.42923       154.12         
2533.5600     0.1108        -31.53        1.361E-3      96.84         1.387E-3      103.23        0.42963       153.35         
2536.5500     0.11271       -30.18        1.364E-3      99.29         1.417E-3      100.27        0.43134       152.61         
2539.5400     0.11514       -28.75        1.438E-3      97.89         1.402E-3      98.45         0.43375       151.94         
2542.5300     0.11807       -27.28        1.426E-3      94.19         1.429E-3      92.17         0.43731       151.43         
2545.5200     0.12111       -25.82        1.558E-3      91.00         1.401E-3      87.49         0.44113       151.11         
2548.5100     0.12454       -24.51        1.413E-3      89.35         1.443E-3      86.91         0.44532       150.99         
2551.5000     0.12777       -23.22        1.423E-3      87.39         1.439E-3      82.84         0.44935       151.03         
2554.4900     0.13088       -22.03        1.376E-3      82.48         1.436E-3      81.88         0.45314       151.31         
2557.4800     0.13342       -21.11        1.449E-3      78.39         1.338E-3      80.49         0.45635       151.73         
2560.4700     0.13564       -20.34        1.429E-3      77.06         1.375E-3      77.01         0.4586        152.29         
2563.4600     0.13729       -19.89        1.384E-3      71.35         1.355E-3      71.65         0.45984       152.94         
2566.4500     0.13831       -19.67        1.508E-3      72.62         1.406E-3      69.11         0.45998       153.62         
2569.4400     0.13903       -19.84        1.354E-3      67.20         1.436E-3      68.93         0.45878       154.29         
2572.4300     0.13942       -20.36        1.367E-3      65.34         1.355E-3      63.36         0.45668       154.90         
2575.4200     0.13933       -21.16        1.343E-3      62.50         1.481E-3      63.78         0.45361       155.37         
2578.4100     0.13914       -22.30        1.52E-3       58.99         1.39E-3       62.15         0.44989       155.69         
2581.4000     0.1393        -23.76        1.40E-3       55.30         1.496E-3      57.82         0.44575       155.84         
2584.3900     0.13968       -25.37        1.391E-3      51.88         1.447E-3      53.83         0.44146       155.79         
2587.3800     0.14017       -27.15        1.411E-3      48.90         1.411E-3      49.28         0.43718       155.51         
2590.3700     0.14115       -28.93        1.481E-3      46.53         1.481E-3      48.63         0.43373       155.05         
2593.3600     0.14253       -30.71        1.459E-3      47.68         1.474E-3      41.98         0.43101       154.40         
2596.3500     0.14398       -32.38        1.448E-3      41.36         1.493E-3      44.33         0.42931       153.67         
2599.3400     0.14538       -33.90        1.411E-3      39.19         1.433E-3      40.24         0.42881       152.84         
2602.3300     0.14646       -35.26        1.425E-3      35.85         1.412E-3      38.33         0.42955       152.02         
2605.3200     0.14731       -36.56        1.391E-3      33.44         1.41E-3       32.48         0.43161       151.27         
2608.3100     0.14753       -37.66        1.406E-3      29.02         1.532E-3      32.06         0.43471       150.63         
2611.3000     0.14713       -38.76        1.407E-3      26.23         1.519E-3      28.75         0.43856       150.16         
2614.2900     0.146         -39.83        1.39E-3       26.29         1.436E-3      24.99         0.44301       149.90         
2617.2800     0.14422       -40.86        1.46E-3       24.71         1.296E-3      18.88         0.44749       149.86         
2620.2700     0.1419        -42.06        1.456E-3      18.66         1.435E-3      18.05         0.45193       150.02         
2623.2600     0.13902       -43.42        1.445E-3      12.10         1.415E-3      17.97         0.45571       150.39         
2626.2500     0.1357        -44.97        1.377E-3      13.33         1.452E-3      13.95         0.45896       150.93         
2629.2400     0.13195       -46.63        1.478E-3      8.39          1.359E-3      9.84          0.46083       151.57         
2632.2300     0.1284        -48.65        1.402E-3      6.10          1.37E-3       6.43          0.46186       152.29         
2635.2200     0.12466       -50.91        1.343E-3      4.47          1.482E-3      0.31          0.46152       153.02         
2638.2100     0.12118       -53.24        1.478E-3      1.02          1.462E-3      -1.87         0.45986       153.75         
2641.2000     0.11806       -55.74        1.363E-3      -4.50         1.40E-3       -0.18         0.45755       154.36         
2644.1900     0.11524       -58.20        1.378E-3      -5.53         1.397E-3      -4.30         0.45401       154.88         
2647.1800     0.11267       -60.67        1.443E-3      -6.35         1.426E-3      -3.54         0.44985       155.21         
2650.1700     0.11038       -62.97        1.458E-3      -12.41        1.368E-3      -10.00        0.44536       155.35         
2653.1600     0.10814       -65.14        1.419E-3      -9.00         1.485E-3      -12.69        0.44066       155.25         
2656.1500     0.10579       -66.89        1.503E-3      -15.47        1.399E-3      -19.45        0.4363        154.99         
2659.1400     0.10318       -68.58        1.412E-3      -18.35        1.389E-3      -16.08        0.43242       154.48         
2662.1300     0.10026       -69.98        1.372E-3      -24.09        1.49E-3       -19.49        0.42936       153.81         
2665.1200     0.09681       -71.22        1.452E-3      -25.44        1.452E-3      -26.14        0.42757       153.02         
2668.1100     0.09283       -72.33        1.41E-3       -24.79        1.385E-3      -27.93        0.42676       152.14         
2671.1000     0.0884        -73.41        1.511E-3      -29.14        1.349E-3      -28.60        0.42745       151.27         
2674.0900     0.0835        -74.52        1.485E-3      -30.82        1.481E-3      -27.97        0.42939       150.48         
2677.0800     0.07816       -75.74        1.437E-3      -36.14        1.399E-3      -37.02        0.43245       149.81         
2680.0700     0.07244       -77.31        1.385E-3      -35.29        1.315E-3      -36.90        0.43632       149.33         
2683.0600     0.06627       -78.97        1.401E-3      -38.13        1.435E-3      -38.27        0.4407        149.07         
2686.0500     0.06035       -81.02        1.348E-3      -44.18        1.329E-3      -41.73        0.44506       149.00         
2689.0400     0.05445       -83.43        1.437E-3      -48.53        1.348E-3      -45.18        0.44909       149.14         
2692.0300     0.04876       -86.42        1.441E-3      -48.81        1.30E-3       -49.48        0.45258       149.49         
2695.0200     0.04354       -89.88        1.268E-3      -49.90        1.349E-3      -53.26        0.45531       149.97         
2698.0100     0.03859       -93.68        1.43E-3       -53.33        1.302E-3      -54.08        0.45691       150.56         
2701.0000     0.03404       -97.91        1.328E-3      -58.87        1.265E-3      -55.99        0.4574        151.20         
2703.9900     0.02988       -102.66       1.313E-3      -56.40        1.271E-3      -61.28        0.45677       151.83         
2706.9800     0.02571       -107.73       1.408E-3      -64.04        1.315E-3      -62.08        0.45523       152.42         
2709.9700     0.0216        -113.29       1.391E-3      -64.25        1.352E-3      -64.54        0.45254       152.94         
2712.9600     0.01743       -120.49       1.327E-3      -72.08        1.275E-3      -66.05        0.4491        153.30         
2715.9500     0.0132        -129.82       1.369E-3      -70.68        1.336E-3      -67.98        0.44522       153.52         
2718.9400     0.00889       -146.34       1.392E-3      -73.20        1.341E-3      -76.61        0.44091       153.52         
2721.9300     0.00621       175.06        1.301E-3      -75.50        1.269E-3      -79.55        0.43666       153.33         
2724.9200     0.00746       125.70        1.41E-3       -74.78        1.317E-3      -78.12        0.43283       152.93         
2727.9100     0.01215       101.25        1.294E-3      -82.18        1.285E-3      -78.83        0.4297        152.32         
2730.9000     0.01788       90.11         1.248E-3      -83.75        1.292E-3      -82.12        0.42749       151.56         
2733.8900     0.02395       83.53         1.324E-3      -89.37        1.298E-3      -90.59        0.42651       150.72         
2736.8800     0.03004       79.54         1.364E-3      -85.93        1.299E-3      -93.61        0.42704       149.84         
2739.8700     0.03545       76.78         1.27E-3       -94.73        1.339E-3      -94.56        0.42881       149.01         
2742.8600     0.04077       74.95         1.269E-3      -95.19        1.212E-3      -95.64        0.43195       148.29         
2745.8500     0.04569       73.79         1.262E-3      -95.71        1.22E-3       -97.93        0.4359        147.75         
2748.8400     0.05061       72.80         1.263E-3      -106.22       1.325E-3      -108.49       0.44051       147.40         
2751.8300     0.05527       71.81         1.238E-3      -105.76       1.278E-3      -107.27       0.44532       147.27         
2754.8200     0.05944       70.59         1.203E-3      -110.22       1.255E-3      -106.24       0.44993       147.34         
2757.8100     0.06325       69.51         1.203E-3      -111.02       1.232E-3      -113.03       0.45416       147.67         
2760.8000     0.06698       68.34         1.255E-3      -116.19       1.22E-3       -115.02       0.45782       148.12         
2763.7900     0.07061       67.16         1.207E-3      -118.60       1.188E-3      -113.74       0.46048       148.73         
2766.7800     0.07391       65.88         1.116E-3      -118.40       1.247E-3      -120.48       0.46209       149.42         
2769.7700     0.07722       64.44         1.176E-3      -119.06       1.152E-3      -123.74       0.4625        150.17         
2772.7600     0.08058       62.97         1.227E-3      -127.57       1.069E-3      -124.22       0.4618        150.93         
2775.7500     0.08371       61.61         1.181E-3      -130.98       1.157E-3      -125.83       0.45989       151.66         
2778.7400     0.087         60.33         1.197E-3      -127.19       1.163E-3      -128.09       0.45692       152.29         
2781.7300     0.09006       59.13         1.08E-3       -131.25       1.102E-3      -131.69       0.45302       152.75         
2784.7200     0.09322       58.13         1.087E-3      -129.49       1.128E-3      -129.35       0.44835       153.07         
2787.7100     0.09627       57.13         1.127E-3      -136.28       1.064E-3      -136.10       0.44346       153.17         
2790.7000     0.09925       56.33         1.07E-3       -136.60       1.093E-3      -134.48       0.43826       153.03         
2793.6900     0.1021        55.62         1.06E-3       -143.16       1.091E-3      -136.67       0.4336        152.67         
2796.6800     0.10478       55.14         1.049E-3      -138.80       1.076E-3      -143.59       0.42947       152.10         
2799.6700     0.10728       54.73         1.043E-3      -149.12       1.139E-3      -144.02       0.42659       151.38         
2802.6600     0.10966       54.42         1.095E-3      -149.14       1.097E-3      -144.74       0.42484       150.51         
2805.6500     0.11173       54.23         9.483E-4      -149.65       9.812E-4      -145.90       0.42449       149.61         
2808.6400     0.11361       54.11         9.907E-4      -158.74       1.053E-3      -145.32       0.42555       148.72         
2811.6300     0.1152        54.06         9.402E-4      -158.32       1.115E-3      -148.96       0.42765       147.93         
2814.6200     0.11687       54.04         1.057E-3      -154.32       9.664E-4      -150.60       0.4308        147.26         
2817.6100     0.11835       54.06         9.578E-4      -161.65       9.908E-4      -154.25       0.43472       146.78         
2820.6000     0.11993       54.20         9.667E-4      -157.42       9.658E-4      -162.15       0.43886       146.50         
2823.5900     0.1213        54.36         1.013E-3      -162.91       1.159E-3      -160.67       0.44318       146.41         
2826.5800     0.12275       54.49         9.914E-4      -167.91       1.056E-3      -160.96       0.44752       146.53         
2829.5700     0.12427       54.71         1.069E-3      -173.13       9.07E-4       -165.84       0.45108       146.84         
2832.5600     0.12597       55.00         9.202E-4      -167.81       9.428E-4      -164.03       0.45402       147.27         
2835.5500     0.12755       55.43         9.908E-4      -168.10       1.002E-3      -167.35       0.45608       147.85         
2838.5400     0.12928       55.88         9.13E-4       -174.51       9.989E-4      -168.58       0.45693       148.49         
2841.5300     0.13105       56.33         9.546E-4      -177.08       9.341E-4      -174.32       0.45676       149.16         
2844.5200     0.1328        56.96         1.054E-3      -171.32       1.012E-3      -177.20       0.45538       149.80         
2847.5100     0.13469       57.72         1.088E-3      -177.28       9.857E-4      -178.41       0.45307       150.38         
2850.5000     0.13652       58.38         9.695E-4      175.45        9.887E-4      177.14        0.44985       150.81         
2853.4900     0.13836       59.10         1.139E-3      176.03        1.008E-3      175.38        0.44603       151.08         
2856.4800     0.13979       59.74         1.01E-3       179.12        9.883E-4      176.69        0.44172       151.19         
2859.4700     0.14093       60.50         1.085E-3      172.31        1.054E-3      168.18        0.43759       151.10         
2862.4600     0.14205       61.39         1.179E-3      172.08        1.181E-3      166.41        0.43377       150.84         
2865.4500     0.14327       62.32         1.147E-3      170.73        1.149E-3      168.77        0.4305        150.36         
2868.4400     0.14461       63.33         1.056E-3      167.67        1.006E-3      163.07        0.42785       149.75         
2871.4300     0.1461        64.30         1.046E-3      164.33        1.088E-3      165.29        0.42628       149.02         
2874.4200     0.14763       65.30         1.09E-3       160.57        1.086E-3      161.15        0.42583       148.24         
2877.4100     0.1499        66.23         1.164E-3      157.45        1.113E-3      160.63        0.42633       147.45         
2880.4000     0.15204       67.23         1.017E-3      157.30        9.915E-4      156.82        0.42803       146.71         
2883.3900     0.15448       68.24         1.194E-3      153.32        1.059E-3      150.61        0.4308        146.05         
2886.3800     0.15718       69.30         1.089E-3      149.51        1.081E-3      157.56        0.43419       145.54         
2889.3700     0.16041       70.33         1.068E-3      140.83        1.141E-3      145.69        0.43813       145.21         
2892.3600     0.1639        71.46         1.161E-3      142.13        1.086E-3      144.31        0.44223       145.05         
2895.3500     0.16774       72.69         1.086E-3      142.15        1.048E-3      139.69        0.44641       145.12         
2898.3400     0.1718        73.91         1.065E-3      137.67        1.117E-3      138.00        0.45003       145.33         
2901.3300     0.17611       75.14         9.803E-4      134.97        1.047E-3      142.40        0.45305       145.71         
2904.3200     0.1809        76.47         1.149E-3      133.20        1.025E-3      127.06        0.45525       146.18         
2907.3100     0.18571       77.77         1.084E-3      130.56        1.01E-3       127.65        0.45642       146.74         
2910.3000     0.19043       78.99         1.079E-3      129.20        1.107E-3      128.32        0.45659       147.34         
2913.2900     0.19547       80.13         1.269E-3      129.22        1.044E-3      130.86        0.45599       147.91         
2916.2800     0.2006        81.22         1.196E-3      124.03        1.079E-3      121.37        0.45423       148.45         
2919.2700     0.2059        82.11         1.119E-3      122.36        1.15E-3       125.07        0.45204       148.90         
2922.2600     0.21134       82.95         1.089E-3      117.85        1.192E-3      119.66        0.44922       149.23         
2925.2500     0.2168        83.60         1.061E-3      115.52        1.143E-3      115.26        0.44585       149.43         
2928.2400     0.22249       84.08         1.167E-3      113.78        1.135E-3      113.86        0.44238       149.47         
2931.2300     0.22845       84.43         1.113E-3      114.81        1.164E-3      109.69        0.43874       149.33         
2934.2200     0.23454       84.64         1.178E-3      109.98        1.11E-3       105.45        0.43559       149.01         
2937.2100     0.24089       84.75         1.144E-3      104.89        1.187E-3      105.48        0.43283       148.56         
2940.2000     0.24733       84.77         1.061E-3      101.90        1.057E-3      102.23        0.43104       147.98         
2943.1900     0.25411       84.71         1.076E-3      97.81         1.145E-3      98.92         0.43008       147.30         
2946.1800     0.26129       84.59         1.023E-3      97.56         1.047E-3      94.33         0.43025       146.59         
2949.1700     0.26855       84.48         1.106E-3      89.59         1.068E-3      96.20         0.43152       145.93         
2952.1600     0.27599       84.38         1.096E-3      82.75         1.125E-3      93.30         0.43367       145.31         
2955.1500     0.28345       84.28         1.06E-3       82.98         1.063E-3      94.82         0.43662       144.83         
2958.1400     0.29083       84.22         1.103E-3      82.89         1.109E-3      89.15         0.43995       144.51         
2961.1300     0.298         84.21         1.099E-3      81.85         1.053E-3      85.62         0.44369       144.37         
2964.1200     0.3047        84.21         1.05E-3       76.72         1.023E-3      78.04         0.4474        144.39         
2967.1100     0.31072       84.25         1.113E-3      74.21         1.001E-3      75.31         0.45078       144.59         
2970.1000     0.31632       84.24         1.064E-3      78.59         1.042E-3      71.61         0.45376       144.92         
2973.0900     0.32126       84.25         1.107E-3      75.96         1.057E-3      69.95         0.45574       145.42         
2976.0800     0.32555       84.23         1.141E-3      69.68         1.085E-3      72.06         0.4572        145.98         
2979.0700     0.32911       84.16         1.015E-3      64.20         9.699E-4      62.10         0.45767       146.60         
2982.0600     0.33212       84.05         1.184E-3      61.86         9.679E-4      67.37         0.45708       147.26         
2985.0500     0.33464       83.89         9.981E-4      63.76         1.131E-3      70.89         0.45571       147.84         
2988.0400     0.33688       83.69         1.006E-3      58.18         9.884E-4      54.74         0.45332       148.37         
2991.0300     0.33886       83.46         1.026E-3      58.25         9.758E-4      57.73         0.45005       148.79         
2994.0200     0.341         83.19         9.029E-4      53.44         1.008E-3      57.09         0.4463        149.05         
2997.0100     0.34303       82.88         1.006E-3      45.15         8.771E-4      51.72         0.44202       149.13         
3000.0000     0.34517       82.59         9.383E-4      48.69         9.119E-4      48.56         0.43726       149.00         
