!    08/05/2026   14:52:49 
! Ref Plane: 0.000 mm
# MHZ S MA R  50
!
10.0000       1.00092       -178.80       6.081E-5      -153.02       4.918E-5      -55.83        0.111         -26.12         
12.9900       1.0014        -178.51       2.167E-5      47.03         1.031E-4      150.49        0.11299       -32.18         
15.9800       1.0015        -178.21       4.856E-5      -106.51       4.789E-5      -42.54        0.11637       -38.43         
18.9700       1.00179       -177.92       3.171E-5      159.56        4.836E-5      172.86        0.12089       -44.59         
21.9600       1.00215       -177.63       1.836E-5      152.73        4.63E-5       100.28        0.1256        -50.73         
24.9500       1.00252       -177.34       3.257E-5      77.91         7.234E-5      106.49        0.129         -55.57         
27.9400       1.00281       -177.04       1.008E-4      105.33        4.016E-5      122.85        0.13628       -59.16         
30.9300       1.0029        -176.76       6.475E-5      -23.56        4.591E-5      21.98         0.14608       -62.97         
33.9200       1.00305       -176.46       1.216E-4      -86.96        8.771E-5      43.30         0.1557        -66.86         
36.9100       1.00319       -176.17       8.143E-5      -28.81        9.414E-5      25.39         0.16477       -70.12         
39.9000       1.00311       -175.88       1.826E-5      -162.01       4.043E-5      17.85         0.1749        -72.88         
42.8900       1.00308       -175.58       3.255E-5      -156.96       9.927E-5      -78.67        0.18517       -75.37         
45.8800       1.00321       -175.31       3.524E-5      36.33         5.722E-5      107.22        0.19499       -77.65         
48.8700       1.00333       -174.96       1.088E-4      42.21         5.30E-5       -31.40        0.20461       -79.80         
51.8600       1.00297       -174.71       5.557E-5      -67.54        1.028E-4      -68.44        0.21382       -82.03         
54.8500       1.00405       -174.49       8.125E-5      179.44        4.595E-5      -71.17        0.22133       -84.05         
57.8400       1.00317       -174.11       8.04E-5       163.25        6.697E-5      7.43          0.2275        -85.50         
60.8300       1.00323       -173.81       1.841E-5      164.37        8.946E-5      -101.48       0.23486       -86.64         
63.8200       1.00326       -173.51       4.729E-5      -139.26       8.599E-5      -29.74        0.24313       -87.94         
66.8100       1.00332       -173.19       3.435E-5      -42.29        5.894E-5      -101.28       0.25085       -89.46         
69.8000       1.0036        -172.88       3.172E-5      -30.52        4.284E-5      -97.73        0.25821       -91.01         
72.7900       1.0041        -172.57       1.671E-4      149.30        5.671E-5      -171.81       0.26548       -92.60         
75.7800       1.00427       -172.25       2.175E-5      -75.58        8.042E-5      -160.02       0.27294       -94.31         
78.7700       1.00439       -171.92       5.985E-5      -7.95         6.257E-5      115.46        0.28          -96.11         
81.7600       1.00467       -171.60       3.991E-5      -119.57       6.682E-5      4.70          0.28611       -97.89         
84.7500       1.00483       -171.32       7.653E-5      -75.45        2.171E-5      53.23         0.29146       -99.48         
87.7400       1.00508       -171.03       3.627E-5      59.62         2.684E-5      151.61        0.2978        -100.71        
90.7300       1.00529       -170.75       2.484E-5      -108.70       3.129E-5      164.60        0.30506       -102.00        
93.7200       1.00578       -170.39       4.388E-5      39.24         3.295E-5      95.29         0.31244       -103.22        
96.7100       1.00539       -170.14       2.723E-5      -72.62        3.016E-5      -42.35        0.31955       -104.33        
99.7000       1.00537       -169.85       5.094E-5      -79.42        7.043E-5      -65.03        0.32734       -105.23        
102.6900      1.00517       -169.56       5.908E-5      -164.88       5.112E-5      -120.29       0.33611       -106.05        
105.6800      1.00509       -169.29       4.362E-5      147.56        1.141E-4      -169.37       0.34544       -106.86        
108.6700      1.00514       -169.01       3.097E-5      107.77        1.231E-4      10.12         0.35457       -107.66        
111.6600      1.00487       -168.71       4.051E-5      82.50         4.554E-6      -131.28       0.36343       -108.40        
114.6500      1.00461       -168.41       3.959E-5      105.20        1.134E-4      29.54         0.37211       -109.08        
117.6400      1.00431       -168.12       4.682E-5      -136.37       4.945E-5      -51.05        0.38079       -109.77        
120.6300      1.00469       -167.82       4.187E-5      132.64        5.751E-5      126.03        0.3887        -110.47        
123.6200      1.00489       -167.51       1.982E-5      -15.65        1.624E-5      15.32         0.39595       -111.20        
126.6100      1.00473       -167.19       1.718E-5      131.76        3.861E-5      -108.85       0.40244       -111.95        
129.6000      1.00468       -166.85       2.727E-5      -178.28       8.348E-5      -33.36        0.40859       -112.69        
132.5900      1.00465       -166.54       5.766E-5      -69.57        5.717E-5      -125.59       0.41421       -113.42        
135.5800      1.00469       -166.20       3.114E-5      -45.43        2.759E-5      -94.53        0.41959       -114.12        
138.5700      1.00478       -165.89       3.315E-5      139.15        9.319E-5      153.99        0.42494       -114.84        
141.5600      1.00504       -165.60       7.137E-5      149.64        3.253E-5      -35.90        0.43025       -115.57        
144.5500      1.00544       -165.32       3.612E-5      -155.61       8.433E-5      166.55        0.43559       -116.35        
147.5400      1.00583       -165.01       3.036E-5      96.50         7.917E-5      -103.14       0.44079       -117.18        
150.5300      1.00623       -164.71       6.96E-5       147.63        3.569E-5      -67.68        0.44598       -118.09        
153.5200      1.00635       -164.41       4.16E-5       99.23         9.248E-5      178.92        0.45126       -119.02        
156.5100      1.00647       -164.11       3.97E-5       -30.58        1.357E-4      68.77         0.45695       -119.96        
159.5000      1.00647       -163.82       3.411E-5      -15.38        9.298E-5      107.42        0.46282       -120.86        
162.4900      1.00651       -163.55       4.935E-5      144.98        9.453E-5      150.29        0.4686        -121.74        
165.4800      1.00647       -163.28       8.279E-5      117.92        2.893E-5      -137.99       0.47446       -122.58        
168.4700      1.00626       -162.99       8.607E-5      124.05        5.496E-5      -12.88        0.4802        -123.37        
171.4600      1.00615       -162.69       5.332E-5      67.14         5.572E-5      -147.04       0.48578       -124.09        
174.4500      1.0061        -162.39       4.146E-5      44.76         1.962E-5      -31.80        0.49123       -124.74        
177.4400      1.0058        -162.08       3.213E-5      152.71        1.305E-5      -116.19       0.49617       -125.34        
180.4300      1.00523       -161.77       8.84E-5       11.62         6.45E-5       -79.02        0.50098       -125.89        
183.4200      1.0048        -161.46       5.345E-5      77.10         3.024E-5      -164.96       0.50557       -126.40        
186.4100      1.00441       -161.16       4.864E-5      115.02        1.03E-4       82.57         0.51021       -126.83        
189.4000      1.00401       -160.85       6.346E-5      25.82         8.175E-5      -3.71         0.51464       -127.24        
192.3900      1.0037        -160.52       1.256E-4      17.12         8.399E-5      50.37         0.51902       -127.63        
195.3800      1.00379       -160.24       6.154E-5      22.79         9.174E-5      37.13         0.52308       -128.04        
198.3700      1.00409       -159.96       6.282E-5      -1.16         1.201E-4      -1.11         0.52678       -128.46        
201.3600      1.00449       -159.65       1.299E-4      -29.04        1.132E-4      -10.30        0.53014       -128.90        
204.3500      1.00497       -159.34       1.033E-4      -48.86        1.141E-4      -94.75        0.53316       -129.38        
207.3400      1.00541       -159.01       1.048E-4      -56.79        4.011E-5      -22.97        0.53611       -129.92        
210.3300      1.00597       -158.68       7.066E-5      -53.62        1.452E-4      -44.18        0.53901       -130.52        
213.3200      1.00596       -158.38       1.821E-4      -62.20        1.535E-4      -51.91        0.5423        -131.17        
216.3100      1.00603       -158.09       2.133E-4      -100.16       2.302E-4      -80.44        0.54569       -131.84        
219.3000      1.00638       -157.82       2.066E-4      -114.95       1.927E-4      -107.02       0.54903       -132.53        
222.2900      1.00709       -157.53       2.025E-4      -122.37       2.249E-4      -134.00       0.55256       -133.22        
225.2800      1.00756       -157.18       1.436E-4      -148.21       1.797E-4      -105.59       0.55622       -133.90        
228.2700      1.00764       -156.83       1.505E-4      -156.23       2.004E-4      -119.62       0.55983       -134.57        
231.2600      1.00728       -156.52       1.057E-4      -158.53       1.881E-4      -144.60       0.56337       -135.22        
234.2500      1.00666       -156.20       1.887E-4      -157.44       1.373E-4      152.35        0.5669        -135.84        
237.2400      1.00607       -155.89       1.724E-4      -174.65       2.217E-4      -148.08       0.57056       -136.43        
240.2300      1.00526       -155.58       1.937E-4      -166.77       9.472E-5      -132.81       0.57441       -136.95        
243.2200      1.00454       -155.27       1.896E-4      -179.63       2.377E-4      177.80        0.57822       -137.40        
246.2100      1.00394       -154.96       1.814E-4      179.67        1.777E-4      171.11        0.58202       -137.78        
249.2000      1.00367       -154.66       2.669E-4      139.91        1.71E-4       156.73        0.58558       -138.11        
252.1900      1.00354       -154.37       2.001E-4      130.82        2.186E-4      145.62        0.589         -138.38        
255.1800      1.00352       -154.07       1.867E-4      139.20        1.473E-4      113.54        0.59203       -138.62        
258.1700      1.00377       -153.77       1.646E-4      122.24        1.503E-4      144.60        0.59487       -138.86        
261.1600      1.00421       -153.45       1.809E-4      123.30        2.819E-4      105.25        0.59744       -139.08        
264.1500      1.00447       -153.12       9.011E-5      60.00         1.353E-4      122.35        0.59985       -139.34        
267.1400      1.00479       -152.81       1.278E-4      106.27        1.828E-4      59.67         0.60211       -139.62        
270.1300      1.00507       -152.53       7.617E-5      52.13         2.275E-5      84.90         0.60401       -139.96        
273.1200      1.00628       -152.26       7.701E-5      50.37         6.215E-5      106.43        0.60555       -140.33        
276.1100      1.00758       -151.98       1.568E-4      132.77        1.048E-4      1.12          0.60701       -140.68        
279.1000      1.00836       -151.65       6.146E-5      129.07        8.162E-5      179.37        0.60881       -141.03        
282.0900      1.0085        -151.28       6.443E-5      117.90        3.938E-5      136.06        0.61086       -141.43        
285.0800      1.00803       -150.92       8.954E-5      122.55        1.183E-4      105.78        0.61296       -141.87        
288.0700      1.00765       -150.55       1.26E-4       133.80        9.139E-5      165.17        0.61491       -142.39        
291.0600      1.00702       -150.21       1.05E-4       101.17        1.183E-4      130.13        0.61695       -142.96        
294.0500      1.00628       -149.89       1.29E-4       105.94        1.516E-4      119.30        0.61911       -143.51        
297.0400      1.00517       -149.56       9.865E-5      128.98        1.406E-4      111.97        0.62158       -144.07        
300.0300      1.00434       -149.24       1.552E-4      103.28        1.498E-4      88.75         0.62405       -144.60        
303.0200      1.00362       -148.92       1.626E-4      116.70        6.68E-5       89.54         0.62683       -145.07        
306.0100      1.00293       -148.61       1.145E-4      101.89        4.813E-5      -103.00       0.62944       -145.50        
309.0000      1.00245       -148.31       1.564E-4      99.26         2.10E-4       88.01         0.63192       -145.86        
311.9900      1.00212       -148.01       2.003E-4      79.96         1.242E-4      59.44         0.63429       -146.18        
314.9800      1.00172       -147.70       1.949E-4      90.23         1.279E-4      109.83        0.63645       -146.46        
317.9700      1.0014        -147.41       1.635E-4      84.00         1.617E-4      88.12         0.63849       -146.72        
320.9600      1.00119       -147.13       1.711E-4      77.26         2.156E-4      63.19         0.64065       -146.94        
323.9500      1.00181       -146.85       9.336E-5      78.08         1.992E-4      104.15        0.64255       -147.13        
326.9400      1.00264       -146.56       1.534E-4      63.94         2.189E-4      80.75         0.64436       -147.31        
329.9300      1.00398       -146.26       1.922E-4      80.82         1.437E-4      41.65         0.64593       -147.50        
332.9200      1.00521       -145.92       1.979E-4      67.69         2.702E-4      67.70         0.64733       -147.69        
335.9100      1.00608       -145.54       1.381E-4      71.33         1.461E-4      34.35         0.64883       -147.90        
338.9000      1.00665       -145.13       2.256E-4      58.70         1.953E-4      50.42         0.65          -148.12        
341.8900      1.00661       -144.74       1.652E-4      65.64         1.928E-4      46.49         0.65096       -148.38        
344.8800      1.00638       -144.37       2.176E-4      53.34         1.802E-4      34.08         0.65165       -148.69        
347.8700      1.00616       -144.03       2.097E-4      51.46         3.003E-4      26.13         0.6524        -149.05        
350.8600      1.00586       -143.68       1.375E-4      15.44         2.473E-4      26.81         0.65347       -149.45        
353.8500      1.0055        -143.34       1.343E-4      43.45         2.687E-4      19.18         0.65468       -149.88        
356.8400      1.00477       -143.00       1.706E-4      11.92         1.54E-4       16.34         0.65601       -150.31        
359.8300      1.00409       -142.67       1.614E-4      31.70         1.633E-4      28.45         0.65749       -150.74        
362.8200      1.00348       -142.35       1.998E-4      25.05         2.209E-4      26.25         0.6591        -151.14        
365.8100      1.00276       -142.03       2.21E-4       30.10         2.546E-4      15.95         0.66071       -151.53        
368.8000      1.00163       -141.73       2.366E-4      9.79          2.299E-4      2.16          0.66232       -151.88        
371.7900      1.0007        -141.45       2.428E-4      2.65          2.632E-4      23.10         0.66379       -152.22        
374.7800      1.0005        -141.19       2.516E-4      -16.11        2.703E-4      6.47          0.66556       -152.51        
377.7700      1.00027       -140.94       2.35E-4       -22.13        3.296E-4      -22.03        0.66724       -152.79        
380.7600      1.0011        -140.65       2.909E-4      -22.62        1.555E-4      -18.29        0.66902       -153.01        
383.7500      1.00187       -140.33       2.006E-4      -48.92        2.23E-4       -23.43        0.67095       -153.20        
386.7400      1.00297       -140.01       1.891E-4      -49.98        2.705E-4      -64.28        0.67278       -153.34        
389.7300      1.00393       -139.65       1.471E-4      -41.78        8.721E-5      -11.78        0.67461       -153.43        
392.7200      1.0046        -139.27       1.635E-4      -52.44        1.408E-4      -68.12        0.67599       -153.54        
395.7100      1.00464       -138.88       1.196E-4      -78.23        4.362E-5      -153.80       0.67719       -153.63        
398.7000      1.00453       -138.51       7.592E-5      -50.64        2.318E-4      -45.16        0.6781        -153.75        
401.6900      1.00431       -138.15       6.967E-5      -45.19        1.52E-4       -37.74        0.67862       -153.89        
404.6800      1.00415       -137.79       8.671E-5      -52.22        6.445E-5      -8.40         0.67886       -154.07        
407.6700      1.00419       -137.42       1.098E-4      -65.44        1.278E-4      -18.65        0.67888       -154.27        
410.6600      1.00418       -137.05       1.338E-4      -35.73        1.393E-4      33.49         0.67883       -154.50        
413.6500      1.00374       -136.69       7.459E-5      -41.79        7.826E-5      29.33         0.67908       -154.74        
416.6400      1.00268       -136.33       1.366E-4      -24.88        1.441E-4      -16.17        0.67932       -154.99        
419.6300      1.00143       -135.99       1.425E-4      -44.32        1.025E-4      1.81          0.6797        -155.30        
422.6200      0.99981       -135.67       9.759E-5      -49.05        1.015E-4      -88.13        0.67999       -155.63        
425.6100      0.99834       -135.37       1.326E-4      -48.05        2.064E-4      -43.49        0.68032       -156.00        
428.6000      0.99728       -135.09       1.903E-4      -20.24        1.809E-4      -41.81        0.68059       -156.38        
431.5900      0.99692       -134.80       1.856E-4      -61.63        9.265E-5      -65.47        0.68095       -156.78        
434.5800      0.99749       -134.51       1.477E-4      -67.98        8.352E-5      -114.67       0.6813        -157.18        
437.5700      0.9983        -134.21       1.616E-4      -51.86        1.636E-4      -19.12        0.68204       -157.55        
440.5600      0.99899       -133.89       1.429E-4      -60.21        1.898E-4      -107.83       0.68281       -157.91        
443.5500      0.99958       -133.56       1.274E-4      -79.72        2.123E-4      -91.86        0.68415       -158.21        
446.5400      1.00002       -133.22       1.396E-4      -85.20        1.37E-4       -66.45        0.6855        -158.45        
449.5300      1.00015       -132.87       1.175E-4      -51.29        9.271E-5      -40.03        0.68663       -158.63        
452.5200      1.00012       -132.52       1.138E-4      -103.09       1.982E-4      -90.89        0.6876        -158.77        
455.5100      1.00008       -132.18       1.02E-4       -94.85        1.068E-4      -60.90        0.68829       -158.89        
458.5000      1.00015       -131.83       5.302E-5      -106.55       2.188E-4      -65.14        0.68925       -158.99        
461.4900      1.00028       -131.48       1.733E-4      -85.61        1.314E-4      -117.68       0.69004       -159.08        
464.4800      1.001         -131.09       2.256E-5      -111.08       9.897E-5      -101.86       0.6908        -159.16        
467.4700      1.00095       -130.69       1.183E-4      -98.48        1.72E-4       -75.55        0.69151       -159.24        
470.4600      1.00056       -130.27       6.161E-5      -145.62       4.589E-5      -79.77        0.69201       -159.33        
473.4500      0.99944       -129.88       7.162E-5      -132.53       9.303E-5      166.62        0.69251       -159.42        
476.4400      0.99839       -129.53       3.807E-5      -156.48       1.194E-4      121.35        0.69239       -159.54        
479.4300      0.99758       -129.22       4.994E-6      100.18        7.102E-5      33.72         0.69218       -159.70        
482.4200      0.99678       -128.93       4.062E-5      -115.85       3.983E-5      -119.75       0.69171       -159.91        
485.4100      0.99674       -128.65       6.029E-5      -106.61       7.09E-5       166.97        0.69094       -160.16        
488.4000      0.99694       -128.36       5.161E-5      -74.90        4.545E-5      -25.65        0.68995       -160.47        
491.3900      0.99745       -128.07       3.456E-5      135.16        6.048E-5      93.86         0.68904       -160.83        
494.3800      0.99772       -127.75       7.707E-5      -56.80        9.453E-5      -137.88       0.68813       -161.24        
497.3700      0.99771       -127.43       5.184E-5      -126.99       1.486E-4      -52.18        0.68744       -161.68        
500.3600      0.99733       -127.09       1.041E-5      -116.92       9.531E-5      -113.43       0.68708       -162.13        
503.3500      0.99689       -126.77       7.639E-5      -104.66       6.666E-5      -84.24        0.68707       -162.57        
506.3400      0.99613       -126.46       6.013E-5      -59.53        5.515E-5      -34.52        0.68708       -162.99        
509.3300      0.99551       -126.14       8.492E-5      -100.42       1.083E-4      -92.73        0.68707       -163.39        
512.3200      0.99517       -125.82       7.655E-5      -134.17       1.419E-4      -48.93        0.6872        -163.76        
515.3100      0.99516       -125.47       7.81E-5       -96.47        6.335E-5      -59.70        0.68772       -164.13        
518.3000      0.99518       -125.08       7.828E-5      -106.54       1.043E-4      -116.61       0.68848       -164.47        
521.2900      0.99484       -124.68       5.255E-5      -134.63       1.19E-4       -93.09        0.68984       -164.75        
524.2800      0.99383       -124.28       3.92E-5       -164.41       1.058E-4      -135.56       0.69132       -164.97        
527.2700      0.99266       -123.89       6.686E-5      108.33        4.324E-5      46.19         0.69292       -165.14        
530.2600      0.9916        -123.54       6.009E-5      12.03         2.236E-5      -76.13        0.69461       -165.25        
533.2500      0.99093       -123.22       1.701E-5      -116.88       6.808E-5      66.07         0.69622       -165.31        
536.2400      0.99037       -122.93       9.645E-5      -171.85       1.096E-4      -1.81         0.69761       -165.33        
539.2300      0.99046       -122.64       8.225E-5      149.54        9.546E-5      127.25        0.69857       -165.31        
542.2200      0.99086       -122.33       5.405E-5      26.53         5.517E-5      79.74         0.69932       -165.30        
545.2100      0.99132       -122.01       3.158E-5      15.47         1.209E-4      25.33         0.69968       -165.27        
548.2000      0.99156       -121.68       3.50E-5       48.36         1.541E-4      96.19         0.69961       -165.26        
551.1900      0.99157       -121.35       1.151E-4      37.23         7.798E-5      89.51         0.69941       -165.25        
554.1800      0.99078       -121.00       1.181E-4      -0.35         1.136E-4      60.44         0.69895       -165.27        
557.1700      0.98973       -120.66       1.411E-4      18.21         1.175E-4      -56.92        0.69834       -165.30        
560.1600      0.98834       -120.35       1.64E-4       21.21         1.622E-4      19.05         0.69749       -165.34        
563.1500      0.98698       -120.04       2.009E-4      6.71          1.497E-4      5.67          0.69639       -165.41        
566.1400      0.98623       -119.70       1.324E-4      -22.60        2.533E-4      -13.42        0.69506       -165.51        
569.1300      0.98544       -119.33       1.51E-4       -28.55        2.307E-4      -39.88        0.69363       -165.65        
572.1200      0.9847        -118.94       2.165E-4      -34.89        1.904E-4      -35.41        0.69193       -165.81        
575.1100      0.98396       -118.54       1.832E-4      -5.53         1.863E-4      -70.35        0.69044       -166.01        
578.1000      0.98302       -118.16       2.727E-4      -37.13        2.555E-4      -22.95        0.68943       -166.23        
581.0900      0.98148       -117.80       2.131E-4      -41.82        2.181E-4      -26.86        0.68894       -166.46        
584.0800      0.9801        -117.48       2.594E-4      -47.90        3.707E-4      -33.47        0.68867       -166.65        
587.0700      0.97918       -117.19       2.276E-4      -50.71        2.465E-4      -43.24        0.68867       -166.81        
590.0600      0.97897       -116.90       2.715E-4      -62.29        2.576E-4      -62.06        0.68902       -166.97        
593.0500      0.97901       -116.62       2.793E-4      -65.31        2.246E-4      -75.54        0.68953       -167.11        
596.0400      0.97946       -116.31       2.203E-4      -73.77        3.292E-4      -65.43        0.6902        -167.21        
599.0300      0.98027       -115.98       2.725E-4      -68.52        2.357E-4      -81.31        0.69078       -167.29        
602.0200      0.98092       -115.64       2.817E-4      -78.62        2.404E-4      -72.06        0.69138       -167.35        
605.0100      0.98142       -115.31       2.52E-4       -87.02        2.605E-4      -79.07        0.69208       -167.40        
608.0000      0.98156       -114.97       1.934E-4      -76.89        2.516E-4      -110.30       0.69261       -167.44        
610.9900      0.9814        -114.66       2.896E-4      -82.78        3.67E-4       -86.52        0.69312       -167.46        
613.9800      0.98086       -114.37       2.208E-4      -67.91        2.493E-4      -91.81        0.69359       -167.47        
616.9700      0.98023       -114.09       3.098E-4      -93.30        2.475E-4      -104.25       0.69359       -167.48        
619.9600      0.97967       -113.81       3.121E-4      -76.11        3.452E-4      -106.15       0.69323       -167.48        
622.9500      0.97881       -113.52       3.27E-4       -90.35        3.643E-4      -101.22       0.6926        -167.49        
625.9400      0.97747       -113.21       2.639E-4      -90.04        3.792E-4      -101.95       0.69165       -167.55        
628.9300      0.97583       -112.92       2.671E-4      -104.86       3.924E-4      -106.22       0.69055       -167.62        
631.9200      0.97374       -112.63       2.999E-4      -92.93        3.292E-4      -118.59       0.68906       -167.72        
634.9100      0.97121       -112.36       2.876E-4      -99.02        4.005E-4      -117.84       0.68779       -167.86        
637.9000      0.96864       -112.13       3.499E-4      -107.83       3.359E-4      -111.03       0.68666       -168.04        
640.8900      0.9665        -111.93       3.245E-4      -115.08       3.894E-4      -114.16       0.68578       -168.24        
643.8800      0.96458       -111.74       3.002E-4      -111.71       4.067E-4      -105.61       0.685         -168.43        
646.8700      0.96305       -111.53       4.142E-4      -115.39       4.779E-4      -102.14       0.68457       -168.61        
649.8600      0.96195       -111.33       3.373E-4      -105.75       3.649E-4      -100.15       0.68423       -168.81        
652.8500      0.96095       -111.11       4.087E-4      -103.27       3.808E-4      -100.13       0.68424       -168.99        
655.8400      0.95982       -110.88       4.519E-4      -106.52       4.122E-4      -111.73       0.68429       -169.17        
658.8300      0.95835       -110.64       4.661E-4      -112.49       5.227E-4      -117.96       0.68462       -169.32        
661.8200      0.95662       -110.39       5.75E-4       -109.99       6.49E-4       -114.39       0.68515       -169.46        
664.8100      0.95489       -110.13       5.913E-4      -117.36       6.084E-4      -110.71       0.68599       -169.58        
667.8000      0.95275       -109.87       6.076E-4      -116.21       8.107E-4      -119.84       0.68687       -169.66        
670.7900      0.95061       -109.60       6.818E-4      -125.91       7.338E-4      -117.80       0.68776       -169.71        
673.7800      0.94826       -109.29       7.541E-4      -127.98       8.184E-4      -126.79       0.68871       -169.73        
676.7700      0.94583       -108.96       8.276E-4      -136.69       7.846E-4      -135.96       0.68937       -169.73        
679.7600      0.9432        -108.59       8.315E-4      -142.49       8.535E-4      -140.80       0.68973       -169.71        
682.7500      0.94074       -108.23       9.005E-4      -146.51       8.669E-4      -146.26       0.68968       -169.70        
685.7400      0.93911       -107.87       8.097E-4      -153.48       9.06E-4       -147.20       0.68954       -169.70        
688.7300      0.9388        -107.68       7.65E-4       -153.11       7.292E-4      -148.87       0.68907       -169.72        
691.7200      0.93432       -107.91       8.437E-4      -145.15       8.072E-4      -147.45       0.68845       -169.75        
694.7100      0.92261       -107.70       1.047E-3      -145.56       1.026E-3      -150.37       0.68764       -169.83        
697.7000      0.91682       -107.25       1.156E-3      -159.00       1.168E-3      -159.24       0.68656       -169.95        
700.6900      0.91333       -106.90       1.201E-3      -168.70       1.075E-3      -166.48       0.68569       -170.09        
703.6800      0.9105        -106.61       1.18E-3       -176.58       1.225E-3      -176.15       0.6847        -170.25        
706.6700      0.90812       -106.35       1.216E-3      179.52        1.083E-3      179.25        0.68381       -170.42        
709.6600      0.90583       -106.13       1.14E-3       173.77        1.225E-3      173.51        0.68306       -170.61        
712.6500      0.90333       -105.94       1.145E-3      172.26        1.043E-3      166.66        0.68242       -170.81        
715.6400      0.90066       -105.79       1.183E-3      167.65        1.12E-3       167.27        0.68208       -171.03        
718.6300      0.89792       -105.64       1.151E-3      163.85        1.141E-3      166.05        0.68215       -171.22        
721.6200      0.89503       -105.49       1.121E-3      161.47        1.238E-3      161.58        0.68269       -171.41        
724.6100      0.89164       -105.31       1.164E-3      159.83        1.144E-3      158.50        0.68377       -171.56        
727.6000      0.88792       -105.10       1.224E-3      154.22        1.206E-3      158.94        0.68509       -171.66        
730.5900      0.88353       -104.85       1.248E-3      152.65        1.273E-3      153.89        0.68655       -171.73        
733.5800      0.87863       -104.59       1.323E-3      149.71        1.368E-3      149.83        0.68807       -171.76        
736.5700      0.87298       -104.29       1.278E-3      147.17        1.353E-3      149.43        0.68956       -171.74        
739.5600      0.86681       -103.96       1.375E-3      145.34        1.418E-3      143.92        0.69067       -171.70        
742.5500      0.86034       -103.64       1.414E-3      142.37        1.343E-3      140.91        0.69164       -171.63        
745.5400      0.8538        -103.31       1.47E-3       138.35        1.497E-3      140.00        0.69241       -171.55        
748.5300      0.84704       -102.99       1.558E-3      134.41        1.612E-3      133.75        0.6929        -171.45        
751.5200      0.84075       -102.66       1.651E-3      129.39        1.58E-3       131.85        0.69322       -171.36        
754.5100      0.834         -102.34       1.684E-3      124.41        1.736E-3      128.00        0.69298       -171.28        
757.5000      0.82682       -102.04       1.707E-3      119.96        1.777E-3      120.60        0.69235       -171.22        
760.4900      0.8192        -101.71       1.718E-3      115.36        1.704E-3      116.65        0.69147       -171.19        
763.4800      0.81193       -101.34       1.735E-3      108.77        1.82E-3       110.58        0.69035       -171.20        
766.4700      0.80512       -100.99       1.754E-3      108.64        1.82E-3       105.93        0.68887       -171.24        
769.4600      0.79858       -100.66       1.771E-3      102.87        1.693E-3      104.82        0.68751       -171.34        
772.4500      0.79273       -100.31       1.922E-3      98.43         1.898E-3      97.43         0.686         -171.51        
775.4400      0.78731       -99.96        1.869E-3      95.10         1.952E-3      94.46         0.68468       -171.73        
778.4300      0.78198       -99.59        1.912E-3      90.63         1.955E-3      91.76         0.68373       -171.98        
781.4200      0.77724       -99.21        1.97E-3       87.12         1.93E-3       88.14         0.6832        -172.24        
784.4100      0.77223       -98.81        1.987E-3      84.23         1.952E-3      85.50         0.68317       -172.50        
787.4000      0.76708       -98.38        2.081E-3      78.41         2.11E-3       80.03         0.68323       -172.77        
790.3900      0.76155       -97.95        2.115E-3      72.45         2.059E-3      72.69         0.68362       -173.00        
793.3800      0.75569       -97.51        2.02E-3       70.29         2.019E-3      72.40         0.68422       -173.22        
796.3700      0.75          -97.04        2.186E-3      67.21         2.044E-3      67.24         0.68508       -173.42        
799.3600      0.74442       -96.57        2.107E-3      61.71         2.047E-3      63.56         0.68614       -173.56        
802.3500      0.73877       -96.09        2.15E-3       58.71         2.07E-3       59.35         0.68741       -173.67        
805.3400      0.73311       -95.58        2.187E-3      55.60         2.165E-3      55.75         0.68884       -173.72        
808.3300      0.72718       -95.04        2.162E-3      50.42         2.138E-3      51.88         0.69041       -173.73        
811.3200      0.72115       -94.50        2.184E-3      47.39         2.253E-3      48.14         0.69184       -173.72        
814.3100      0.71512       -93.95        2.19E-3       42.31         2.218E-3      43.66         0.69305       -173.63        
817.3000      0.70916       -93.44        2.26E-3       39.57         2.234E-3      40.25         0.6936        -173.52        
820.2900      0.70345       -92.98        2.361E-3      33.77         2.254E-3      37.12         0.69378       -173.39        
823.2800      0.69755       -92.58        2.289E-3      32.03         2.346E-3      32.42         0.69352       -173.28        
826.2700      0.69146       -92.22        2.286E-3      27.96         2.337E-3      27.56         0.69307       -173.20        
829.2600      0.68502       -91.84        2.421E-3      23.94         2.433E-3      23.59         0.69239       -173.17        
832.2500      0.67811       -91.45        2.39E-3       20.04         2.435E-3      21.23         0.69145       -173.17        
835.2400      0.67089       -90.98        2.416E-3      16.69         2.508E-3      16.87         0.69029       -173.21        
838.2300      0.66332       -90.43        2.411E-3      12.63         2.494E-3      10.92         0.6891        -173.29        
841.2200      0.65617       -89.77        2.465E-3      7.70          2.554E-3      7.85          0.68785       -173.40        
844.2100      0.64942       -89.03        2.475E-3      2.62          2.58E-3       5.62          0.68667       -173.56        
847.2000      0.64368       -88.23        2.524E-3      -1.02         2.51E-3       -0.84         0.68556       -173.76        
850.1900      0.63886       -87.42        2.436E-3      -6.54         2.336E-3      -7.43         0.68436       -173.98        
853.1800      0.63506       -86.52        2.542E-3      -9.31         2.465E-3      -9.97         0.68341       -174.23        
856.1700      0.63253       -85.56        2.517E-3      -14.60        2.461E-3      -12.93        0.68277       -174.51        
859.1600      0.63148       -84.58        2.431E-3      -18.65        2.465E-3      -17.08        0.6826        -174.79        
862.1500      0.63156       -83.67        2.369E-3      -22.49        2.372E-3      -21.76        0.68299       -175.07        
865.1400      0.63239       -82.86        2.386E-3      -26.84        2.349E-3      -25.23        0.68392       -175.30        
868.1300      0.63305       -82.16        2.347E-3      -27.81        2.316E-3      -28.72        0.68517       -175.49        
871.1200      0.63326       -81.59        2.272E-3      -30.20        2.276E-3      -30.34        0.68681       -175.63        
874.1100      0.63265       -81.15        2.255E-3      -34.86        2.235E-3      -34.13        0.68817       -175.71        
877.1000      0.63124       -80.78        2.22E-3       -37.01        2.176E-3      -36.09        0.68934       -175.72        
880.0900      0.62932       -80.47        2.155E-3      -38.76        2.30E-3       -39.24        0.69022       -175.70        
883.0800      0.62686       -80.20        2.191E-3      -39.74        2.198E-3      -39.39        0.69099       -175.68        
886.0700      0.62392       -79.97        2.238E-3      -43.03        2.177E-3      -40.44        0.69168       -175.63        
889.0600      0.62035       -79.77        2.21E-3       -45.49        2.263E-3      -43.55        0.69228       -175.56        
892.0500      0.61627       -79.61        2.338E-3      -46.74        2.337E-3      -46.32        0.69276       -175.48        
895.0400      0.61137       -79.51        2.366E-3      -47.83        2.271E-3      -45.94        0.69281       -175.37        
898.0300      0.60595       -79.44        2.41E-3       -50.74        2.447E-3      -50.59        0.69251       -175.26        
901.0200      0.60003       -79.40        2.472E-3      -53.78        2.503E-3      -52.33        0.69189       -175.16        
904.0100      0.59388       -79.34        2.495E-3      -57.65        2.461E-3      -56.66        0.69104       -175.09        
907.0000      0.58739       -79.25        2.554E-3      -59.22        2.604E-3      -58.55        0.68999       -175.06        
909.9900      0.58061       -79.11        2.66E-3       -62.62        2.615E-3      -60.17        0.6887        -175.08        
912.9800      0.57345       -78.90        2.744E-3      -64.43        2.653E-3      -65.13        0.68722       -175.14        
915.9700      0.56536       -78.64        2.854E-3      -67.98        2.75E-3       -66.68        0.68577       -175.25        
918.9600      0.55644       -78.29        2.88E-3       -70.19        2.896E-3      -70.62        0.68475       -175.43        
921.9500      0.54578       -77.77        3.075E-3      -73.44        3.057E-3      -72.82        0.68411       -175.63        
924.9400      0.53438       -76.87        3.31E-3       -80.59        3.152E-3      -80.29        0.68404       -175.82        
927.9300      0.52633       -75.62        3.303E-3      -84.98        3.283E-3      -86.53        0.68419       -176.02        
930.9200      0.5216        -74.48        3.264E-3      -89.11        3.344E-3      -89.06        0.68455       -176.20        
933.9100      0.51712       -73.61        3.321E-3      -94.63        3.284E-3      -93.75        0.68502       -176.37        
936.9000      0.5116        -72.82        3.337E-3      -98.63        3.332E-3      -97.87        0.68544       -176.51        
939.8900      0.50522       -71.97        3.358E-3      -102.06       3.458E-3      -102.21       0.68595       -176.63        
942.8800      0.49825       -71.09        3.387E-3      -106.83       3.303E-3      -106.13       0.68698       -176.75        
945.8700      0.49102       -70.16        3.419E-3      -110.80       3.371E-3      -109.48       0.68824       -176.84        
948.8600      0.48379       -69.20        3.526E-3      -115.91       3.384E-3      -114.43       0.68953       -176.89        
951.8500      0.47691       -68.21        3.526E-3      -119.70       3.521E-3      -117.96       0.6909        -176.90        
954.8400      0.47043       -67.21        3.493E-3      -124.54       3.621E-3      -123.31       0.69217       -176.85        
957.8300      0.46456       -66.20        3.431E-3      -127.59       3.586E-3      -129.24       0.69284       -176.78        
960.8200      0.45939       -65.17        3.507E-3      -132.81       3.569E-3      -130.18       0.69325       -176.67        
963.8100      0.45504       -64.13        3.546E-3      -137.56       3.446E-3      -136.75       0.69316       -176.59        
966.8000      0.45139       -63.07        3.568E-3      -141.93       3.612E-3      -141.82       0.69297       -176.50        
969.7900      0.44815       -61.99        3.561E-3      -144.99       3.508E-3      -145.60       0.6922        -176.46        
972.7800      0.44548       -60.84        3.51E-3       -149.82       3.628E-3      -148.64       0.6911        -176.43        
975.7700      0.44358       -59.64        3.541E-3      -153.25       3.698E-3      -152.57       0.68979       -176.45        
978.7600      0.44239       -58.40        3.562E-3      -157.30       3.609E-3      -156.21       0.68838       -176.52        
981.7500      0.44223       -57.12        3.60E-3       -162.36       3.631E-3      -159.85       0.68715       -176.63        
984.7400      0.44295       -55.87        3.572E-3      -164.93       3.631E-3      -163.53       0.68627       -176.76        
987.7300      0.44427       -54.67        3.54E-3       -168.83       3.533E-3      -169.00       0.68534       -176.90        
990.7200      0.44577       -53.50        3.536E-3      -172.85       3.577E-3      -172.36       0.68449       -177.08        
993.7100      0.44732       -52.39        3.443E-3      -178.08       3.542E-3      -175.97       0.68375       -177.28        
996.7000      0.44899       -51.27        3.432E-3      177.81        3.57E-3       179.40        0.68324       -177.51        
999.6900      0.4507        -50.22        3.404E-3      174.16        3.488E-3      173.33        0.68314       -177.74        
1002.6800     0.4527        -49.24        3.391E-3      171.39        3.361E-3      171.23        0.68362       -177.99        
1005.6700     0.45486       -48.35        3.303E-3      165.45        3.237E-3      167.89        0.68434       -178.21        
1008.6600     0.45741       -47.61        3.29E-3       163.75        3.248E-3      163.56        0.68536       -178.42        
1011.6500     0.46007       -47.04        3.197E-3      160.32        3.12E-3       159.49        0.68678       -178.59        
1014.6400     0.46243       -46.64        3.204E-3      157.49        3.15E-3       157.63        0.68815       -178.71        
1017.6300     0.46457       -46.41        3.10E-3       154.54        3.111E-3      153.83        0.68939       -178.77        
1020.6200     0.46579       -46.30        3.152E-3      151.40        3.124E-3      152.68        0.69051       -178.80        
1023.6100     0.46662       -46.31        3.059E-3      148.22        3.172E-3      148.80        0.69132       -178.80        
1026.6000     0.46679       -46.42        3.179E-3      146.81        3.054E-3      146.37        0.69203       -178.78        
1029.5900     0.46649       -46.58        3.09E-3       143.34        2.924E-3      141.01        0.69259       -178.76        
1032.5800     0.46534       -46.83        3.039E-3      140.12        3.007E-3      140.57        0.69272       -178.71        
1035.5700     0.46342       -47.12        3.058E-3      138.81        3.141E-3      139.00        0.69263       -178.67        
1038.5600     0.46043       -47.50        3.063E-3      132.46        3.224E-3      136.46        0.69214       -178.61        
1041.5500     0.4551        -47.99        3.131E-3      130.46        3.074E-3      130.93        0.69184       -178.60        
1044.5400     0.44458       -48.51        3.103E-3      125.60        3.305E-3      127.09        0.69151       -178.58        
1047.5300     0.42743       -47.91        3.057E-3      126.24        3.11E-3       125.21        0.69074       -178.59        
1050.5200     0.41986       -45.98        3.137E-3      122.66        3.072E-3      121.41        0.69          -178.62        
1053.5100     0.41854       -44.92        3.156E-3      117.94        3.219E-3      119.29        0.68905       -178.69        
1056.5000     0.4145        -44.28        3.265E-3      116.09        3.266E-3      119.53        0.68842       -178.75        
1059.4900     0.40846       -43.54        3.344E-3      114.74        3.43E-3       112.35        0.68772       -178.86        
1062.4800     0.40156       -42.69        3.371E-3      109.31        3.384E-3      111.24        0.68752       -179.00        
1065.4700     0.3946        -41.69        3.492E-3      106.87        3.515E-3      109.28        0.68759       -179.12        
1068.4600     0.38744       -40.57        3.571E-3      103.46        3.646E-3      103.16        0.68796       -179.25        
1071.4500     0.38081       -39.36        3.588E-3      98.04         3.515E-3      96.95         0.68858       -179.35        
1074.4400     0.37448       -38.04        3.60E-3       96.10         3.636E-3      91.36         0.68949       -179.43        
1077.4300     0.36898       -36.63        3.621E-3      89.34         3.581E-3      91.77         0.6904        -179.47        
1080.4200     0.36452       -35.21        3.641E-3      86.14         3.633E-3      87.50         0.69122       -179.47        
1083.4100     0.36119       -33.77        3.673E-3      81.75         3.678E-3      81.33         0.69217       -179.44        
1086.4000     0.3592        -32.36        3.707E-3      75.02         3.711E-3      78.20         0.69309       -179.40        
1089.3900     0.35809       -31.04        3.722E-3      72.94         3.772E-3      74.15         0.6938        -179.33        
1092.3800     0.35765       -29.76        3.793E-3      69.83         3.797E-3      68.05         0.69449       -179.24        
1095.3700     0.35775       -28.58        3.708E-3      64.55         3.801E-3      64.14         0.69471       -179.12        
1098.3600     0.35828       -27.44        3.644E-3      61.27         3.643E-3      59.85         0.69474       -179.01        
1101.3500     0.35924       -26.29        3.64E-3       55.12         3.797E-3      55.10         0.69423       -178.88        
1104.3400     0.36063       -25.16        3.758E-3      50.13         3.707E-3      50.94         0.69354       -178.78        
1107.3300     0.36196       -24.07        3.658E-3      47.12         3.685E-3      46.23         0.69237       -178.71        
1110.3200     0.36345       -23.02        3.659E-3      42.85         3.675E-3      44.00         0.69101       -178.67        
1113.3100     0.36487       -22.00        3.565E-3      36.36         3.60E-3       38.00         0.6893        -178.68        
1116.3000     0.36604       -20.95        3.615E-3      34.72         3.534E-3      36.23         0.68756       -178.75        
1119.2900     0.36672       -19.91        3.554E-3      29.57         3.603E-3      31.10         0.68575       -178.85        
1122.2800     0.36743       -18.85        3.516E-3      26.86         3.514E-3      26.22         0.68435       -178.98        
1125.2700     0.36788       -17.74        3.563E-3      21.06         3.393E-3      23.78         0.68308       -179.20        
1128.2600     0.36817       -16.63        3.469E-3      17.42         3.404E-3      19.44         0.682         -179.42        
1131.2500     0.3684        -15.56        3.343E-3      14.27         3.424E-3      14.11         0.68116       -179.69        
1134.2400     0.36888       -14.49        3.329E-3      10.02         3.341E-3      10.10         0.68076       -179.97        
1137.2300     0.36952       -13.48        3.307E-3      6.19          3.368E-3      7.63          0.68074       179.77         
1140.2200     0.37017       -12.51        3.226E-3      2.92          3.284E-3      2.45          0.68103       179.51         
1143.2100     0.37096       -11.55        3.167E-3      -0.07         3.201E-3      1.06          0.68164       179.30         
1146.2000     0.37193       -10.60        3.193E-3      -4.06         3.289E-3      -2.50         0.68259       179.08         
1149.1900     0.37341       -9.72         3.099E-3      -5.59         3.154E-3      -6.94         0.68417       178.92         
1152.1800     0.37543       -8.84         3.216E-3      -10.41        3.192E-3      -11.20        0.68562       178.82         
1155.1700     0.37801       -8.05         3.131E-3      -15.94        3.214E-3      -13.83        0.68691       178.77         
1158.1600     0.38106       -7.30         3.158E-3      -17.72        3.16E-3       -17.59        0.68789       178.80         
1161.1500     0.38438       -6.63         3.21E-3       -22.01        3.144E-3      -21.71        0.6886        178.88         
1164.1400     0.38797       -6.01         3.201E-3      -25.68        3.169E-3      -25.01        0.68911       178.95         
1167.1300     0.39177       -5.45         3.077E-3      -29.96        3.146E-3      -27.50        0.68933       179.06         
1170.1200     0.39581       -4.94         3.285E-3      -33.49        3.108E-3      -32.93        0.68916       179.17         
1173.1100     0.39924       -4.47         3.129E-3      -37.14        3.159E-3      -35.09        0.68857       179.28         
1176.1000     0.40269       -4.06         3.128E-3      -42.13        3.119E-3      -40.77        0.6875        179.38         
1179.0900     0.4057        -3.62         3.034E-3      -43.57        3.083E-3      -44.43        0.68618       179.47         
1182.0800     0.40844       -3.26         3.039E-3      -47.75        3.031E-3      -46.58        0.68471       179.50         
1185.0700     0.41082       -2.91         3.144E-3      -53.68        3.058E-3      -51.99        0.683         179.48         
1188.0600     0.41277       -2.61         3.119E-3      -56.74        3.038E-3      -55.17        0.68111       179.42         
1191.0500     0.41418       -2.32         3.093E-3      -60.36        3.032E-3      -60.30        0.67915       179.28         
1194.0400     0.41514       -2.04         3.019E-3      -65.79        3.12E-3       -63.96        0.67738       179.09         
1197.0300     0.41558       -1.77         2.987E-3      -70.41        3.046E-3      -69.52        0.67583       178.84         
1200.0200     0.41568       -1.59         3.052E-3      -74.81        3.106E-3      -74.22        0.67468       178.57         
1203.0100     0.4154        -1.40         3.065E-3      -79.44        2.978E-3      -75.57        0.67375       178.28         
1206.0000     0.41461       -1.29         3.051E-3      -83.95        2.958E-3      -82.86        0.67362       177.98         
1208.9900     0.4131        -1.21         2.925E-3      -88.28        2.989E-3      -88.89        0.67413       177.67         
1211.9800     0.41113       -1.15         2.924E-3      -93.48        2.974E-3      -90.90        0.67499       177.39         
1214.9700     0.40857       -1.09         2.888E-3      -97.16        2.831E-3      -95.55        0.67602       177.19         
1217.9600     0.4055        -0.98         2.82E-3       -100.28       2.932E-3      -102.00       0.67741       177.04         
1220.9500     0.40171       -0.83         2.80E-3       -108.66       2.774E-3      -105.16       0.67873       176.95         
1223.9400     0.39782       -0.61         2.775E-3      -111.70       2.599E-3      -108.77       0.68028       176.89         
1226.9300     0.39344       -0.28         2.629E-3      -115.96       2.67E-3       -115.64       0.682         176.91         
1229.9200     0.38855       0.12          2.545E-3      -119.46       2.578E-3      -118.56       0.68346       177.00         
1232.9100     0.38337       0.60          2.465E-3      -125.30       2.494E-3      -121.89       0.68459       177.14         
1235.9000     0.3775        1.25          2.528E-3      -128.28       2.51E-3       -126.95       0.68544       177.33         
1238.8900     0.37166       2.09          2.35E-3       -133.93       2.382E-3      -132.63       0.68568       177.55         
1241.8800     0.36596       3.12          2.27E-3       -136.70       2.307E-3      -135.78       0.68546       177.79         
1244.8700     0.36055       4.35          2.328E-3      -142.39       2.363E-3      -140.23       0.68476       178.02         
1247.8600     0.35591       5.75          2.235E-3      -145.39       2.218E-3      -145.08       0.68348       178.23         
1250.8500     0.35228       7.33          2.213E-3      -150.67       2.226E-3      -148.85       0.68183       178.40         
1253.8400     0.34961       9.02          2.05E-3       -153.44       2.275E-3      -153.00       0.67954       178.48         
1256.8300     0.348         10.75         2.12E-3       -158.71       2.068E-3      -157.25       0.67716       178.51         
1259.8200     0.34774       12.47         2.005E-3      -159.74       1.961E-3      -160.98       0.67464       178.48         
1262.8100     0.34822       14.12         2.068E-3      -165.65       1.934E-3      -166.36       0.67226       178.39         
1265.8000     0.34967       15.72         1.872E-3      -169.12       1.852E-3      -172.33       0.6701        178.22         
1268.7900     0.35203       17.23         1.87E-3       -175.62       1.819E-3      -175.73       0.66831       177.96         
1271.7800     0.35524       18.63         1.771E-3      -179.91       1.699E-3      -179.12       0.66715       177.65         
1274.7700     0.35892       19.88         1.789E-3      179.39        1.638E-3      178.09        0.66637       177.31         
1277.7600     0.36305       21.06         1.61E-3       178.06        1.599E-3      176.46        0.666         176.97         
1280.7500     0.36733       22.12         1.61E-3       173.10        1.611E-3      167.42        0.66593       176.64         
1283.7400     0.37164       23.09         1.481E-3      167.09        1.522E-3      165.24        0.66661       176.33         
1286.7300     0.37592       24.00         1.457E-3      159.13        1.385E-3      166.88        0.66774       176.04         
1289.7200     0.38011       24.82         1.411E-3      161.86        1.407E-3      158.87        0.66938       175.81         
1292.7100     0.38434       25.62         1.313E-3      159.70        1.311E-3      157.83        0.67123       175.69         
1295.7000     0.38847       26.39         1.40E-3       157.94        1.307E-3      154.11        0.67287       175.61         
1298.6900     0.3927        27.11         1.252E-3      151.41        1.308E-3      151.25        0.67455       175.62         
1301.6800     0.39707       27.80         1.29E-3       149.58        1.238E-3      144.87        0.67596       175.72         
1304.6700     0.4014        28.45         1.163E-3      146.42        1.204E-3      148.47        0.67704       175.88         
1307.6600     0.4057        29.04         1.165E-3      144.75        1.106E-3      142.96        0.67756       176.09         
1310.6500     0.40955       29.63         1.189E-3      141.97        1.06E-3       143.50        0.67756       176.32         
1313.6400     0.4132        30.21         1.109E-3      140.73        1.08E-3       136.51        0.67686       176.55         
1316.6300     0.41728       30.78         1.143E-3      139.38        1.052E-3      135.03        0.67569       176.76         
1319.6200     0.42137       31.30         1.041E-3      137.55        1.023E-3      133.94        0.67404       176.96         
1322.6100     0.42572       31.77         1.073E-3      137.30        1.022E-3      133.83        0.67207       177.14         
1325.6000     0.43001       32.16         1.016E-3      129.88        9.016E-4      128.86        0.66965       177.24         
1328.5900     0.43328       32.43         9.658E-4      130.27        1.002E-3      125.33        0.66724       177.25         
1331.5800     0.4362        32.85         1.027E-3      130.47        9.608E-4      123.62        0.66489       177.16         
1334.5700     0.43965       33.23         1.067E-3      120.35        9.726E-4      118.90        0.66263       177.00         
1337.5600     0.44278       33.53         1.058E-3      119.71        9.172E-4      117.46        0.66039       176.81         
1340.5500     0.44431       33.82         9.599E-4      114.04        9.503E-4      110.42        0.65853       176.53         
1343.5400     0.44585       34.28         9.931E-4      108.55        9.882E-4      108.37        0.65721       176.20         
1346.5300     0.44809       34.74         9.166E-4      101.75        9.684E-4      98.64         0.65661       175.85         
1349.5200     0.45022       35.17         9.145E-4      99.16         9.142E-4      99.01         0.65691       175.48         
1352.5100     0.4522        35.55         9.395E-4      97.42         8.75E-4       95.70         0.65767       175.13         
1355.5000     0.45409       35.90         7.976E-4      96.16         8.588E-4      90.44         0.659         174.82         
1358.4900     0.45567       36.23         6.984E-4      94.61         8.201E-4      90.34         0.66052       174.59         
1361.4800     0.45689       36.56         8.23E-4       88.99         8.241E-4      87.07         0.66239       174.43         
1364.4700     0.45788       36.89         7.916E-4      88.04         8.264E-4      79.25         0.66437       174.35         
1367.4600     0.4584        37.25         7.526E-4      87.16         9.121E-4      79.37         0.66617       174.36         
1370.4500     0.45897       37.60         7.214E-4      79.33         8.888E-4      80.05         0.6676        174.43         
1373.4400     0.45949       37.98         7.495E-4      76.99         8.098E-4      71.16         0.6687        174.57         
1376.4300     0.46008       38.38         7.301E-4      78.19         7.916E-4      72.83         0.66937       174.75         
1379.4200     0.46091       38.81         8.212E-4      74.25         7.789E-4      70.05         0.66954       175.00         
1382.4100     0.46186       39.24         8.263E-4      68.36         7.382E-4      69.48         0.66905       175.27         
1385.4000     0.46293       39.65         7.505E-4      65.90         7.625E-4      64.48         0.66812       175.52         
1388.3900     0.46407       40.08         7.928E-4      61.08         7.288E-4      59.05         0.66659       175.75         
1391.3800     0.46503       40.55         7.615E-4      63.98         7.962E-4      55.74         0.66465       175.92         
1394.3700     0.46622       41.06         8.525E-4      52.44         8.557E-4      56.52         0.66247       176.04         
1397.3600     0.46807       41.54         7.12E-4       51.64         7.951E-4      48.94         0.65994       176.10         
1400.3500     0.47002       41.89         8.792E-4      47.07         7.939E-4      44.27         0.65738       176.10         
1403.3400     0.47081       42.13         7.691E-4      38.11         7.815E-4      41.24         0.65501       176.02         
1406.3300     0.47038       42.40         8.02E-4       40.19         8.485E-4      35.86         0.65297       175.83         
1409.3200     0.46828       42.71         7.937E-4      34.76         9.258E-4      37.84         0.6514        175.59         
1412.3100     0.46567       43.29         8.70E-4       27.17         8.585E-4      32.19         0.65065       175.27         
1415.3000     0.4642        43.96         8.901E-4      26.29         8.401E-4      30.82         0.65032       174.95         
1418.2900     0.46309       44.60         9.366E-4      16.32         9.73E-4       20.79         0.65061       174.63         
1421.2800     0.46173       45.24         1.015E-3      14.66         9.672E-4      9.60          0.65147       174.33         
1424.2700     0.46039       45.94         8.933E-4      9.61          1.054E-3      7.28          0.65265       174.07         
1427.2600     0.45955       46.68         9.223E-4      -5.50         1.027E-3      -0.43         0.65431       173.86         
1430.2500     0.45893       47.45         9.444E-4      -7.34         9.50E-4       -3.80         0.65602       173.73         
1433.2400     0.45926       48.23         1.052E-3      -17.47        1.027E-3      -16.95        0.65772       173.65         
1436.2300     0.46018       49.01         9.553E-4      -24.46        9.27E-4       -17.86        0.65948       173.65         
1439.2200     0.46151       49.76         1.017E-3      -30.45        9.579E-4      -22.89        0.66065       173.75         
1442.2100     0.46332       50.48         9.174E-4      -39.93        1.004E-3      -28.83        0.66185       173.93         
1445.2000     0.46543       51.18         9.406E-4      -41.52        9.301E-4      -36.33        0.66228       174.14         
1448.1900     0.46782       51.89         8.728E-4      -44.70        9.585E-4      -39.43        0.66228       174.39         
1451.1800     0.47045       52.60         9.172E-4      -50.09        9.205E-4      -49.71        0.6618        174.64         
1454.1700     0.4731        53.27         8.992E-4      -57.41        8.547E-4      -50.42        0.66049       174.88         
1457.1600     0.47585       53.92         9.191E-4      -62.38        8.757E-4      -59.88        0.65863       175.11         
1460.1500     0.47849       54.56         8.86E-4       -66.43        7.999E-4      -66.53        0.65641       175.28         
1463.1400     0.48097       55.19         8.705E-4      -69.01        7.837E-4      -71.66        0.65391       175.41         
1466.1300     0.48314       55.81         9.042E-4      -77.18        7.983E-4      -69.67        0.65154       175.42         
1469.1200     0.48519       56.43         8.515E-4      -78.57        7.369E-4      -74.20        0.64914       175.36         
1472.1100     0.48716       57.04         8.729E-4      -82.21        7.871E-4      -79.07        0.64711       175.22         
1475.1000     0.48891       57.60         8.27E-4       -92.87        7.378E-4      -92.80        0.6454        174.98         
1478.0900     0.49049       58.15         7.938E-4      -93.94        7.821E-4      -92.03        0.6439        174.69         
1481.0800     0.49199       58.65         8.333E-4      -95.05        7.62E-4       -97.07        0.64286       174.38         
1484.0700     0.49336       59.13         7.571E-4      -99.33        7.272E-4      -102.39       0.64267       174.02         
1487.0600     0.49488       59.60         7.55E-4       -106.04       7.646E-4      -106.62       0.64307       173.66         
1490.0500     0.49657       60.03         7.992E-4      -116.04       6.852E-4      -113.54       0.64405       173.31         
1493.0400     0.49823       60.43         8.005E-4      -114.38       7.286E-4      -116.59       0.64551       173.00         
1496.0300     0.49997       60.77         7.842E-4      -120.20       7.174E-4      -117.21       0.6473        172.75         
1499.0200     0.50153       61.10         7.507E-4      -121.93       6.559E-4      -123.18       0.64937       172.56         
1502.0100     0.50332       61.45         7.237E-4      -119.05       6.97E-4       -123.63       0.651         172.55         
1505.0000     0.50499       61.79         6.759E-4      -129.65       6.377E-4      -128.02       0.65285       172.56         
1507.9900     0.50675       62.11         6.436E-4      -126.16       6.536E-4      -133.02       0.65444       172.65         
1510.9800     0.50823       62.47         6.646E-4      -129.93       6.58E-4       -139.79       0.6558        172.81         
1513.9700     0.5094        62.83         7.303E-4      -133.12       6.386E-4      -142.82       0.65653       173.05         
1516.9600     0.51047       63.24         6.663E-4      -145.39       5.781E-4      -140.16       0.65667       173.31         
1519.9500     0.51121       63.66         7.565E-4      -146.65       6.388E-4      -144.65       0.65614       173.62         
1522.9400     0.51175       64.12         6.33E-4       -145.12       6.921E-4      -146.33       0.65532       173.93         
1525.9300     0.51198       64.59         7.023E-4      -147.48       6.761E-4      -152.82       0.65404       174.21         
1528.9200     0.51172       65.06         7.128E-4      -155.17       7.356E-4      -151.35       0.65227       174.44         
1531.9100     0.51121       65.54         6.622E-4      -155.24       7.072E-4      -152.70       0.65026       174.60         
1534.9000     0.51026       66.01         7.606E-4      -154.27       7.489E-4      -159.89       0.648         174.70         
1537.8900     0.50918       66.48         6.635E-4      -164.57       6.792E-4      -163.93       0.64542       174.72         
1540.8800     0.50806       66.95         7.018E-4      -162.39       7.325E-4      -166.74       0.64332       174.67         
1543.8700     0.50699       67.44         7.093E-4      -164.45       7.428E-4      -171.93       0.64158       174.53         
1546.8600     0.5059        67.94         6.462E-4      -167.88       7.198E-4      -178.02       0.64036       174.29         
1549.8500     0.50504       68.43         7.722E-4      -171.37       8.157E-4      -179.99       0.63963       174.02         
1552.8400     0.50436       68.93         6.847E-4      179.69        7.604E-4      -178.62       0.6394        173.70         
1555.8300     0.50406       69.42         7.484E-4      176.97        7.46E-4       177.47        0.6396        173.37         
1558.8200     0.5042        69.89         7.219E-4      177.59        7.594E-4      173.02        0.64018       173.07         
1561.8100     0.50454       70.39         8.27E-4       169.47        7.554E-4      163.14        0.64134       172.80         
1564.8000     0.50516       70.85         7.836E-4      164.83        7.835E-4      161.85        0.64266       172.57         
1567.7900     0.50595       71.36         7.797E-4      159.03        7.858E-4      162.29        0.64446       172.39         
1570.7800     0.50678       71.87         7.195E-4      157.49        7.313E-4      154.72        0.64609       172.30         
1573.7700     0.50784       72.41         7.663E-4      150.80        7.538E-4      156.95        0.64767       172.28         
1576.7600     0.50888       72.97         7.899E-4      149.05        7.459E-4      148.21        0.64905       172.34         
1579.7500     0.50995       73.57         7.567E-4      146.80        7.241E-4      147.34        0.65001       172.49         
1582.7400     0.51075       74.14         8.191E-4      147.21        7.351E-4      142.66        0.65085       172.68         
1585.7300     0.51125       74.72         8.011E-4      142.48        8.057E-4      142.28        0.65127       172.91         
1588.7200     0.51158       75.29         7.312E-4      135.12        8.429E-4      133.88        0.65117       173.18         
1591.7100     0.51164       75.84         8.475E-4      134.10        8.439E-4      140.35        0.6505        173.43         
1594.7000     0.51141       76.36         8.354E-4      131.61        8.601E-4      131.06        0.64917       173.68         
1597.6900     0.51114       76.87         9.547E-4      121.40        8.114E-4      130.09        0.6476        173.87         
1600.6800     0.51082       77.33         7.118E-4      118.06        8.59E-4       124.89        0.64584       174.04         
1603.6700     0.51021       77.77         8.906E-4      116.90        8.668E-4      121.60        0.644         174.14         
1606.6600     0.50966       78.16         9.359E-4      116.08        8.35E-4       120.38        0.64216       174.15         
1609.6500     0.50899       78.50         8.273E-4      112.10        9.389E-4      112.61        0.64039       174.09         
1612.6400     0.50834       78.81         9.227E-4      117.66        9.153E-4      112.97        0.63889       173.95         
1615.6300     0.50765       79.12         8.414E-4      108.01        9.741E-4      107.78        0.63783       173.74         
1618.6200     0.50703       79.39         8.902E-4      104.37        9.103E-4      109.38        0.63676       173.49         
1621.6100     0.50663       79.65         8.984E-4      100.82        9.611E-4      100.32        0.6365        173.22         
1624.6000     0.50616       79.90         9.955E-4      95.27         8.817E-4      100.70        0.63645       172.93         
1627.5900     0.5057        80.16         9.976E-4      93.15         9.842E-4      97.85         0.63723       172.65         
1630.5800     0.50522       80.43         9.756E-4      85.21         1.14E-3       92.94         0.63822       172.40         
1633.5700     0.50452       80.72         9.491E-4      86.42         9.353E-4      85.91         0.63944       172.17         
1636.5600     0.50375       81.04         9.566E-4      85.70         1.059E-3      83.34         0.64091       172.02         
1639.5500     0.50243       81.35         1.051E-3      81.65         1.032E-3      82.04         0.64221       171.95         
1642.5400     0.50056       81.65         1.022E-3      79.63         9.943E-4      75.41         0.64401       171.94         
1645.5300     0.4982        81.98         1.093E-3      73.40         1.058E-3      76.40         0.64561       172.01         
1648.5200     0.4951        82.30         1.018E-3      67.31         1.018E-3      71.85         0.64664       172.14         
1651.5100     0.49103       82.65         1.055E-3      69.09         1.082E-3      68.63         0.64734       172.33         
1654.5000     0.4866        82.99         1.126E-3      63.18         1.023E-3      65.52         0.64761       172.56         
1657.4900     0.48189       83.35         1.068E-3      61.90         1.014E-3      61.03         0.64734       172.81         
1660.4800     0.47654       83.68         1.086E-3      58.29         1.051E-3      60.66         0.64663       173.08         
1663.4700     0.471         84.01         1.116E-3      54.98         1.049E-3      56.16         0.64563       173.32         
1666.4600     0.46508       84.31         1.088E-3      52.25         1.038E-3      54.22         0.64419       173.54         
1669.4500     0.45907       84.62         1.103E-3      50.06         1.086E-3      52.34         0.6426        173.69         
1672.4400     0.45289       84.95         1.194E-3      49.34         9.871E-4      51.05         0.64077       173.75         
1675.4300     0.4469        85.30         1.094E-3      43.77         1.066E-3      43.57         0.6387        173.76         
1678.4200     0.44089       85.66         1.112E-3      42.25         1.137E-3      39.79         0.63676       173.70         
1681.4100     0.43494       86.04         1.141E-3      36.53         1.117E-3      41.28         0.63482       173.56         
1684.4000     0.42912       86.47         1.162E-3      33.31         1.144E-3      35.64         0.63329       173.34         
1687.3900     0.42316       86.92         1.068E-3      32.20         1.167E-3      32.29         0.63238       173.06         
1690.3800     0.41672       87.42         1.162E-3      30.47         1.211E-3      30.17         0.63184       172.73         
1693.3700     0.40948       88.01         1.162E-3      26.64         1.142E-3      28.31         0.63165       172.37         
1696.3600     0.40091       88.76         1.199E-3      24.85         1.186E-3      26.66         0.63205       172.01         
1699.3500     0.39076       89.82         1.157E-3      17.26         1.196E-3      21.10         0.63294       171.69         
1702.3400     0.37957       91.48         1.272E-3      18.31         1.205E-3      20.27         0.63428       171.41         
1705.3300     0.37006       93.90         1.22E-3       14.56         1.196E-3      16.22         0.63596       171.20         
1708.3200     0.36579       96.89         1.182E-3      14.05         1.205E-3      14.20         0.63779       171.04         
1711.3100     0.36751       99.68         1.199E-3      7.20          1.219E-3      5.64          0.6397        170.97         
1714.3000     0.37229       101.80        1.286E-3      3.31          1.27E-3       5.78          0.64153       170.99         
1717.2900     0.37708       103.30        1.28E-3       1.52          1.249E-3      5.80          0.64307       171.09         
1720.2800     0.38061       104.42        1.325E-3      3.24          1.366E-3      4.11          0.64451       171.28         
1723.2700     0.38277       105.30        1.293E-3      -0.23         1.365E-3      -3.53         0.64544       171.53         
1726.2600     0.38383       106.08        1.289E-3      -4.15         1.323E-3      -6.78         0.64614       171.83         
1729.2500     0.38436       106.79        1.338E-3      -11.42        1.323E-3      -6.71         0.64637       172.16         
1732.2400     0.38416       107.43        1.387E-3      -12.51        1.478E-3      -12.87        0.646         172.48         
1735.2300     0.38407       108.03        1.423E-3      -16.33        1.463E-3      -18.61        0.64513       172.78         
1738.2200     0.38396       108.59        1.474E-3      -20.90        1.422E-3      -18.41        0.64383       173.07         
1741.2100     0.38382       109.13        1.485E-3      -28.10        1.471E-3      -24.06        0.64188       173.31         
1744.2000     0.38395       109.64        1.485E-3      -27.65        1.448E-3      -27.25        0.63985       173.45         
1747.1900     0.38411       110.17        1.495E-3      -31.48        1.532E-3      -30.64        0.63772       173.52         
1750.1800     0.38424       110.70        1.514E-3      -34.06        1.481E-3      -34.04        0.63569       173.49         
1753.1700     0.38446       111.27        1.54E-3       -36.54        1.575E-3      -37.42        0.63365       173.39         
1756.1600     0.38472       111.92        1.648E-3      -43.17        1.542E-3      -40.98        0.63187       173.19         
1759.1500     0.38474       112.61        1.574E-3      -46.31        1.463E-3      -46.19        0.63044       172.95         
1762.1400     0.38485       113.36        1.579E-3      -48.94        1.631E-3      -49.84        0.62924       172.65         
1765.1300     0.38505       114.18        1.611E-3      -54.10        1.566E-3      -52.66        0.62882       172.28         
1768.1200     0.38524       114.96        1.61E-3       -52.17        1.598E-3      -56.84        0.62884       171.92         
1771.1100     0.38529       115.62        1.729E-3      -59.05        1.679E-3      -58.41        0.62925       171.56         
1774.1000     0.38405       116.17        1.62E-3       -61.91        1.645E-3      -61.44        0.63016       171.24         
1777.0900     0.3817        116.78        1.687E-3      -68.19        1.698E-3      -66.70        0.6314        170.97         
1780.0800     0.37894       117.38        1.677E-3      -72.28        1.652E-3      -69.53        0.63304       170.77         
1783.0700     0.37593       117.94        1.642E-3      -71.81        1.679E-3      -78.18        0.63489       170.66         
1786.0600     0.37255       118.42        1.642E-3      -80.92        1.655E-3      -78.69        0.63688       170.62         
1789.0500     0.36864       118.85        1.606E-3      -81.45        1.674E-3      -83.17        0.63876       170.67         
1792.0400     0.36468       119.22        1.666E-3      -87.66        1.647E-3      -84.85        0.64029       170.78         
1795.0300     0.36084       119.55        1.67E-3       -89.93        1.728E-3      -89.10        0.64118       170.94         
1798.0200     0.35709       119.83        1.741E-3      -95.03        1.669E-3      -91.49        0.64178       171.16         
1801.0100     0.35342       120.07        1.748E-3      -95.51        1.745E-3      -97.54        0.64171       171.41         
1804.0000     0.34997       120.27        1.677E-3      -100.58       1.651E-3      -99.73        0.64153       171.65         
1806.9900     0.34643       120.45        1.611E-3      -101.06       1.658E-3      -106.28       0.64079       171.88         
1809.9800     0.34314       120.64        1.68E-3       -108.80       1.67E-3       -108.63       0.63972       172.06         
1812.9700     0.33973       120.84        1.596E-3      -111.92       1.754E-3      -111.45       0.63821       172.22         
1815.9600     0.33624       121.11        1.715E-3      -117.31       1.588E-3      -111.60       0.63642       172.29         
1818.9500     0.33245       121.44        1.731E-3      -118.29       1.641E-3      -116.93       0.63447       172.29         
1821.9400     0.3283        121.83        1.601E-3      -122.47       1.67E-3       -123.44       0.63268       172.23         
1824.9300     0.32367       122.23        1.612E-3      -123.17       1.604E-3      -125.51       0.63107       172.06         
1827.9200     0.31847       122.71        1.643E-3      -130.87       1.633E-3      -127.82       0.62966       171.83         
1830.9100     0.31239       123.23        1.651E-3      -133.66       1.686E-3      -130.34       0.62889       171.55         
1833.9000     0.30559       123.81        1.725E-3      -135.34       1.615E-3      -132.93       0.62856       171.22         
1836.8900     0.29818       124.44        1.664E-3      -140.36       1.739E-3      -138.08       0.62858       170.92         
1839.8800     0.29028       125.13        1.624E-3      -144.86       1.663E-3      -143.08       0.62936       170.61         
1842.8700     0.28194       125.76        1.745E-3      -147.10       1.60E-3       -144.45       0.63074       170.33         
1845.8600     0.27295       126.46        1.644E-3      -149.08       1.634E-3      -147.67       0.63265       170.11         
1848.8500     0.26359       127.12        1.53E-3       -152.07       1.648E-3      -151.50       0.63464       169.96         
1851.8400     0.25408       127.80        1.625E-3      -154.30       1.744E-3      -154.86       0.63679       169.90         
1854.8300     0.24426       128.56        1.631E-3      -160.85       1.695E-3      -161.38       0.63878       169.92         
1857.8200     0.23467       129.45        1.739E-3      -164.85       1.628E-3      -162.51       0.64048       170.02         
1860.8100     0.22517       130.40        1.568E-3      -168.99       1.538E-3      -168.91       0.64216       170.23         
1863.8000     0.21607       131.52        1.569E-3      -170.18       1.54E-3       -169.65       0.64336       170.48         
1866.7900     0.20718       132.86        1.635E-3      -173.01       1.529E-3      -174.66       0.64403       170.79         
1869.7800     0.19879       134.46        1.582E-3      -174.82       1.599E-3      -174.11       0.64397       171.13         
1872.7700     0.19099       136.28        1.569E-3      179.53        1.557E-3      -177.24       0.64334       171.45         
1875.7600     0.18371       138.51        1.608E-3      172.29        1.504E-3      179.15        0.64195       171.77         
1878.7500     0.1772        141.10        1.49E-3       173.32        1.525E-3      174.47        0.64012       172.04         
1881.7400     0.17132       144.08        1.544E-3      170.36        1.467E-3      170.61        0.63785       172.23         
1884.7300     0.16637       147.41        1.566E-3      169.66        1.466E-3      170.42        0.63525       172.33         
1887.7200     0.16227       151.08        1.53E-3       163.65        1.427E-3      164.61        0.63264       172.33         
1890.7100     0.15901       154.96        1.516E-3      161.57        1.516E-3      161.33        0.63011       172.21         
1893.7000     0.15664       159.06        1.48E-3       158.42        1.456E-3      157.98        0.62771       172.01         
1896.6900     0.15519       163.26        1.528E-3      150.34        1.462E-3      152.96        0.62558       171.71         
1899.6800     0.1549        167.56        1.45E-3       148.88        1.465E-3      153.85        0.62431       171.34         
1902.6700     0.15536       171.71        1.414E-3      146.31        1.339E-3      147.99        0.62348       170.90         
1905.6600     0.15697       175.58        1.419E-3      144.38        1.334E-3      145.32        0.62372       170.45         
1908.6500     0.15904       179.08        1.372E-3      142.54        1.503E-3      140.73        0.62462       169.99         
1911.6400     0.16135       -177.76       1.337E-3      141.32        1.352E-3      138.18        0.62623       169.56         
1914.6300     0.1638        -175.03       1.311E-3      138.01        1.37E-3       135.50        0.62854       169.20         
1917.6200     0.16636       -172.59       1.345E-3      137.80        1.385E-3      130.19        0.63116       168.94         
1920.6100     0.16871       -170.47       1.39E-3       127.32        1.284E-3      129.66        0.63396       168.82         
1923.6000     0.17122       -168.68       1.279E-3      127.82        1.296E-3      130.90        0.63682       168.80         
1926.5900     0.17341       -167.08       1.293E-3      123.06        1.287E-3      127.95        0.63948       168.90         
1929.5800     0.17546       -165.68       1.205E-3      122.53        1.277E-3      124.83        0.64156       169.10         
1932.5700     0.1774        -164.37       1.234E-3      121.74        1.307E-3      116.27        0.64311       169.40         
1935.5600     0.17886       -163.10       1.264E-3      115.38        1.313E-3      115.25        0.64395       169.76         
1938.5500     0.18031       -161.91       1.331E-3      114.66        1.223E-3      113.80        0.64411       170.16         
1941.5400     0.18144       -160.62       1.287E-3      114.12        1.262E-3      110.44        0.64335       170.57         
1944.5300     0.18252       -159.28       1.274E-3      107.88        1.212E-3      107.19        0.64212       170.95         
1947.5200     0.18355       -157.88       1.219E-3      106.84        1.21E-3       107.57        0.64011       171.29         
1950.5100     0.18432       -156.37       1.294E-3      101.71        1.263E-3      104.26        0.63773       171.57         
1953.5000     0.18497       -154.75       1.214E-3      100.80        1.181E-3      102.97        0.63478       171.74         
1956.4900     0.18548       -153.08       1.196E-3      96.18         1.226E-3      97.61         0.63165       171.81         
1959.4800     0.18584       -151.33       1.107E-3      96.85         1.21E-3       94.73         0.62855       171.75         
1962.4700     0.18586       -149.48       1.231E-3      90.31         1.222E-3      93.15         0.62572       171.56         
1965.4600     0.18549       -147.64       1.263E-3      89.09         1.234E-3      84.84         0.62338       171.24         
1968.4500     0.18516       -145.71       1.208E-3      81.21         1.293E-3      82.08         0.62197       170.81         
1971.4400     0.1841        -143.74       1.30E-3       81.86         1.223E-3      82.88         0.62113       170.32         
1974.4300     0.18298       -141.76       1.262E-3      83.44         1.169E-3      77.16         0.62149       169.81         
1977.4200     0.18207       -139.67       1.271E-3      77.10         1.346E-3      75.81         0.62279       169.31         
1980.4100     0.18097       -137.51       1.191E-3      69.88         1.242E-3      74.36         0.62481       168.88         
1983.4000     0.17996       -135.28       1.284E-3      66.03         1.222E-3      71.43         0.6273        168.54         
1986.3900     0.17928       -132.98       1.21E-3       62.38         1.204E-3      65.82         0.63038       168.28         
1989.3800     0.1789        -130.65       1.22E-3       56.92         1.177E-3      59.93         0.63329       168.15         
1992.3700     0.17897       -128.28       1.132E-3      56.47         1.089E-3      57.47         0.6361        168.15         
1995.3600     0.17942       -125.87       1.135E-3      55.69         1.135E-3      53.08         0.63881       168.29         
1998.3500     0.18038       -123.43       1.156E-3      48.44         1.124E-3      52.37         0.64088       168.53         
2001.3400     0.18176       -121.03       1.045E-3      46.84         1.044E-3      45.46         0.64257       168.86         
2004.3300     0.18377       -118.61       1.094E-3      43.75         1.018E-3      45.54         0.64358       169.30         
2007.3200     0.18628       -116.22       1.025E-3      40.63         1.081E-3      38.52         0.64376       169.76         
2010.3100     0.1893        -113.84       1.027E-3      36.33         1.091E-3      39.50         0.64296       170.25         
2013.3000     0.1929        -111.45       1.096E-3      31.22         9.983E-4      30.45         0.64133       170.70         
2016.2900     0.19699       -109.14       1.112E-3      29.23         1.063E-3      30.35         0.63884       171.12         
2019.2800     0.20136       -106.90       1.001E-3      24.63         9.995E-4      21.77         0.6356        171.44         
2022.2700     0.20635       -104.74       9.515E-4      25.35         1.022E-3      26.63         0.63184       171.62         
2025.2600     0.21145       -102.67       9.329E-4      19.44         1.088E-3      19.91         0.6283        171.65         
2028.2500     0.21681       -100.60       1.051E-3      16.06         1.015E-3      19.88         0.62479       171.54         
2031.2400     0.22254       -98.60        1.03E-3       16.54         1.019E-3      9.64          0.62163       171.24         
2034.2300     0.22905       -96.83        9.117E-4      6.05          9.974E-4      16.62         0.61927       170.85         
2037.2200     0.23602       -95.21        8.598E-4      -2.19         8.746E-4      6.91          0.61746       170.35         
2040.2100     0.24297       -93.75        8.018E-4      6.72          8.804E-4      7.22          0.6168        169.78         
2043.2000     0.24998       -92.49        8.708E-4      0.99          9.322E-4      0.22          0.6168        169.16         
2046.1900     0.2569        -91.31        9.27E-4       -1.06         9.008E-4      0.23          0.61796       168.56         
2049.1800     0.26393       -90.34        8.573E-4      -7.03         9.121E-4      -0.54         0.61973       168.00         
2052.1700     0.27077       -89.43        8.714E-4      -4.10         8.382E-4      -5.88         0.62211       167.51         
2055.1600     0.27734       -88.62        8.76E-4       -10.95        8.21E-4       -11.58        0.62503       167.16         
2058.1500     0.28378       -87.85        8.014E-4      -16.04        7.799E-4      -14.35        0.62823       166.92         
2061.1400     0.29008       -87.15        7.634E-4      -8.63         8.126E-4      -16.04        0.63158       166.83         
2064.1300     0.29599       -86.50        7.635E-4      -12.24        7.658E-4      -14.71        0.63489       166.89         
2067.1200     0.30186       -85.86        6.594E-4      -25.00        7.916E-4      -18.23        0.63755       167.09         
2070.1100     0.30746       -85.25        6.482E-4      -19.74        7.615E-4      -23.01        0.63955       167.41         
2073.1000     0.31281       -84.66        6.485E-4      -21.91        7.338E-4      -27.09        0.64053       167.82         
2076.0900     0.31806       -84.10        6.537E-4      -26.16        7.017E-4      -28.24        0.64089       168.30         
2079.0800     0.32304       -83.54        5.952E-4      -30.91        6.029E-4      -27.82        0.64018       168.80         
2082.0700     0.32775       -83.02        6.591E-4      -35.97        6.332E-4      -28.17        0.63858       169.25         
2085.0600     0.33202       -82.51        5.943E-4      -41.80        6.349E-4      -34.66        0.63646       169.66         
2088.0500     0.33587       -81.99        6.319E-4      -38.44        5.145E-4      -47.12        0.63376       169.95         
2091.0400     0.33973       -81.44        5.345E-4      -36.97        5.408E-4      -31.47        0.63072       170.13         
2094.0300     0.3432        -80.93        6.298E-4      -34.32        4.913E-4      -38.55        0.62791       170.20         
2097.0200     0.34643       -80.42        5.476E-4      -44.59        5.147E-4      -51.33        0.62501       170.12         
2100.0100     0.34962       -79.90        5.301E-4      -45.01        4.382E-4      -44.87        0.62225       169.91         
2103.0000     0.35285       -79.35        6.032E-4      -43.41        5.376E-4      -44.44        0.62017       169.56         
2105.9900     0.3559        -78.80        5.454E-4      -53.13        5.654E-4      -51.29        0.61869       169.11         
2108.9800     0.35885       -78.16        3.438E-4      -47.20        3.71E-4       -53.01        0.6181        168.58         
2111.9700     0.36226       -77.49        4.326E-4      -51.90        3.899E-4      -51.13        0.61818       168.02         
2114.9600     0.36596       -76.79        3.62E-4       -49.71        3.532E-4      -52.13        0.61921       167.46         
2117.9500     0.36981       -76.04        4.367E-4      -46.24        4.386E-4      -48.83        0.62101       166.96         
2120.9400     0.37424       -75.28        3.701E-4      -55.50        3.465E-4      -61.24        0.62369       166.53         
2123.9300     0.37904       -74.52        4.35E-4       -58.64        4.473E-4      -50.50        0.62676       166.23         
2126.9200     0.38451       -73.80        4.475E-4      -61.22        3.454E-4      -65.40        0.63018       166.08         
2129.9100     0.39016       -73.22        3.58E-4       -67.90        3.79E-4       -42.89        0.63324       166.07         
2132.9000     0.39547       -72.79        3.342E-4      -43.83        4.366E-4      -59.59        0.6363        166.22         
2135.8900     0.39985       -72.50        4.148E-4      -59.97        3.062E-4      -66.45        0.63868       166.50         
2138.8800     0.40259       -72.21        4.416E-4      -60.79        4.389E-4      -51.88        0.64031       166.89         
2141.8700     0.40452       -71.80        3.613E-4      -55.87        4.252E-4      -67.67        0.64129       167.36         
2144.8600     0.40611       -71.34        3.366E-4      -48.76        3.271E-4      -61.72        0.64141       167.87         
2147.8500     0.40799       -70.82        3.219E-4      -43.92        3.572E-4      -53.98        0.64071       168.40         
2150.8400     0.40981       -70.35        3.701E-4      -66.37        4.956E-4      -69.39        0.63932       168.92         
2153.8300     0.41212       -69.90        3.721E-4      -80.86        3.248E-4      -64.83        0.63737       169.37         
2156.8200     0.41437       -69.50        3.429E-4      -74.85        3.107E-4      -68.60        0.63497       169.75         
2159.8100     0.41691       -69.14        3.965E-4      -60.64        4.156E-4      -65.62        0.63187       170.02         
2162.8000     0.41969       -68.85        4.068E-4      -60.82        4.509E-4      -70.86        0.62862       170.15         
2165.7900     0.42259       -68.60        3.586E-4      -41.96        4.414E-4      -68.99        0.62532       170.13         
2168.7800     0.42586       -68.37        4.00E-4       -82.56        3.144E-4      -71.26        0.62204       169.98         
2171.7700     0.42912       -68.15        3.915E-4      -66.93        4.171E-4      -75.36        0.61925       169.68         
2174.7600     0.43246       -67.91        4.12E-4       -75.30        4.469E-4      -72.92        0.61689       169.24         
2177.7500     0.43584       -67.70        3.858E-4      -59.02        3.563E-4      -81.09        0.61538       168.73         
2180.7400     0.43922       -67.48        3.769E-4      -77.44        4.302E-4      -65.84        0.61463       168.24         
2183.7300     0.44222       -67.24        3.00E-4       -91.07        3.619E-4      -85.45        0.61497       167.66         
2186.7200     0.44515       -66.98        4.373E-4      -80.83        4.473E-4      -48.04        0.61598       167.08         
2189.7100     0.44741       -66.71        3.063E-4      -79.13        3.69E-4       -80.00        0.61764       166.58         
2192.7000     0.44922       -66.43        3.539E-4      -69.88        5.393E-4      -75.10        0.61997       166.18         
2195.6900     0.45062       -66.15        4.69E-4       -66.72        4.882E-4      -76.15        0.6224        165.91         
2198.6800     0.45129       -65.85        5.051E-4      -80.74        3.864E-4      -85.43        0.62517       165.77         
2201.6700     0.45143       -65.57        4.172E-4      -81.03        4.31E-4       -76.87        0.62768       165.78         
2204.6600     0.45128       -65.33        5.232E-4      -81.68        4.429E-4      -92.71        0.63009       165.90         
2207.6500     0.45052       -65.10        4.498E-4      -83.30        3.958E-4      -79.96        0.63169       166.14         
2210.6400     0.44954       -64.92        4.322E-4      -89.19        5.344E-4      -91.70        0.63327       166.47         
2213.6300     0.44822       -64.80        5.077E-4      -94.68        4.977E-4      -90.36        0.63374       166.85         
2216.6200     0.44673       -64.69        4.51E-4       -104.12       5.266E-4      -88.55        0.63378       167.28         
2219.6100     0.44531       -64.62        4.095E-4      -106.97       5.492E-4      -101.69       0.63307       167.69         
2222.6000     0.444         -64.58        4.05E-4       -93.29        6.107E-4      -92.74        0.63167       168.08         
2225.5900     0.44309       -64.56        4.117E-4      -94.43        4.488E-4      -102.01       0.62981       168.40         
2228.5800     0.4422        -64.53        5.224E-4      -95.38        5.871E-4      -100.17       0.6274        168.63         
2231.5700     0.44164       -64.49        4.513E-4      -115.11       4.936E-4      -102.48       0.62471       168.77         
2234.5600     0.44117       -64.41        4.909E-4      -108.42       4.555E-4      -111.18       0.62182       168.77         
2237.5500     0.44065       -64.29        4.798E-4      -117.42       5.602E-4      -106.84       0.61892       168.64         
2240.5400     0.44025       -64.10        5.366E-4      -110.26       4.127E-4      -117.32       0.61628       168.38         
2243.5300     0.43975       -63.92        5.093E-4      -124.07       4.875E-4      -115.58       0.61404       168.00         
2246.5200     0.43885       -63.64        5.325E-4      -130.31       5.269E-4      -123.94       0.61251       167.53         
2249.5100     0.43757       -63.31        4.985E-4      -120.95       4.168E-4      -115.54       0.6116        167.00         
2252.5000     0.4359        -62.98        5.476E-4      -131.41       4.041E-4      -135.73       0.61149       166.43         
2255.4900     0.43373       -62.58        5.411E-4      -130.45       4.726E-4      -128.59       0.61242       165.88         
2258.4800     0.43097       -62.16        5.114E-4      -147.08       4.916E-4      -136.24       0.61401       165.40         
2261.4700     0.42769       -61.76        5.193E-4      -132.47       5.961E-4      -129.04       0.61595       165.00         
2264.4600     0.42387       -61.37        5.195E-4      -152.72       4.031E-4      -141.32       0.61835       164.68         
2267.4500     0.41969       -61.01        6.049E-4      -142.50       4.561E-4      -148.55       0.62097       164.50         
2270.4400     0.41516       -60.68        4.683E-4      -143.38       4.086E-4      -154.02       0.62351       164.44         
2273.4300     0.41062       -60.42        5.185E-4      -158.35       4.812E-4      -151.59       0.62629       164.51         
2276.4200     0.40626       -60.20        4.817E-4      -152.60       5.061E-4      -153.63       0.62839       164.69         
2279.4100     0.40188       -60.06        3.826E-4      -145.36       4.46E-4       -153.36       0.63022       164.98         
2282.4000     0.39788       -59.95        4.385E-4      -166.36       4.15E-4       -168.67       0.63173       165.32         
2285.3900     0.39412       -59.86        4.422E-4      -171.47       4.269E-4      -161.88       0.63236       165.76         
2288.3800     0.39059       -59.77        4.874E-4      -167.30       3.921E-4      -168.52       0.63229       166.20         
2291.3700     0.38744       -59.62        4.743E-4      178.26        4.11E-4       -172.13       0.63158       166.64         
2294.3600     0.38444       -59.42        3.357E-4      -178.46       4.127E-4      -175.71       0.63022       167.08         
2297.3500     0.38162       -59.15        5.347E-4      -170.91       4.01E-4       -176.17       0.62803       167.41         
2300.3400     0.37895       -58.80        4.219E-4      -173.69       3.651E-4      -179.49       0.62551       167.67         
2303.3300     0.37622       -58.35        4.111E-4      -175.08       5.476E-4      170.30        0.62264       167.80         
2306.3200     0.3735        -57.81        5.201E-4      172.93        4.406E-4      170.18        0.6195        167.82         
2309.3100     0.37061       -57.19        3.955E-4      173.38        4.203E-4      -177.52       0.61646       167.68         
2312.3000     0.36753       -56.48        4.393E-4      169.42        3.894E-4      161.51        0.61384       167.43         
2315.2900     0.36416       -55.72        4.525E-4      -176.23       3.741E-4      174.43        0.61176       167.07         
2318.2800     0.3604        -54.90        4.487E-4      177.17        3.448E-4      179.76        0.61006       166.64         
2321.2700     0.35637       -54.08        4.179E-4      -168.23       4.476E-4      169.14        0.60917       166.14         
2324.2600     0.35201       -53.24        4.185E-4      160.70        3.285E-4      163.63        0.6088        165.63         
2327.2500     0.34758       -52.42        3.634E-4      168.71        4.034E-4      168.80        0.60917       165.12         
2330.2400     0.34349       -51.66        4.38E-4       161.59        3.397E-4      168.93        0.61024       164.66         
2333.2300     0.33962       -50.99        3.793E-4      174.70        4.216E-4      176.84        0.61183       164.24         
2336.2200     0.33601       -50.39        3.98E-4       167.67        4.231E-4      176.00        0.61426       163.92         
2339.2100     0.33288       -49.85        2.80E-4       163.20        4.314E-4      151.34        0.6166        163.72         
2342.2000     0.33034       -49.36        3.187E-4      161.07        3.683E-4      -173.14       0.61948       163.64         
2345.1900     0.32857       -48.98        4.075E-4      165.85        3.872E-4      -178.72       0.62204       163.70         
2348.1800     0.32738       -48.59        3.975E-4      160.34        4.72E-4       164.25        0.62446       163.87         
2351.1700     0.32674       -48.24        4.882E-4      171.09        4.588E-4      161.89        0.62635       164.16         
2354.1600     0.32658       -47.90        3.233E-4      149.03        3.598E-4      162.15        0.62754       164.53         
2357.1500     0.32686       -47.58        5.247E-4      164.43        3.739E-4      140.06        0.62815       164.97         
2360.1400     0.32735       -47.24        4.425E-4      151.69        5.692E-4      164.44        0.62791       165.40         
2363.1300     0.32805       -46.86        3.131E-4      157.88        4.454E-4      135.04        0.62682       165.82         
2366.1200     0.32878       -46.46        3.883E-4      143.54        4.002E-4      136.26        0.62525       166.19         
2369.1100     0.32933       -46.08        4.117E-4      148.93        5.327E-4      156.04        0.6233        166.48         
2372.1000     0.32952       -45.65        3.422E-4      146.18        4.43E-4       135.46        0.6207        166.69         
2375.0900     0.32921       -45.22        3.919E-4      149.38        3.298E-4      139.93        0.61798       166.81         
2378.0800     0.32821       -44.83        3.603E-4      144.10        3.549E-4      136.70        0.61511       166.80         
2381.0700     0.32673       -44.42        4.643E-4      147.48        3.861E-4      142.08        0.61246       166.67         
2384.0600     0.32466       -44.10        4.079E-4      140.76        4.468E-4      143.47        0.60995       166.43         
2387.0500     0.32221       -43.84        3.801E-4      147.63        4.343E-4      141.57        0.60772       166.07         
2390.0400     0.31925       -43.75        5.585E-4      140.57        4.034E-4      138.01        0.60606       165.64         
2393.0300     0.31615       -43.71        4.307E-4      133.16        4.87E-4       144.35        0.60511       165.15         
2396.0200     0.31304       -43.80        5.15E-4       135.20        4.076E-4      153.34        0.60555       164.64         
2399.0100     0.30976       -43.95        5.142E-4      120.76        4.582E-4      144.19        0.60642       164.13         
2402.0000     0.30679       -44.16        3.75E-4       117.16        4.883E-4      126.28        0.60828       163.70         
2404.9900     0.30404       -44.45        4.684E-4      126.01        6.162E-4      131.72        0.61064       163.35         
2407.9800     0.30144       -44.77        4.78E-4       122.65        4.978E-4      119.71        0.61338       163.15         
2410.9700     0.29903       -45.11        5.237E-4      118.87        4.156E-4      118.66        0.61622       163.10         
2413.9600     0.2971        -45.44        3.753E-4      118.34        4.485E-4      106.03        0.619         163.18         
2416.9500     0.29522       -45.71        4.377E-4      113.09        5.77E-4       108.38        0.62137       163.38         
2419.9400     0.29356       -45.90        5.341E-4      116.05        5.488E-4      114.20        0.62317       163.69         
2422.9300     0.29201       -46.04        4.954E-4      113.47        5.818E-4      121.09        0.62434       164.09         
2425.9200     0.29029       -46.10        5.019E-4      109.12        6.686E-4      100.51        0.62482       164.54         
2428.9100     0.28842       -46.13        5.351E-4      105.79        4.899E-4      108.12        0.62448       165.01         
2431.9000     0.2859        -46.09        4.612E-4      84.54         6.214E-4      95.30         0.62354       165.49         
2434.8900     0.28286       -46.02        4.998E-4      91.18         4.271E-4      105.05        0.62178       165.91         
2437.8800     0.27927       -45.94        5.338E-4      102.62        4.947E-4      102.81        0.61928       166.29         
2440.8700     0.27519       -45.92        6.03E-4       90.47         4.569E-4      95.40         0.61633       166.57         
2443.8600     0.27053       -45.96        5.501E-4      94.74         4.841E-4      88.41         0.61286       166.71         
2446.8500     0.26559       -46.06        5.526E-4      86.09         4.546E-4      108.41        0.60912       166.69         
2449.8400     0.2604        -46.28        5.90E-4       87.35         5.362E-4      94.19         0.60542       166.53         
2452.8300     0.25499       -46.58        5.756E-4      89.56         5.943E-4      93.11         0.602         166.20         
2455.8200     0.24961       -46.95        5.61E-4       69.01         6.254E-4      81.80         0.59935       165.71         
2458.8100     0.24434       -47.44        6.12E-4       77.08         6.234E-4      81.03         0.59721       165.13         
2461.8000     0.23946       -47.97        5.11E-4       64.22         6.152E-4      79.79         0.59627       164.47         
2464.7900     0.2348        -48.59        5.205E-4      75.30         5.227E-4      68.56         0.59641       163.80         
2467.7800     0.2306        -49.23        5.768E-4      66.72         6.114E-4      63.27         0.59744       163.15         
2470.7700     0.22696       -49.80        5.777E-4      65.42         6.581E-4      58.73         0.59945       162.55         
2473.7600     0.22359       -50.36        5.811E-4      60.77         5.959E-4      57.53         0.6019        162.10         
2476.7500     0.22054       -50.86        6.007E-4      56.64         6.833E-4      53.80         0.60492       161.76         
2479.7400     0.21754       -51.25        5.496E-4      52.93         6.716E-4      54.05         0.60816       161.58         
2482.7300     0.21443       -51.60        5.392E-4      52.68         4.619E-4      58.95         0.61153       161.53         
2485.7200     0.21125       -51.80        6.276E-4      58.70         5.645E-4      38.33         0.6145        161.63         
2488.7100     0.20707       -51.99        5.649E-4      49.10         6.207E-4      42.10         0.61717       161.88         
2491.7000     0.20234       -52.03        5.93E-4       45.59         5.829E-4      58.38         0.61915       162.25         
2494.6900     0.19674       -52.05        5.499E-4      41.27         6.722E-4      32.75         0.62072       162.70         
2497.6800     0.18974       -51.93        6.489E-4      40.68         5.56E-4       42.19         0.62129       163.23         
2500.6700     0.18279       -51.52        6.179E-4      30.79         5.137E-4      30.81         0.62113       163.78         
2503.6600     0.17587       -51.12        5.95E-4       26.32         5.219E-4      33.83         0.61995       164.32         
2506.6500     0.16915       -50.69        5.126E-4      35.38         5.44E-4       32.24         0.61786       164.79         
2509.6400     0.16235       -50.34        5.21E-4       30.22         5.838E-4      33.22         0.61488       165.16         
2512.6300     0.15593       -50.05        5.356E-4      24.42         5.017E-4      26.25         0.6114        165.39         
2515.6200     0.14981       -49.86        5.565E-4      10.43         4.727E-4      24.53         0.6079        165.47         
2518.6100     0.14421       -49.73        5.594E-4      23.90         5.537E-4      18.18         0.60408       165.39         
2521.6000     0.13928       -49.68        5.595E-4      5.89          5.398E-4      17.41         0.60075       165.14         
2524.5900     0.13484       -49.65        5.134E-4      17.34         6.267E-4      17.13         0.59759       164.74         
2527.5800     0.13109       -49.41        4.586E-4      8.91          4.887E-4      13.71         0.59541       164.21         
2530.5700     0.12813       -49.13        5.299E-4      10.96         5.552E-4      12.39         0.59395       163.61         
2533.5600     0.12566       -48.49        4.978E-4      10.17         6.064E-4      3.30          0.59358       163.00         
2536.5500     0.12382       -47.58        5.135E-4      -0.05         5.174E-4      -5.09         0.59418       162.37         
2539.5400     0.12242       -46.40        4.60E-4       -1.91         4.062E-4      0.43          0.59552       161.77         
2542.5300     0.12125       -45.00        4.579E-4      -5.30         4.996E-4      -0.39         0.59788       161.29         
2545.5200     0.12004       -43.31        5.041E-4      -11.35        5.359E-4      -22.64        0.60068       160.92         
2548.5100     0.11894       -41.43        5.206E-4      -2.73         5.136E-4      3.53          0.60388       160.72         
2551.5000     0.11801       -39.37        4.678E-4      -11.43        5.123E-4      -8.62         0.60714       160.66         
2554.4900     0.11688       -37.32        5.794E-4      -8.14         5.471E-4      -0.94         0.61043       160.79         
2557.4800     0.11575       -35.38        5.01E-4       -0.79         5.521E-4      -14.52        0.6133        161.07         
2560.4700     0.11458       -33.54        4.534E-4      -11.05        5.364E-4      -18.43        0.61556       161.48         
2563.4600     0.11323       -32.02        5.754E-4      -12.57        4.986E-4      -3.96         0.61683       161.98         
2566.4500     0.11189       -30.73        5.084E-4      -17.80        4.359E-4      -16.96        0.61726       162.55         
2569.4400     0.11054       -29.93        5.481E-4      -23.65        5.212E-4      -16.21        0.6166        163.12         
2572.4300     0.10925       -29.48        5.956E-4      -20.36        5.314E-4      -21.22        0.61496       163.67         
2575.4200     0.10797       -29.43        5.643E-4      -21.74        5.628E-4      -20.28        0.61238       164.13         
2578.4100     0.10725       -29.79        5.255E-4      -19.96        5.112E-4      -30.49        0.60923       164.49         
2581.4000     0.10679       -30.49        5.412E-4      -25.59        5.568E-4      -19.12        0.60553       164.69         
2584.3900     0.10675       -31.33        4.866E-4      -30.88        5.579E-4      -26.44        0.60163       164.74         
2587.3800     0.10701       -32.21        5.414E-4      -34.99        5.367E-4      -41.01        0.5977        164.61         
2590.3700     0.10783       -33.11        4.839E-4      -24.62        5.287E-4      -40.46        0.59419       164.33         
2593.3600     0.10915       -33.80        6.05E-4       -42.02        6.244E-4      -41.05        0.59124       163.88         
2596.3500     0.11081       -34.42        5.969E-4      -50.41        5.356E-4      -49.55        0.58904       163.32         
2599.3400     0.11236       -34.91        4.757E-4      -38.39        6.045E-4      -49.47        0.58776       162.70         
2602.3300     0.11376       -35.23        5.187E-4      -57.15        5.889E-4      -46.97        0.58745       162.03         
2605.3200     0.11471       -35.45        5.341E-4      -64.03        6.211E-4      -50.41        0.58853       161.37         
2608.3100     0.11525       -35.52        5.479E-4      -59.82        5.248E-4      -49.65        0.59049       160.77         
2611.3000     0.11513       -35.54        5.428E-4      -67.41        5.08E-4       -52.73        0.59322       160.29         
2614.2900     0.11455       -35.56        5.125E-4      -67.28        5.219E-4      -66.06        0.59657       159.98         
2617.2800     0.11332       -35.71        4.735E-4      -77.09        6.018E-4      -67.78        0.60026       159.82         
2620.2700     0.11153       -36.01        4.916E-4      -61.02        4.658E-4      -72.76        0.60401       159.86         
2623.2600     0.1092        -36.44        4.537E-4      -76.90        5.866E-4      -59.49        0.60746       160.08         
2626.2500     0.10669       -37.24        4.481E-4      -72.52        4.97E-4       -69.34        0.61055       160.44         
2629.2400     0.10384       -38.25        5.282E-4      -77.42        5.503E-4      -74.11        0.61267       160.93         
2632.2300     0.10107       -39.52        4.518E-4      -74.62        4.635E-4      -78.52        0.61371       161.50         
2635.2200     0.09823       -41.00        4.466E-4      -83.49        5.107E-4      -79.05        0.61388       162.13         
2638.2100     0.09593       -42.64        5.204E-4      -82.11        5.006E-4      -76.86        0.61288       162.74         
2641.2000     0.094         -44.38        4.191E-4      -74.02        5.101E-4      -81.82        0.611         163.32         
2644.1900     0.0925        -46.16        4.301E-4      -92.31        4.426E-4      -90.69        0.60818       163.80         
2647.1800     0.09144       -47.79        4.181E-4      -76.97        4.876E-4      -84.01        0.60463       164.17         
2650.1700     0.09076       -49.33        4.76E-4       -85.36        4.55E-4       -82.16        0.60073       164.40         
2653.1600     0.09024       -50.49        4.006E-4      -93.54        4.934E-4      -93.03        0.59651       164.44         
2656.1500     0.08969       -51.39        4.826E-4      -92.15        4.512E-4      -93.61        0.59234       164.32         
2659.1400     0.08892       -52.11        4.007E-4      -82.93        4.624E-4      -99.12        0.58854       164.01         
2662.1300     0.08804       -52.55        3.782E-4      -108.38       4.753E-4      -87.21        0.58525       163.56         
2665.1200     0.08662       -52.76        5.384E-4      -94.99        4.742E-4      -93.83        0.5827        162.99         
2668.1100     0.08456       -52.76        4.438E-4      -99.10        5.352E-4      -100.67       0.58127       162.31         
2671.1000     0.08206       -52.69        5.428E-4      -95.53        4.378E-4      -93.68        0.58101       161.61         
2674.0900     0.07925       -52.60        4.927E-4      -101.38       5.13E-4       -95.21        0.58177       160.93         
2677.0800     0.07583       -52.52        5.095E-4      -104.47       4.758E-4      -104.41       0.58345       160.33         
2680.0700     0.07228       -52.58        4.514E-4      -106.78       4.38E-4       -104.51       0.5863        159.85         
2683.0600     0.0683        -53.01        4.252E-4      -106.41       4.544E-4      -102.73       0.58967       159.54         
2686.0500     0.06438       -53.79        4.186E-4      -116.45       4.494E-4      -109.67       0.59331       159.37         
2689.0400     0.0603        -54.92        4.614E-4      -129.78       5.135E-4      -113.95       0.59678       159.40         
2692.0300     0.056         -56.24        4.169E-4      -116.86       5.638E-4      -112.28       0.59996       159.59         
2695.0200     0.05199       -57.85        4.135E-4      -118.23       5.326E-4      -102.15       0.6025        159.93         
2698.0100     0.0483        -59.36        5.033E-4      -126.37       4.447E-4      -120.37       0.60405       160.38         
2701.0000     0.04499       -61.12        5.607E-4      -123.50       5.961E-4      -123.22       0.60467       160.88         
2703.9900     0.04197       -63.00        5.134E-4      -127.00       5.577E-4      -119.90       0.6044        161.42         
2706.9800     0.03909       -64.52        3.825E-4      -128.69       5.604E-4      -129.43       0.60312       161.95         
2709.9700     0.03598       -65.61        4.921E-4      -131.40       5.695E-4      -133.64       0.60112       162.42         
2712.9600     0.0328        -66.37        3.879E-4      -132.52       5.302E-4      -143.75       0.59828       162.80         
2715.9500     0.02938       -65.41        4.923E-4      -148.37       5.758E-4      -129.34       0.59494       163.07         
2718.9400     0.02554       -63.04        4.722E-4      -138.13       4.75E-4       -146.97       0.59106       163.18         
2721.9300     0.02163       -57.99        5.127E-4      -144.50       6.246E-4      -154.70       0.5871        163.12         
2724.9200     0.018         -50.07        4.775E-4      -146.48       5.682E-4      -144.38       0.58332       162.91         
2727.9100     0.01491       -36.72        5.082E-4      -151.55       5.441E-4      -148.75       0.57978       162.51         
2730.9000     0.01302       -17.66        4.73E-4       -145.70       5.197E-4      -161.87       0.577         161.97         
2733.8900     0.01264       5.19          4.843E-4      -153.37       5.193E-4      -163.98       0.57522       161.32         
2736.8800     0.01405       26.71         4.401E-4      -156.09       6.02E-4       -166.38       0.57472       160.62         
2739.8700     0.01695       43.29         4.559E-4      -173.06       5.243E-4      -152.14       0.57537       159.91         
2742.8600     0.02091       55.08         4.601E-4      -173.03       4.768E-4      -158.27       0.57729       159.26         
2745.8500     0.02543       61.65         4.698E-4      -175.36       4.892E-4      -169.58       0.58004       158.73         
2748.8400     0.03015       65.91         5.127E-4      -164.73       5.886E-4      -163.98       0.58352       158.34         
2751.8300     0.03462       68.00         4.582E-4      174.04        5.936E-4      -167.66       0.58741       158.11         
2754.8200     0.03866       69.34         4.631E-4      -175.52       4.68E-4       -178.51       0.59131       158.07         
2757.8100     0.04229       69.90         5.26E-4       -177.05       5.461E-4      177.60        0.5951        158.20         
2760.8000     0.04603       70.40         4.969E-4      173.67        5.325E-4      172.29        0.59834       158.49         
2763.7900     0.04968       70.59         4.097E-4      -171.26       5.495E-4      175.03        0.60104       158.91         
2766.7800     0.05333       70.21         3.528E-4      173.01        5.661E-4      179.81        0.60278       159.45         
2769.7700     0.05707       69.59         5.135E-4      179.72        5.626E-4      174.64        0.60369       160.06         
2772.7600     0.06107       68.69         4.985E-4      171.18        4.622E-4      163.99        0.60343       160.69         
2775.7500     0.06504       67.68         3.705E-4      164.42        3.798E-4      164.63        0.60225       161.33         
2778.7400     0.06914       66.72         4.256E-4      156.98        4.904E-4      165.04        0.59994       161.92         
2781.7300     0.07315       65.79         4.179E-4      155.79        5.137E-4      158.27        0.59682       162.40         
2784.7200     0.07723       65.08         4.40E-4       150.71        4.645E-4      158.44        0.59289       162.79         
2787.7100     0.08147       64.47         5.151E-4      154.63        4.682E-4      153.59        0.58835       162.99         
2790.7000     0.08553       64.11         5.018E-4      148.64        4.272E-4      152.80        0.58357       163.03         
2793.6900     0.08975       63.83         4.795E-4      156.38        4.374E-4      150.72        0.5791        162.85         
2796.6800     0.0937        63.68         4.627E-4      143.60        4.715E-4      152.89        0.57464       162.51         
2799.6700     0.09762       63.52         4.702E-4      140.44        5.70E-4       152.12        0.57133       162.01         
2802.6600     0.10121       63.43         5.06E-4       134.93        4.146E-4      136.99        0.56893       161.39         
2805.6500     0.10454       63.29         4.298E-4      140.27        4.589E-4      132.04        0.56765       160.70         
2808.6400     0.10762       63.25         4.862E-4      132.21        4.368E-4      134.45        0.56756       159.98         
2811.6300     0.11058       63.21         3.663E-4      134.51        3.563E-4      136.19        0.56842       159.30         
2814.6200     0.11336       63.15         4.185E-4      137.26        4.063E-4      130.38        0.57038       158.70         
2817.6100     0.11586       63.09         4.013E-4      119.79        3.557E-4      145.22        0.57311       158.20         
2820.6000     0.11852       63.08         3.415E-4      128.01        3.405E-4      134.11        0.57621       157.88         
2823.5900     0.12115       63.02         3.372E-4      143.56        4.264E-4      143.68        0.5797        157.68         
2826.5800     0.12379       62.98         2.773E-4      123.30        3.83E-4       123.02        0.58343       157.65         
2829.5700     0.12618       62.92         4.269E-4      114.19        3.173E-4      112.07        0.58655       157.80         
2832.5600     0.1291        62.88         3.876E-4      135.38        3.214E-4      132.77        0.58939       158.09         
2835.5500     0.13175       63.03         4.387E-4      98.85         5.084E-4      106.46        0.59135       158.51         
2838.5400     0.13486       63.25         3.993E-4      110.71        4.491E-4      115.57        0.59251       159.01         
2841.5300     0.13816       63.46         4.423E-4      109.21        3.862E-4      107.35        0.59272       159.56         
2844.5200     0.14147       63.79         3.461E-4      119.96        4.216E-4      127.42        0.59182       160.12         
2847.5100     0.14495       64.10         4.142E-4      118.98        4.286E-4      97.56         0.59017       160.64         
2850.5000     0.14846       64.35         4.245E-4      119.59        4.292E-4      111.48        0.58737       161.11         
2853.4900     0.15153       64.52         3.236E-4      97.98         3.666E-4      107.85        0.58406       161.44         
2856.4800     0.15412       64.78         4.099E-4      105.28        3.503E-4      102.46        0.58029       161.65         
2859.4700     0.1563        65.08         3.224E-4      113.89        5.102E-4      108.61        0.57642       161.71         
2862.4600     0.15839       65.59         3.456E-4      99.58         4.267E-4      112.12        0.5726        161.59         
2865.4500     0.16054       66.14         4.116E-4      101.30        3.962E-4      109.32        0.56913       161.32         
2868.4400     0.16286       66.73         3.833E-4      92.26         2.983E-4      85.98         0.56615       160.92         
2871.4300     0.16515       67.17         3.483E-4      106.13        3.01E-4       112.90        0.56401       160.41         
2874.4200     0.16778       67.65         3.896E-4      107.85        4.526E-4      95.90         0.56267       159.80         
2877.4100     0.17047       68.10         3.801E-4      87.71         3.686E-4      107.30        0.56213       159.17         
2880.4000     0.1733        68.44         3.576E-4      98.53         3.049E-4      92.30         0.5627        158.52         
2883.3900     0.17624       68.83         3.113E-4      104.53        4.395E-4      91.29         0.56412       157.94         
2886.3800     0.17937       69.28         3.629E-4      87.41         3.463E-4      110.05        0.56635       157.44         
2889.3700     0.1828        69.74         3.181E-4      80.90         4.29E-4       90.40         0.56929       157.04         
2892.3600     0.1865        70.24         3.225E-4      91.91         3.626E-4      88.64         0.57264       156.79         
2895.3500     0.19049       70.74         3.207E-4      91.28         4.406E-4      90.69         0.57604       156.69         
2898.3400     0.19454       71.28         3.502E-4      72.47         4.703E-4      78.12         0.57926       156.78         
2901.3300     0.19858       71.82         3.474E-4      81.64         3.504E-4      84.95         0.58219       157.01         
2904.3200     0.20261       72.42         3.889E-4      67.34         4.125E-4      71.34         0.58416       157.34         
2907.3100     0.20657       73.04         4.052E-4      78.25         4.23E-4       61.91         0.58548       157.77         
2910.3000     0.21028       73.65         3.986E-4      65.81         4.63E-4       75.34         0.58596       158.25         
2913.2900     0.2139        74.24         3.88E-4       68.55         3.446E-4      66.92         0.58558       158.74         
2916.2800     0.2173        74.77         3.424E-4      66.24         4.355E-4      63.16         0.58448       159.24         
2919.2700     0.22045       75.23         3.168E-4      72.22         4.216E-4      51.90         0.58261       159.67         
2922.2600     0.22338       75.67         4.085E-4      76.85         4.431E-4      70.27         0.58035       160.04         
2925.2500     0.22598       76.07         2.837E-4      48.77         4.59E-4       58.51         0.57753       160.32         
2928.2400     0.22867       76.45         4.189E-4      62.67         4.228E-4      60.36         0.57433       160.47         
2931.2300     0.23152       76.82         3.895E-4      66.34         4.86E-4       60.56         0.57097       160.47         
2934.2200     0.23463       77.12         4.261E-4      68.58         3.146E-4      43.42         0.56765       160.32         
2937.2100     0.23826       77.45         5.147E-4      58.21         4.409E-4      56.33         0.56474       160.06         
2940.2000     0.24217       77.68         3.878E-4      54.95         3.814E-4      50.66         0.56229       159.65         
2943.1900     0.24635       77.88         4.143E-4      56.92         4.858E-4      48.09         0.56078       159.16         
2946.1800     0.25067       78.11         3.371E-4      47.19         4.321E-4      40.15         0.55999       158.60         
2949.1700     0.2552        78.36         4.388E-4      35.65         3.91E-4       47.16         0.56009       158.03         
2952.1600     0.26014       78.70         4.015E-4      40.87         3.719E-4      25.86         0.56126       157.48         
2955.1500     0.26513       79.06         3.823E-4      37.01         4.711E-4      31.64         0.56311       157.01         
2958.1400     0.27031       79.45         4.96E-4       24.79         4.398E-4      22.79         0.56541       156.64         
2961.1300     0.27556       79.86         4.336E-4      40.65         4.184E-4      34.93         0.56848       156.41         
2964.1200     0.28044       80.31         4.26E-4       36.06         4.078E-4      23.61         0.57135       156.32         
2967.1100     0.28463       80.80         4.488E-4      16.32         4.357E-4      23.43         0.57419       156.38         
2970.1000     0.28845       81.30         3.156E-4      13.01         4.056E-4      29.34         0.57697       156.58         
2973.0900     0.29197       81.79         4.086E-4      15.23         3.579E-4      18.25         0.57898       156.90         
2976.0800     0.29518       82.29         4.176E-4      27.24         4.123E-4      22.80         0.58052       157.34         
2979.0700     0.2981        82.78         3.51E-4       4.20          4.036E-4      11.23         0.58121       157.83         
2982.0600     0.30076       83.17         3.018E-4      8.97          3.553E-4      17.95         0.58134       158.39         
2985.0500     0.30351       83.51         3.87E-4       16.58         3.994E-4      22.16         0.58059       158.94         
2988.0400     0.30623       83.75         3.869E-4      17.43         4.518E-4      11.07         0.57884       159.48         
2991.0300     0.30877       83.90         3.667E-4      9.73          3.804E-4      6.42          0.57634       159.94         
2994.0200     0.31139       83.99         3.56E-4       -1.87         2.984E-4      -7.52         0.57328       160.28         
2997.0100     0.31438       84.06         4.305E-4      -12.05        3.73E-4       -10.61        0.56951       160.50         
3000.0000     0.31714       84.13         2.546E-4      -6.38         4.289E-4      -11.17        0.56496       160.50         
